!*** FMO 5.3 (Gamess) INPUT generated by Facio 22.1.1.32 ***
 $CONTRL RUNTYP=ENERGY NPRINT=-5 ISPHER=1 MAXIT=200 $END
 $SYSTEM MWORDS=63 MEMDDI=63 $END
 $GDDI NGROUP=1 $END
 $SCF DIRSCF=.TRUE. NPUNCH=0 $END
!*** NumCPU : 2  MemPerNode : 512MB
 $PCM SOLVNT=WATER IEF=-10 ICOMP=2 ICAV=1 IDISP=1 IFMO=-1 $END
 $PCMCAV RADII=SUAHF $END
 $TESCAV NTSALL=60 $END
 $FMOPRP
    NAODIR=200
    NGRFMO(1)=1, 1, 0, 0, 0,   0, 0, 0, 0, 0
    IPIEDA=1
    NPRINT=9
 $END
 $FMO
      SCFTYP(1)=RHF
      MODGRD=10
      MODMUL=0
      MAXCAO=5
      MAXBND=13
      NLAYER=1
      MPLEVL(1)=2
      NFRAG=11
      ICHARG(1)=-1, -1, -1, -1, 0, -1, -1, -1, -1, -1, 0
      FRGNAM(1)=F1, F2, F3, F4, F5, F6, F7, F8, F9, F10, F11
      indat(1)=0
               1   -35   0
               36   -66   0
               67   -100   0
               101   -134   0
               135   -166   0
               167   -196   0
               197   -227   0
               228   -260   0
               261   -293   0
               294   -327   0
               328   -354   0
 $END

 $FMOBND
   -36   35       6-31G*    MINI
   -67   66       6-31G*    MINI
   -101   100       6-31G*    MINI
   -135   134       6-31G*    MINI
   -167   166       6-31G*    MINI
   -197   196       6-31G*    MINI
   -228   227       6-31G*    MINI
   -261   260       6-31G*    MINI
   -294   293       6-31G*    MINI
   -328   327       6-31G*    MINI
 $END
 $FMOHYB
 6-31G*      15   5
   1 0  -0.065034   0.288264   0.000000   0.000000   0.604412
         0.290129   0.000000   0.000000   0.319045  -0.017106
        -0.017106   0.057934   0.000000   0.000000   0.000000
   0 1  -0.065040   0.288293   0.569832   0.000000  -0.201456
         0.290147   0.300783   0.000000  -0.106342   0.049598
        -0.017106  -0.008771   0.000000  -0.027223   0.000000
   0 1  -0.065039   0.288293  -0.284916  -0.493490  -0.201455
         0.290145  -0.150392  -0.260486  -0.106340  -0.000427
         0.032923  -0.008771   0.033353   0.013612   0.023576
   0 1  -0.065039   0.288293  -0.284916   0.493490  -0.201455
         0.290145  -0.150392   0.260486  -0.106340  -0.000427
         0.032923  -0.008771  -0.033353   0.013612  -0.023576
   0 1   1.010938  -0.011975   0.000000   0.000000   0.000000
        -0.054085   0.000000   0.000000  -0.000000  -0.003174
        -0.003174  -0.003174   0.000000   0.000000   0.000000
 MINI         5   5
   1 0  -0.104883   0.308874   0.000000   0.000000   0.521806
   0 1  -0.104883   0.308874   0.491961   0.000000  -0.173934
   0 1  -0.104883   0.308876  -0.245980  -0.426050  -0.173933
   0 1  -0.104883   0.308876  -0.245980   0.426050  -0.173933
   0 1   0.988209   0.063992   0.000000   0.000000   0.000000
 $END
 
 $DATA
 FMO calculation
 C1 
 H.1-1    1
      N31 6
   
 O.1-1    8
      N31 6
      d 1
      1 0.800 1.0
   
 C.1-1    6
      N31 6
      d 1
      1 0.800 1.0
   
 N.1-1    7
      N31 6
      d 1
      1 0.800 1.0
   
 P.1-1   15
      N31 6
      d 1
      1 0.550 1.0
   
 $END
 $FMOXYZ
    1    H    1.826    -3.449    3.503
    2    O    1.349    -3.312    2.662
    3    C    1.078    -4.609    2.111
    4    H    0.482    -5.202    2.840
    5    H    2.038    -5.146    1.939
    6    C    0.303    -4.552    0.791
    7    H    0.146    -5.577    0.395
    8    O    -1.012    -3.964    1.005
    9    C    -1.356    -3.164    -0.112
    10    H    -2.335    -3.545    -0.491
    11    N    -1.512    -1.757    0.285
    12    C    -2.117    0.358    0.379
    13    N    -1.410    0.106    1.545
    14    C    -1.073    -1.158    1.445
    15    H    -0.511    -1.718    2.200
    16    N    -3.354    1.438    -1.326
    17    C    -3.309    0.274    -1.984
    18    H    -3.814    0.263    -2.957
    19    N    -2.765    -0.891    -1.612
    20    C    -2.179    -0.779    -0.410
    21    C    -2.759    1.518    -0.109
    22    N    -2.801    2.684    0.564
    23    H    -2.381    2.786    1.472
    24    H    -3.216    3.496    0.146
    25    C    -0.289    -3.371    -1.169
    26    H    -0.118    -2.461    -1.779
    27    O    -0.646    -4.458    -2.008
    28    H    0.078    -4.561    -2.638
    29    C    0.937    -3.698    -0.315
    30    H    1.308    -2.774    0.186
    31    O    1.988    -4.447    -0.986
    32    P    3.187    -3.629    -1.614
    33    O    3.662    -2.623    -0.643
    34    O    4.199    -4.580    -2.135
    35    O    2.510    -2.878    -2.819
    36    C    2.041    -3.613    -3.972
    37    H    1.395    -4.466    -3.671
    38    H    2.902    -4.029    -4.543
    39    C    1.238    -2.725    -4.935
    40    H    0.820    -3.334    -5.769
    41    O    0.111    -2.113    -4.248
    42    C    -0.080    -0.795    -4.749
    43    H    -1.127    -0.771    -5.139
    44    N    0.070    0.251    -3.700
    45    C    0.798    -0.003    -2.561
    46    H    1.241    -0.998    -2.493
    47    C    0.917    0.911    -1.589
    48    H    1.463    0.717    -0.668
    49    C    -0.503    1.505    -3.884
    50    O    -1.135    1.737    -4.926
    51    N    -0.381    2.445    -2.923
    52    C    0.289    2.174    -1.791
    53    N    0.347    3.107    -0.844
    54    H    -0.153    3.964    -0.997
    55    H    0.749    2.935    0.059
    56    C    0.879    -0.601    -5.908
    57    H    1.254    0.440    -5.973
    58    O    0.252    -0.968    -7.125
    59    H    0.947    -1.074    -7.792
    60    C    2.013    -1.557    -5.551
    61    H    2.637    -1.133    -4.730
    62    O    2.794    -2.019    -6.681
    63    P    4.111    -1.239    -7.065
    64    O    5.112    -1.520    -6.015
    65    O    4.487    -1.616    -8.449
    66    O    3.762    0.294    -7.011
    67    C    3.110    0.948    -8.119
    68    H    2.109    0.499    -8.310
    69    H    3.718    0.844    -9.046
    70    C    2.916    2.445    -7.848
    71    H    2.378    2.934    -8.691
    72    O    2.110    2.625    -6.646
    73    C    2.612    3.712    -5.895
    74    H    1.750    4.400    -5.748
    75    N    3.102    3.277    -4.573
    76    C    3.003    3.969    -3.389
    77    N    1.989    6.745    -1.579
    78    H    1.968    7.034    -0.620
    79    H    1.581    7.362    -2.258
    80    N    2.447    5.187    -3.222
    81    C    2.467    5.574    -1.945
    82    N    3.037    4.841    -0.939
    83    H    2.982    5.200    0.002
    84    C    3.618    3.588    -1.083
    85    O    4.088    2.987    -0.112
    86    C    3.580    3.151    -2.433
    87    N    4.024    1.966    -2.999
    88    C    3.722    2.084    -4.269
    89    H    3.930    1.332    -5.028
    90    C    3.679    4.398    -6.733
    91    H    4.493    4.840    -6.123
    92    O    3.099    5.392    -7.566
    93    H    2.379    5.865    -7.134
    94    C    4.204    3.235    -7.570
    95    H    4.836    2.576    -6.932
    96    O    4.836    3.629    -8.811
    97    P    6.347    3.323    -9.108
    98    O    6.856    2.382    -8.088
    99    O    6.505    2.906    -10.527
    100    O    7.085    4.692    -8.868
    101    C    6.956    5.813    -9.767
    102    H    5.902    5.945    -10.108
    103    H    7.589    5.649    -10.670
    104    C    7.400    7.119    -9.091
    105    H    7.311    7.976    -9.791
    106    O    6.520    7.396    -7.962
    107    C    7.291    7.916    -6.885
    108    H    6.798    8.865    -6.575
    109    N    7.304    7.012    -5.728
    110    C    7.635    7.349    -4.443
    111    N    8.596    9.725    -2.109
    112    H    8.737    10.543    -2.663
    113    H    8.763    9.771    -1.119
    114    N    8.027    8.566    -4.019
    115    C    8.220    8.607    -2.705
    116    N    8.021    7.527    -1.885
    117    H    8.201    7.641    -0.899
    118    C    7.629    6.257    -2.294
    119    O    7.474    5.340    -1.482
    120    C    7.439    6.199    -3.700
    121    N    7.014    5.151    -4.510
    122    C    6.957    5.681    -5.709
    123    H    6.652    5.163    -6.619
    124    C    8.671    8.219    -7.417
    125    H    9.456    8.140    -6.638
    126    O    8.691    9.520    -7.981
    127    H    9.563    9.635    -8.377
    128    C    8.817    7.142    -8.485
    129    H    8.965    6.149    -8.003
    130    O    9.796    7.433    -9.511
    131    P    11.248    6.830    -9.351
    132    O    11.153    5.414    -8.941
    133    O    12.039    7.106    -10.572
    134    O    11.851    7.655    -8.150
    135    C    12.166    9.055    -8.347
    136    H    11.276    9.632    -8.689
    137    H    12.962    9.169    -9.118
    138    C    12.683    9.691    -7.053
    139    H    12.928    10.764    -7.208
    140    O    11.657    9.626    -6.022
    141    C    12.274    9.381    -4.768
    142    H    11.970    10.213    -4.093
    143    N    11.809    8.113    -4.198
    144    C    11.290    6.487    -2.812
    145    N    10.845    6.087    -4.064
    146    C    11.176    7.081    -4.849
    147    H    11.001    7.116    -5.926
    148    N    11.790    6.538    -0.499
    149    C    12.324    7.745    -0.720
    150    H    12.758    8.236    0.159
    151    N    12.445    8.418    -1.871
    152    C    11.891    7.732    -2.883
    153    C    11.242    5.869    -1.545
    154    N    10.678    4.666    -1.331
    155    H    10.264    4.135    -2.073
    156    H    10.661    4.272    -0.409
    157    C    13.780    9.421    -4.974
    158    H    14.312    8.707    -4.309
    159    O    14.259    10.738    -4.747
    160    H    15.182    10.790    -5.049
    161    C    13.905    9.001    -6.435
    162    H    13.780    7.899    -6.536
    163    O    15.116    9.438    -7.077
    164    H    15.877    8.963    -6.698
    165    H    11.072    3.120    8.417
    166    O    11.175    3.924    7.877
    167    C    12.144    4.746    8.543
    168    H    13.048    4.137    8.769
    169    H    11.718    5.090    9.513
    170    C    12.567    5.975    7.728
    171    H    13.203    6.649    8.341
    172    O    13.363    5.567    6.571
    173    C    13.019    6.382    5.459
    174    H    13.979    6.819    5.088
    175    N    12.369    5.595    4.369
    176    C    11.819    4.352    4.616
    177    H    11.881    4.006    5.648
    178    C    12.360    6.117    3.099
    179    O    12.857    7.217    2.831
    180    N    11.772    5.336    2.145
    181    H    11.778    5.714    1.205
    182    C    11.223    4.080    2.312
    183    O    10.745    3.484    1.349
    184    C    11.270    3.594    3.658
    185    H    10.856    2.612    3.879
    186    C    12.136    7.498    5.984
    187    H    11.421    7.862    5.220
    188    O    12.935    8.575    6.439
    189    H    12.325    9.242    6.779
    190    C    11.419    6.807    7.138
    191    H    10.666    6.085    6.742
    192    O    10.883    7.693    8.154
    193    P    9.377    8.142    8.049
    194    O    8.529    6.967    7.751
    195    O    9.018    8.937    9.244
    196    O    9.375    9.085    6.787
    197    C    10.028    10.377    6.842
    198    H    11.100    10.274    7.124
    199    H    9.542    11.026    7.607
    200    C    9.949    11.114    5.492
    201    H    10.429    12.114    5.558
    202    O    10.662    10.368    4.465
    203    C    9.953    10.467    3.230
    204    H    10.681    10.889    2.499
    205    N    9.466    9.146    2.727
    206    C    9.336    8.083    3.590
    207    H    9.601    8.280    4.629
    208    C    8.931    6.879    3.166
    209    H    8.857    6.024    3.834
    210    C    9.097    8.989    1.393
    211    O    9.171    9.961    0.626
    212    N    8.672    7.785    0.947
    213    C    8.602    6.738    1.787
    214    N    8.218    5.554    1.311
    215    H    7.996    5.464    0.337
    216    H    8.087    4.757    1.904
    217    C    8.825    11.463    3.434
    218    H    7.928    11.228    2.820
    219    O    9.267    12.780    3.147
    220    H    8.545    13.379    3.393
    221    C    8.533    11.282    4.921
    222    H    8.001    10.320    5.100
    223    O    7.885    12.399    5.560
    224    P    6.323    12.543    5.457
    225    O    5.703    11.231    5.740
    226    O    5.916    13.674    6.322
    227    O    6.080    12.926    3.948
    228    C    4.736    12.871    3.409
    229    H    4.016    13.420    4.060
    230    H    4.389    11.815    3.333
    231    C    4.664    13.491    2.002
    232    H    4.944    14.563    2.040
    233    O    5.603    12.845    1.101
    234    C    5.047    12.793    -0.201
    235    H    5.754    13.332    -0.871
    236    N    4.923    11.402    -0.644
    237    C    4.764    9.592    -1.874
    238    N    4.809    9.155    -0.559
    239    C    4.905    10.264    0.134
    240    H    4.964    10.322    1.225
    241    N    4.633    9.626    -4.235
    242    C    4.721    10.955    -4.143
    243    H    4.716    11.492    -5.097
    244    N    4.829    11.722    -3.050
    245    C    4.834    10.970    -1.940
    246    C    4.667    8.900    -3.094
    247    N    4.634    7.563    -3.169
    248    H    4.669    6.996    -2.351
    249    H    4.652    7.141    -4.071
    250    C    3.709    13.526    -0.174
    251    H    2.956    13.058    -0.846
    252    O    3.872    14.890    -0.526
    253    H    3.023    15.327    -0.360
    254    C    3.307    13.366    1.293
    255    H    2.941    12.332    1.480
    256    O    2.400    14.353    1.816
    257    P    0.905    14.441    1.346
    258    O    0.073    14.773    2.524
    259    O    0.876    15.390    0.211
    260    O    0.540    12.979    0.873
    261    C    -0.727    12.747    0.202
    262    H    -1.584    13.195    0.755
    263    H    -0.910    11.649    0.194
    264    C    -0.753    13.239    -1.261
    265    H    -0.815    14.347    -1.295
    266    O    0.483    12.866    -1.934
    267    C    0.218    12.513    -3.273
    268    H    0.864    13.164    -3.904
    269    N    0.565    11.117    -3.506
    270    C    1.247    9.250    -4.425
    271    N    0.915    8.933    -3.117
    272    C    0.510    10.073    -2.613
    273    H    0.154    10.220    -1.590
    274    N    1.938    9.085    -6.682
    275    C    1.685    10.394    -6.774
    276    H    1.893    10.842    -7.751
    277    N    1.245    11.241    -5.835
    278    C    1.038    10.592    -4.676
    279    C    1.732    8.472    -5.492
    280    N    2.056    7.175    -5.393
    281    H    1.986    6.693    -4.511
    282    H    2.788    6.900    -6.006
    283    C    -1.243    12.804    -3.557
    284    H    -1.702    12.085    -4.268
    285    O    -1.371    14.118    -4.067
    286    H    -1.062    14.742    -3.393
    287    C    -1.857    12.665    -2.163
    288    H    -1.947    11.586    -1.902
    289    O    -3.083    13.399    -1.982
    290    P    -4.420    12.697    -1.552
    291    O    -4.158    11.890    -0.343
    292    O    -5.484    13.722    -1.473
    293    O    -4.748    11.718    -2.739
    294    C    -5.128    12.228    -4.037
    295    H    -4.445    13.045    -4.374
    296    H    -6.164    12.642    -4.005
    297    C    -5.092    11.122    -5.102
    298    H    -5.433    11.512    -6.085
    299    O    -3.715    10.658    -5.270
    300    C    -3.720    9.245    -5.430
    301    H    -3.134    9.015    -6.350
    302    N    -3.101    8.569    -4.277
    303    C    -2.617    7.290    -4.243
    304    N    -2.061    4.244    -5.787
    305    H    -2.439    4.379    -6.703
    306    H    -1.694    3.345    -5.531
    307    N    -2.617    6.422    -5.269
    308    C    -2.099    5.243    -4.928
    309    N    -1.563    4.987    -3.693
    310    H    -1.164    4.076    -3.519
    311    C    -1.505    5.878    -2.630
    312    O    -0.997    5.558    -1.552
    313    C    -2.121    7.113    -2.964
    314    N    -2.313    8.254    -2.199
    315    C    -2.895    9.090    -3.021
    316    H    -3.183    10.110    -2.777
    317    C    -5.160    8.818    -5.629
    318    H    -5.349    7.788    -5.268
    319    O    -5.510    8.907    -6.997
    320    H    -6.452    8.707    -7.061
    321    C    -5.905    9.853    -4.792
    322    H    -5.765    9.642    -3.707
    323    O    -7.292    10.049    -5.159
    324    P    -8.416    9.306    -4.338
    325    O    -8.120    9.425    -2.896
    326    O    -9.742    9.782    -4.783
    327    O    -8.245    7.801    -4.768
    328    C    -8.513    7.396    -6.131
    329    H    -7.932    7.999    -6.865
    330    H    -9.592    7.537    -6.371
    331    C    -8.169    5.915    -6.355
    332    H    -8.434    5.604    -7.386
    333    O    -6.736    5.695    -6.197
    334    C    -6.518    4.448    -5.552
    335    H    -5.848    3.866    -6.229
    336    N    -5.872    4.623    -4.216
    337    C    -5.914    5.830    -3.548
    338    H    -6.444    6.626    -4.065
    339    C    -5.223    3.549    -3.661
    340    O    -5.171    2.449    -4.221
    341    N    -4.641    3.775    -2.444
    342    H    -4.160    2.982    -2.035
    343    C    -4.639    4.953    -1.723
    344    O    -4.074    5.007    -0.633
    345    C    -5.321    6.036    -2.365
    346    H    -5.340    7.010    -1.877
    347    C    -7.869    3.745    -5.464
    348    H    -7.948    3.114    -4.552
    349    O    -8.092    2.951    -6.622
    350    H    -9.011    2.631    -6.610
    351    C    -8.823    4.932    -5.384
    352    H    -8.800    5.380    -4.367
    353    O    -10.175    4.642    -5.791
    354    H    -10.590    4.031    -5.157
 $END
