!*** FMO 5.3 (Gamess) INPUT generated by Facio 22.1.1.32 ***
 $CONTRL RUNTYP=ENERGY NPRINT=-5 ISPHER=1 MAXIT=200 $END
 $SYSTEM MWORDS=63 MEMDDI=63 $END
 $GDDI NGROUP=1 $END
 $SCF DIRSCF=.TRUE. NPUNCH=0 $END
!*** NumCPU : 2  MemPerNode : 512MB
 $PCM SOLVNT=WATER IEF=-10 ICOMP=2 ICAV=1 IDISP=1 IFMO=-1 $END
 $PCMCAV RADII=SUAHF $END
 $TESCAV NTSALL=60 $END
 $FMOPRP
    NAODIR=200
    NGRFMO(1)=1, 1, 0, 0, 0,   0, 0, 0, 0, 0
    IPIEDA=1
    NPRINT=9
 $END
 $FMO
      SCFTYP(1)=RHF
      MODGRD=10
      MODMUL=0
      MAXCAO=5
      MAXBND=19
      NLAYER=1
      MPLEVL(1)=2
      NFRAG=17
      ICHARG(1)=-1, -1, -1, -1, -1, -1, -1, -1, -1, -1, 0, -1, -1, -1,
-1, -1, 0
      FRGNAM(1)=F1, F2, F3, F4, F5, F6, F7, F8, F9, F10, F11, F12, F13,
F14, F15, F16, F17
      indat(1)=0
               1   -35   0
               36   -69   0
               70   -103   0
               104   -136   0
               137   -169   0
               170   -200   0
               201   -230   0
               231   -263   0
               264   -294   0
               295   -324   0
               325   -357   0
               358   -388   0
               389   -421   0
               422   -455   0
               456   -486   0
               487   -517   0
               518   -544   0
 $END

 $FMOBND
   -36   35       6-31G*    MINI
   -70   69       6-31G*    MINI
   -104   103       6-31G*    MINI
   -137   136       6-31G*    MINI
   -170   169       6-31G*    MINI
   -201   200       6-31G*    MINI
   -231   230       6-31G*    MINI
   -264   263       6-31G*    MINI
   -295   294       6-31G*    MINI
   -325   324       6-31G*    MINI
   -358   357       6-31G*    MINI
   -389   388       6-31G*    MINI
   -422   421       6-31G*    MINI
   -456   455       6-31G*    MINI
   -487   486       6-31G*    MINI
   -518   517       6-31G*    MINI
 $END
 $FMOHYB
 6-31G*      15   5
   1 0  -0.065034   0.288264   0.000000   0.000000   0.604412
         0.290129   0.000000   0.000000   0.319045  -0.017106
        -0.017106   0.057934   0.000000   0.000000   0.000000
   0 1  -0.065040   0.288293   0.569832   0.000000  -0.201456
         0.290147   0.300783   0.000000  -0.106342   0.049598
        -0.017106  -0.008771   0.000000  -0.027223   0.000000
   0 1  -0.065039   0.288293  -0.284916  -0.493490  -0.201455
         0.290145  -0.150392  -0.260486  -0.106340  -0.000427
         0.032923  -0.008771   0.033353   0.013612   0.023576
   0 1  -0.065039   0.288293  -0.284916   0.493490  -0.201455
         0.290145  -0.150392   0.260486  -0.106340  -0.000427
         0.032923  -0.008771  -0.033353   0.013612  -0.023576
   0 1   1.010938  -0.011975   0.000000   0.000000   0.000000
        -0.054085   0.000000   0.000000  -0.000000  -0.003174
        -0.003174  -0.003174   0.000000   0.000000   0.000000
 MINI         5   5
   1 0  -0.104883   0.308874   0.000000   0.000000   0.521806
   0 1  -0.104883   0.308874   0.491961   0.000000  -0.173934
   0 1  -0.104883   0.308876  -0.245980  -0.426050  -0.173933
   0 1  -0.104883   0.308876  -0.245980   0.426050  -0.173933
   0 1   0.988209   0.063992   0.000000   0.000000   0.000000
 $END
 
 $DATA
 FMO calculation
 C1 
 H.1-1    1
      N31 6
   
 O.1-1    8
      N31 6
      d 1
      1 0.800 1.0
   
 C.1-1    6
      N31 6
      d 1
      1 0.800 1.0
   
 N.1-1    7
      N31 6
      d 1
      1 0.800 1.0
   
 P.1-1   15
      N31 6
      d 1
      1 0.550 1.0
   
 $END
 $FMOXYZ
    1    H    16.831    7.634    3.983
    2    O    17.346    8.295    3.486
    3    C    18.347    8.798    4.386
    4    H    18.978    7.947    4.731
    5    H    17.849    9.248    5.278
    6    C    19.260    9.849    3.746
    7    H    20.003    10.233    4.478
    8    O    20.003    9.263    2.632
    9    C    20.115    10.220    1.589
    10    H    21.202    10.340    1.377
    11    N    19.439    9.765    0.366
    12    C    18.816    9.476    -1.726
    13    N    18.124    8.528    -0.981
    14    C    18.528    8.743    0.249
    15    H    18.199    8.182    1.127
    16    N    19.656    10.767    -3.527
    17    C    20.370    11.434    -2.611
    18    H    21.000    12.241    -3.002
    19    N    20.432    11.251    -1.287
    20    C    19.624    10.247    -0.907
    21    C    18.855    9.752    -3.110
    22    N    18.159    9.041    -4.021
    23    H    17.567    8.281    -3.742
    24    H    18.168    9.300    -4.990
    25    C    19.560    11.524    2.114
    26    H    19.098    12.142    1.321
    27    O    20.589    12.256    2.748
    28    H    20.180    13.058    3.095
    29    C    18.524    11.040    3.124
    30    H    17.636    10.618    2.595
    31    O    18.176    11.997    4.156
    32    P    16.951    12.953    3.878
    33    O    15.788    12.158    3.423
    34    O    16.735    13.792    5.079
    35    O    17.457    13.871    2.703
    36    C    18.478    14.862    2.985
    37    H    19.371    14.401    3.460
    38    H    18.090    15.637    3.684
    39    C    18.939    15.570    1.705
    40    H    19.775    16.272    1.925
    41    O    19.423    14.596    0.742
    42    C    19.034    14.997    -0.563
    43    H    19.966    15.064    -1.170
    44    N    18.138    14.021    -1.194
    45    C    17.867    13.919    -2.532
    46    N    18.273    15.063    -5.779
    47    H    18.864    15.856    -5.657
    48    H    17.902    14.870    -6.692
    49    N    18.359    14.715    -3.499
    50    C    17.923    14.372    -4.708
    51    N    17.098    13.300    -4.929
    52    H    16.815    13.105    -5.877
    53    C    16.595    12.446    -3.953
    54    O    15.861    11.499    -4.252
    55    C    17.021    12.834    -2.655
    56    N    16.741    12.279    -1.411
    57    C    17.421    13.025    -0.574
    58    H    17.445    12.901    0.509
    59    C    18.415    16.369    -0.451
    60    H    17.621    16.543    -1.205
    61    O    19.419    17.360    -0.570
    62    H    18.972    18.206    -0.453
    63    C    17.841    16.339    0.960
    64    H    16.936    15.691    1.000
    65    O    17.641    17.644    1.562
    66    P    16.250    18.354    1.353
    67    O    15.186    17.361    1.590
    68    O    16.214    19.583    2.180
    69    O    16.218    18.737    -0.173
    70    C    17.070    19.748    -0.747
    71    H    18.141    19.594    -0.485
    72    H    16.788    20.754    -0.374
    73    C    16.935    19.777    -2.274
    74    H    17.650    20.511    -2.709
    75    O    17.263    18.474    -2.832
    76    C    16.425    18.216    -3.947
    77    H    17.099    18.025    -4.813
    78    N    15.579    17.026    -3.735
    79    C    14.952    16.292    -4.709
    80    N    14.185    15.767    -8.050
    81    H    14.652    16.525    -8.504
    82    H    13.630    15.135    -8.599
    83    N    14.981    16.548    -6.028
    84    C    14.298    15.656    -6.739
    85    N    13.651    14.592    -6.172
    86    H    13.159    13.956    -6.782
    87    C    13.613    14.293    -4.817
    88    O    13.006    13.300    -4.412
    89    C    14.323    15.256    -4.049
    90    N    14.524    15.350    -2.675
    91    C    15.270    16.422    -2.536
    92    H    15.627    16.826    -1.587
    93    C    15.617    19.469    -4.207
    94    H    14.609    19.243    -4.606
    95    O    16.314    20.317    -5.105
    96    H    15.801    21.131    -5.168
    97    C    15.528    20.081    -2.813
    98    H    14.814    19.512    -2.174
    99    O    15.278    21.506    -2.796
    100    P    13.793    22.035    -2.780
    101    O    13.066    21.358    -1.684
    102    O    13.821    23.514    -2.754
    103    O    13.166    21.557    -4.138
    104    C    13.523    22.170    -5.400
    105    H    14.626    22.209    -5.542
    106    H    13.152    23.219    -5.447
    107    C    12.917    21.404    -6.586
    108    H    13.274    21.831    -7.549
    109    O    13.327    20.007    -6.553
    110    C    12.269    19.196    -7.028
    111    H    12.669    18.631    -7.902
    112    N    11.821    18.244    -6.003
    113    C    10.949    16.500    -4.982
    114    N    11.553    17.267    -3.996
    115    C    12.051    18.289    -4.649
    116    H    12.596    19.121    -4.197
    117    N    9.786    14.781    -6.119
    118    C    10.006    15.477    -7.237
    119    H    9.591    15.028    -8.148
    120    N    10.651    16.637    -7.395
    121    C    11.102    17.097    -6.221
    122    C    10.258    15.269    -4.946
    123    N    10.057    14.565    -3.818
    124    H    10.414    14.856    -2.927
    125    H    9.529    13.716    -3.855
    126    C    11.164    20.118    -7.486
    127    H    10.160    19.690    -7.300
    128    O    11.326    20.429    -8.855
    129    H    10.684    21.121    -9.052
    130    C    11.387    21.348    -6.622
    131    H    11.053    21.150    -5.581
    132    O    10.847    22.575    -7.167
    133    P    9.382    23.018    -6.778
    134    O    9.286    23.047    -5.303
    135    O    9.064    24.270    -7.500
    136    O    8.449    21.866    -7.309
    137    C    8.168    21.707    -8.715
    138    H    9.102    21.707    -9.321
    139    H    7.525    22.546    -9.076
    140    C    7.428    20.388    -8.990
    141    H    7.318    20.234    -10.089
    142    O    8.180    19.243    -8.472
    143    C    7.280    18.311    -7.898
    144    H    7.503    17.325    -8.367
    145    N    7.450    18.197    -6.440
    146    C    7.475    17.422    -4.380
    147    N    8.047    18.687    -4.328
    148    C    8.000    19.106    -5.569
    149    H    8.372    20.070    -5.913
    150    N    6.692    15.266    -3.788
    151    C    6.369    15.120    -5.077
    152    H    5.912    14.160    -5.338
    153    N    6.513    15.982    -6.090
    154    C    7.097    17.114    -5.674
    155    C    7.256    16.436    -3.393
    156    N    7.595    16.598    -2.101
    157    H    8.047    17.425    -1.759
    158    H    7.409    15.862    -1.449
    159    C    5.895    18.751    -8.282
    160    H    5.132    18.455    -7.535
    161    O    5.576    18.226    -9.554
    162    H    4.789    18.706    -9.840
    163    C    6.045    20.265    -8.347
    164    H    6.123    20.708    -7.328
    165    O    5.064    20.929    -9.172
    166    P    3.679    21.363    -8.569
    167    O    3.939    22.259    -7.420
    168    O    2.850    21.904    -9.669
    169    O    3.025    20.042    -8.035
    170    C    2.432    19.055    -8.902
    171    H    3.147    18.720    -9.684
    172    H    1.548    19.486    -9.421
    173    C    1.976    17.814    -8.113
    174    H    1.620    17.020    -8.806
    175    O    3.080    17.255    -7.351
    176    C    2.602    16.763    -6.113
    177    H    2.886    15.686    -6.096
    178    N    3.225    17.448    -4.944
    179    C    3.600    18.768    -5.045
    180    H    3.421    19.240    -6.007
    181    C    4.184    19.413    -4.027
    182    H    4.498    20.454    -4.102
    183    C    3.401    16.771    -3.737
    184    O    3.025    15.590    -3.641
    185    N    3.971    17.416    -2.691
    186    C    4.379    18.690    -2.816
    187    N    4.981    19.278    -1.786
    188    H    5.112    18.757    -0.942
    189    H    5.302    20.228    -1.825
    190    C    1.089    16.874    -6.140
    191    H    0.659    17.076    -5.136
    192    O    0.512    15.702    -6.695
    193    H    -0.355    15.975    -7.029
    194    C    0.881    18.060    -7.074
    195    H    1.158    19.012    -6.566
    196    O    -0.418    18.100    -7.717
    197    P    -1.526    19.040    -7.104
    198    O    -0.903    20.333    -6.747
    199    O    -2.667    19.105    -8.040
    200    O    -1.949    18.313    -5.776
    201    C    -2.399    16.944    -5.726
    202    H    -1.542    16.288    -5.465
    203    H    -2.811    16.606    -6.702
    204    C    -3.456    16.675    -4.639
    205    H    -3.588    15.577    -4.546
    206    O    -3.031    17.168    -3.336
    207    C    -3.915    18.190    -2.924
    208    H    -4.646    17.678    -2.255
    209    N    -3.173    19.265    -2.228
    210    C    -2.116    19.882    -2.854
    211    H    -1.890    19.525    -3.858
    212    C    -3.529    19.601    -0.942
    213    O    -4.462    19.065    -0.349
    214    N    -2.758    20.578    -0.365
    215    H    -3.028    20.855    0.570
    216    C    -1.683    21.236    -0.923
    217    O    -1.079    22.093    -0.277
    218    C    -1.373    20.827    -2.259
    219    H    -0.525    21.285    -2.759
    220    C    -4.662    18.659    -4.159
    221    H    -4.048    19.368    -4.755
    222    O    -5.918    19.226    -3.843
    223    H    -6.470    18.494    -3.523
    224    C    -4.822    17.338    -4.904
    225    H    -4.922    17.542    -5.996
    226    O    -5.928    16.554    -4.403
    227    P    -6.483    15.288    -5.152
    228    O    -5.509    14.179    -5.023
    229    O    -7.850    15.027    -4.655
    230    O    -6.546    15.678    -6.672
    231    C    -7.446    16.688    -7.174
    232    H    -7.327    17.647    -6.612
    233    H    -8.504    16.348    -7.077
    234    C    -7.172    16.972    -8.659
    235    H    -7.806    17.818    -9.014
    236    O    -5.781    17.363    -8.833
    237    C    -5.303    16.883    -10.077
    238    H    -4.961    17.776    -10.650
    239    N    -4.170    15.970    -9.894
    240    C    -2.366    14.749    -10.204
    241    N    -2.691    14.629    -8.856
    242    C    -3.765    15.372    -8.727
    243    H    -4.318    15.531    -7.798
    244    N    -1.265    14.569    -12.299
    245    C    -2.244    15.334    -12.791
    246    H    -2.169    15.560    -13.860
    247    N    -3.268    15.911    -12.151
    248    C    -3.276    15.567    -10.853
    249    C    -1.306    14.231    -10.981
    250    N    -0.341    13.437    -10.479
    251    H    -0.286    13.222    -9.503
    252    H    0.415    13.156    -11.072
    253    C    -6.463    16.233    -10.787
    254    H    -6.145    15.362    -11.391
    255    O    -7.126    17.182    -11.603
    256    H    -7.987    16.807    -11.839
    257    C    -7.340    15.788    -9.626
    258    H    -6.897    14.901    -9.116
    259    O    -8.728    15.608    -9.985
    260    P    -9.269    14.165    -10.317
    261    O    -8.983    13.292    -9.159
    262    O    -10.684    14.282    -10.733
    263    O    -8.424    13.653    -11.546
    264    C    -8.574    14.234    -12.862
    265    H    -8.497    15.344    -12.826
    266    H    -9.574    13.983    -13.281
    267    C    -7.506    13.712    -13.839
    268    H    -7.642    14.157    -14.848
    269    O    -6.185    14.102    -13.372
    270    C    -5.257    13.063    -13.632
    271    H    -4.451    13.533    -14.241
    272    N    -4.653    12.493    -12.391
    273    C    -5.306    12.616    -11.187
    274    H    -6.257    13.143    -11.213
    275    C    -4.781    12.141    -10.052
    276    H    -5.272    12.261    -9.087
    277    C    -3.439    11.813    -12.447
    278    O    -2.872    11.677    -13.542
    279    N    -2.896    11.315    -11.312
    280    C    -3.521    11.480    -10.132
    281    N    -2.960    11.007    -9.021
    282    H    -2.050    10.592    -9.062
    283    H    -3.388    11.127    -8.125
    284    C    -5.976    12.030    -14.470
    285    H    -5.594    11.005    -14.302
    286    O    -5.862    12.367    -15.839
    287    H    -6.393    11.724    -16.323
    288    C    -7.414    12.186    -13.986
    289    H    -7.528    11.763    -12.963
    290    O    -8.422    11.716    -14.910
    291    P    -8.905    10.215    -14.792
    292    O    -9.135    9.890    -13.367
    293    O    -10.068    10.030    -15.683
    294    O    -7.728    9.311    -15.309
    295    C    -7.271    9.373    -16.678
    296    H    -7.058    10.415    -16.993
    297    H    -8.057    8.982    -17.367
    298    C    -5.988    8.549    -16.871
    299    H    -5.666    8.565    -17.935
    300    O    -4.902    9.117    -16.078
    301    C    -4.100    8.071    -15.548
    302    H    -3.063    8.277    -15.902
    303    N    -4.133    8.049    -14.051
    304    C    -5.174    8.622    -13.358
    305    H    -5.963    9.042    -13.975
    306    C    -3.090    7.458    -13.377
    307    O    -2.158    6.913    -13.954
    308    N    -3.160    7.541    -12.010
    309    H    -2.418    7.074    -11.500
    310    C    -4.153    8.123    -11.255
    311    O    -4.092    8.115    -10.027
    312    C    -5.209    8.704    -12.022
    313    H    -6.032    9.185    -11.497
    314    C    -4.592    6.776    -16.178
    315    H    -4.455    5.910    -15.503
    316    O    -3.915    6.537    -17.401
    317    H    -4.332    5.768    -17.806
    318    C    -6.068    7.090    -16.407
    319    H    -6.606    7.096    -15.431
    320    O    -6.725    6.290    -17.416
    321    P    -7.577    5.037    -16.977
    322    O    -8.415    5.379    -15.809
    323    O    -8.282    4.490    -18.159
    324    O    -6.493    3.997    -16.498
    325    C    -5.622    3.374    -17.471
    326    H    -5.069    4.134    -18.067
    327    H    -6.211    2.752    -18.181
    328    C    -4.602    2.458    -16.788
    329    H    -3.964    1.934    -17.531
    330    O    -3.726    3.253    -15.943
    331    C    -3.428    2.522    -14.763
    332    H    -2.320    2.435    -14.714
    333    N    -3.892    3.227    -13.564
    334    C    -3.456    3.019    -12.285
    335    N    -1.453    1.327    -10.024
    336    H    -1.000    0.643    -10.595
    337    H    -1.293    1.314    -9.033
    338    N    -2.543    2.106    -11.900
    339    C    -2.322    2.145    -10.587
    340    N    -2.965    3.013    -9.740
    341    H    -2.746    2.969    -8.757
    342    C    -3.910    3.963    -10.111
    343    O    -4.447    4.693    -9.271
    344    C    -4.157    3.927    -11.509
    345    N    -5.032    4.678    -12.287
    346    C    -4.839    4.222    -13.501
    347    H    -5.363    4.560    -14.397
    348    C    -4.036    1.140    -14.904
    349    H    -4.395    0.733    -13.933
    350    O    -3.081    0.259    -15.475
    351    H    -3.528    -0.567    -15.730
    352    C    -5.206    1.412    -15.841
    353    H    -6.047    1.878    -15.278
    354    O    -5.661    0.256    -16.569
    355    H    -6.081    -0.372    -15.954
    356    H    -0.219    3.145    -0.436
    357    O    -0.037    2.850    -1.348
    358    C    0.640    1.589    -1.262
    359    H    0.002    0.873    -0.698
    360    H    1.583    1.714    -0.686
    361    C    0.976    0.980    -2.632
    362    H    1.611    0.076    -2.514
    363    O    -0.258    0.553    -3.287
    364    C    -0.174    0.837    -4.678
    365    H    -0.375    -0.127    -5.200
    366    N    -1.173    1.847    -5.132
    367    C    -1.764    2.701    -4.227
    368    H    -1.472    2.574    -3.183
    369    C    -2.670    3.610    -4.613
    370    H    -3.162    4.274    -3.907
    371    C    -1.487    1.956    -6.483
    372    O    -0.926    1.206    -7.296
    373    N    -2.406    2.861    -6.892
    374    C    -2.995    3.676    -5.998
    375    N    -3.909    4.550    -6.422
    376    H    -4.114    4.616    -7.402
    377    H    -4.399    5.151    -5.785
    378    C    1.253    1.257    -4.966
    379    H    1.330    1.970    -5.812
    380    O    2.045    0.115    -5.229
    381    H    2.952    0.428    -5.333
    382    C    1.648    1.921    -3.649
    383    H    1.135    2.907    -3.558
    384    O    3.075    1.999    -3.395
    385    P    3.858    3.283    -3.881
    386    O    3.121    4.484    -3.437
    387    O    5.280    3.182    -3.485
    388    O    3.772    3.189    -5.449
    389    C    4.564    2.201    -6.154
    390    H    4.316    1.171    -5.814
    391    H    5.655    2.352    -5.974
    392    C    4.330    2.275    -7.668
    393    H    4.919    1.504    -8.206
    394    O    2.925    2.041    -7.967
    395    C    2.525    2.887    -9.033
    396    H    2.120    2.225    -9.840
    397    N    1.495    3.836    -8.601
    398    C    -0.152    5.288    -8.593
    399    N    0.212    5.112    -7.263
    400    C    1.193    4.244    -7.323
    401    H    1.734    3.842    -6.465
    402    N    -1.195    6.067    -10.571
    403    C    -0.328    5.303    -11.242
    404    H    -0.416    5.334    -12.335
    405    N    0.597    4.467    -10.764
    406    C    0.643    4.521    -9.424
    407    C    -1.140    6.083    -9.214
    408    N    -2.030    6.826    -8.532
    409    H    -2.012    6.884    -7.533
    410    H    -2.760    7.310    -9.023
    411    C    3.761    3.594    -9.543
    412    H    3.551    4.617    -9.926
    413    O    4.379    2.825    -10.556
    414    H    5.215    3.269    -10.741
    415    C    4.626    3.642    -8.293
    416    H    4.227    4.398    -7.576
    417    O    6.047    3.783    -8.540
    418    P    6.625    5.249    -8.592
    419    O    6.039    6.045    -7.492
    420    O    8.098    5.186    -8.636
    421    O    6.075    5.821    -9.951
    422    C    6.550    5.347    -11.233
    423    H    6.385    4.253    -11.342
    424    H    7.644    5.532    -11.338
    425    C    5.827    6.036    -12.407
    426    H    6.133    5.585    -13.376
    427    O    4.384    5.863    -12.279
    428    C    3.717    7.059    -12.673
    429    H    3.028    6.769    -13.498
    430    N    2.913    7.631    -11.573
    431    C    1.777    8.398    -11.697
    432    N    -0.657    9.909    -13.669
    433    H    -0.308    9.768    -14.595
    434    H    -1.447    10.514    -13.536
    435    N    1.200    8.777    -12.853
    436    C    0.065    9.461    -12.653
    437    N    -0.411    9.772    -11.407
    438    H    -1.253    10.325    -11.348
    439    C    0.182    9.426    -10.199
    440    O    -0.315    9.762    -9.118
    441    C    1.374    8.675    -10.402
    442    N    2.243    8.101    -9.481
    443    C    3.138    7.492    -10.222
    444    H    3.989    6.922    -9.843
    445    C    4.762    8.024    -13.210
    446    H    4.538    9.082    -12.945
    447    O    4.873    7.894    -14.617
    448    H    5.688    8.346    -14.890
    449    C    6.029    7.553    -12.500
    450    H    5.984    7.920    -11.446
    451    O    7.270    7.875    -13.199
    452    P    8.376    8.637    -12.361
    453    O    7.713    9.686    -11.553
    454    O    9.191    7.649    -11.628
    455    O    9.283    9.299    -13.476
    456    C    10.724    9.422    -13.278
    457    H    11.254    8.883    -14.092
    458    H    11.084    8.968    -12.322
    459    C    11.191    10.889    -13.276
    460    H    10.978    11.369    -14.254
    461    O    10.451    11.628    -12.263
    462    C    11.322    12.519    -11.578
    463    H    10.840    13.522    -11.644
    464    N    11.503    12.163    -10.134
    465    C    11.041    10.955    -9.649
    466    H    10.527    10.305    -10.363
    467    C    11.181    10.622    -8.359
    468    H    10.792    9.691    -7.954
    469    C    12.163    13.038    -9.272
    470    O    12.605    14.110    -9.713
    471    N    12.309    12.717    -7.967
    472    C    11.821    11.556    -7.496
    473    N    11.940    11.278    -6.199
    474    H    12.309    11.971    -5.575
    475    H    11.536    10.451    -5.807
    476    C    12.630    12.542    -12.350
    477    H    13.509    12.734    -11.703
    478    O    12.578    13.513    -13.376
    479    H    13.351    13.373    -13.941
    480    C    12.670    11.131    -12.922
    481    H    12.910    10.413    -12.103
    482    O    13.508    10.986    -14.096
    483    P    14.875    10.213    -13.981
    484    O    14.769    9.164    -12.942
    485    O    15.329    9.759    -15.318
    486    O    15.888    11.285    -13.428
    487    C    16.204    12.474    -14.188
    488    H    15.292    12.939    -14.630
    489    H    16.889    12.212    -15.023
    490    C    16.895    13.539    -13.319
    491    H    17.163    14.432    -13.927
    492    O    15.977    13.986    -12.278
    493    C    16.702    14.212    -11.074
    494    H    16.478    15.263    -10.781
    495    N    16.289    13.304    -9.962
    496    C    15.637    12.127    -10.248
    497    H    15.430    11.942    -11.301
    498    C    15.239    11.290    -9.283
    499    H    14.688    10.378    -9.498
    500    C    16.618    13.599    -8.640
    501    O    17.283    14.613    -8.391
    502    N    16.210    12.775    -7.646
    503    C    15.532    11.649    -7.937
    504    N    15.133    10.854    -6.948
    505    H    15.367    11.078    -5.999
    506    H    14.686    9.977    -7.128
    507    C    18.178    14.098    -11.413
    508    H    18.780    13.736    -10.557
    509    O    18.671    15.355    -11.836
    510    H    19.589    15.226    -12.107
    511    C    18.152    13.088    -12.557
    512    H    17.937    12.067    -12.162
    513    O    19.298    13.128    -13.437
    514    P    20.487    12.120    -13.223
    515    O    19.953    10.775    -12.929
    516    O    21.437    12.209    -14.356
    517    O    21.178    12.667    -11.921
    518    C    21.874    13.933    -11.921
    519    H    21.215    14.763    -12.258
    520    H    22.743    13.891    -12.617
    521    C    22.402    14.270    -10.518
    522    H    22.998    15.207    -10.532
    523    O    21.289    14.483    -9.595
    524    C    21.627    13.931    -8.324
    525    H    21.522    14.770    -7.595
    526    N    20.721    12.810    -7.940
    527    C    19.995    12.125    -8.887
    528    H    20.157    12.446    -9.914
    529    C    20.636    12.467    -6.610
    530    O    21.293    13.029    -5.740
    531    N    19.764    11.445    -6.330
    532    H    19.708    11.177    -5.354
    533    C    18.993    10.729    -7.222
    534    O    18.260    9.827    -6.822
    535    C    19.143    11.137    -8.586
    536    H    18.580    10.615    -9.357
    537    C    23.087    13.506    -8.383
    538    H    23.292    12.616    -7.748
    539    O    23.924    14.581    -7.984
    540    H    24.849    14.350    -8.175
    541    C    23.246    13.171    -9.860
    542    H    22.775    12.188    -10.082
    543    O    24.606    13.208    -10.332
    544    H    25.125    12.499    -9.910
 $END
