!*** FMO 5.3 (Gamess) INPUT generated by Facio 22.1.1.32 ***
 $CONTRL RUNTYP=ENERGY NPRINT=-5 ISPHER=1 MAXIT=200 $END
 $SYSTEM MWORDS=63 MEMDDI=63 $END
 $GDDI NGROUP=1 $END
 $SCF DIRSCF=.TRUE. NPUNCH=0 $END
!*** NumCPU : 2  MemPerNode : 512MB
 $PCM SOLVNT=WATER IEF=-10 ICOMP=2 ICAV=1 IDISP=1 IFMO=-1 $END
 $PCMCAV RADII=SUAHF $END
 $TESCAV NTSALL=60 $END
 $FMOPRP
    NAODIR=200
    NGRFMO(1)=1, 1, 0, 0, 0,   0, 0, 0, 0, 0
    IPIEDA=1
    NPRINT=9
 $END
 $FMO
      SCFTYP(1)=RHF
      MODGRD=10
      MODMUL=0
      MAXCAO=5
      MAXBND=19
      NLAYER=1
      MPLEVL(1)=2
      NFRAG=17
      ICHARG(1)=-1, -1, -1, -1, -1, -1, -1, -1, -1, -1, 0, -1, -1, -1,
-1, -1, 0
      FRGNAM(1)=F1, F2, F3, F4, F5, F6, F7, F8, F9, F10, F11, F12, F13,
F14, F15, F16, F17
      indat(1)=0
               1   -35   0
               36   -69   0
               70   -103   0
               104   -136   0
               137   -169   0
               170   -200   0
               201   -230   0
               231   -263   0
               264   -294   0
               295   -324   0
               325   -357   0
               358   -388   0
               389   -421   0
               422   -455   0
               456   -486   0
               487   -517   0
               518   -544   0
 $END

 $FMOBND
   -36   35       6-31G*    MINI
   -70   69       6-31G*    MINI
   -104   103       6-31G*    MINI
   -137   136       6-31G*    MINI
   -170   169       6-31G*    MINI
   -201   200       6-31G*    MINI
   -231   230       6-31G*    MINI
   -264   263       6-31G*    MINI
   -295   294       6-31G*    MINI
   -325   324       6-31G*    MINI
   -358   357       6-31G*    MINI
   -389   388       6-31G*    MINI
   -422   421       6-31G*    MINI
   -456   455       6-31G*    MINI
   -487   486       6-31G*    MINI
   -518   517       6-31G*    MINI
 $END
 $FMOHYB
 6-31G*      15   5
   1 0  -0.065034   0.288264   0.000000   0.000000   0.604412
         0.290129   0.000000   0.000000   0.319045  -0.017106
        -0.017106   0.057934   0.000000   0.000000   0.000000
   0 1  -0.065040   0.288293   0.569832   0.000000  -0.201456
         0.290147   0.300783   0.000000  -0.106342   0.049598
        -0.017106  -0.008771   0.000000  -0.027223   0.000000
   0 1  -0.065039   0.288293  -0.284916  -0.493490  -0.201455
         0.290145  -0.150392  -0.260486  -0.106340  -0.000427
         0.032923  -0.008771   0.033353   0.013612   0.023576
   0 1  -0.065039   0.288293  -0.284916   0.493490  -0.201455
         0.290145  -0.150392   0.260486  -0.106340  -0.000427
         0.032923  -0.008771  -0.033353   0.013612  -0.023576
   0 1   1.010938  -0.011975   0.000000   0.000000   0.000000
        -0.054085   0.000000   0.000000  -0.000000  -0.003174
        -0.003174  -0.003174   0.000000   0.000000   0.000000
 MINI         5   5
   1 0  -0.104883   0.308874   0.000000   0.000000   0.521806
   0 1  -0.104883   0.308874   0.491961   0.000000  -0.173934
   0 1  -0.104883   0.308876  -0.245980  -0.426050  -0.173933
   0 1  -0.104883   0.308876  -0.245980   0.426050  -0.173933
   0 1   0.988209   0.063992   0.000000   0.000000   0.000000
 $END
 
 $DATA
 FMO calculation
 C1 
 H.1-1    1
      N31 6
   
 O.1-1    8
      N31 6
      d 1
      1 0.800 1.0
   
 C.1-1    6
      N31 6
      d 1
      1 0.800 1.0
   
 N.1-1    7
      N31 6
      d 1
      1 0.800 1.0
   
 P.1-1   15
      N31 6
      d 1
      1 0.550 1.0
   
 $END
 $FMOXYZ
    1    H    20.600    13.999    3.566
    2    O    20.729    14.399    2.684
    3    C    21.770    15.377    2.818
    4    H    22.688    14.887    3.216
    5    H    21.450    16.152    3.549
    6    C    22.117    16.065    1.492
    7    H    22.917    16.824    1.641
    8    O    22.615    15.080    0.534
    9    C    22.127    15.403    -0.761
    10    H    23.014    15.492    -1.430
    11    N    21.242    14.354    -1.281
    12    C    20.105    13.032    -2.623
    13    N    19.946    12.515    -1.343
    14    C    20.635    13.335    -0.583
    15    H    20.751    13.248    0.500
    16    N    20.005    13.337    -4.974
    17    C    20.756    14.429    -4.783
    18    H    21.001    14.992    -5.691
    19    N    21.259    14.922    -3.646
    20    C    20.897    14.167    -2.596
    21    C    19.654    12.597    -3.889
    22    N    18.913    11.485    -4.068
    23    H    18.652    10.905    -3.295
    24    H    18.574    11.236    -4.978
    25    C    21.440    16.744    -0.663
    26    H    20.606    16.848    -1.385
    27    O    22.385    17.775    -0.875
    28    H    21.907    18.606    -0.767
    29    C    20.936    16.732    0.774
    30    H    20.076    16.035    0.872
    31    O    20.678    18.034    1.346
    32    P    19.238    18.668    1.234
    33    O    18.236    17.662    1.648
    34    O    19.227    19.957    1.967
    35    O    19.093    18.940    -0.314
    36    C    19.878    19.985    -0.945
    37    H    20.965    19.885    -0.726
    38    H    19.565    20.984    -0.579
    39    C    19.683    20.006    -2.464
    40    H    20.313    20.789    -2.940
    41    O    20.070    18.727    -3.027
    42    C    19.200    18.405    -4.096
    43    H    19.840    18.262    -4.996
    44    N    18.457    17.161    -3.838
    45    C    17.830    16.388    -4.776
    46    N    16.855    15.847    -8.058
    47    H    17.248    16.632    -8.534
    48    H    16.282    15.204    -8.574
    49    N    17.764    16.651    -6.095
    50    C    17.060    15.739    -6.757
    51    N    16.515    14.635    -6.162
    52    H    16.003    13.988    -6.739
    53    C    16.597    14.317    -4.816
    54    O    16.070    13.280    -4.408
    55    C    17.311    15.310    -4.085
    56    N    17.596    15.411    -2.722
    57    C    18.263    16.537    -2.625
    58    H    18.637    16.973    -1.697
    59    C    18.288    19.592    -4.312
    60    H    17.282    19.295    -4.670
    61    O    18.881    20.486    -5.232
    62    H    18.315    21.267    -5.262
    63    C    18.229    20.199    -2.915
    64    H    17.605    19.572    -2.241
    65    O    17.868    21.600    -2.863
    66    P    16.343    22.001    -2.816
    67    O    15.688    21.250    -1.726
    68    O    16.231    23.477    -2.768
    69    O    15.761    21.484    -4.179
    70    C    16.003    22.175    -5.425
    71    H    17.091    22.306    -5.619
    72    H    15.550    23.193    -5.402
    73    C    15.389    21.409    -6.608
    74    H    15.672    21.893    -7.570
    75    O    15.876    20.035    -6.646
    76    C    14.836    19.183    -7.106
    77    H    15.224    18.665    -8.013
    78    N    14.466    18.171    -6.096
    79    C    13.781    17.004    -6.318
    80    N    12.110    14.879    -8.486
    81    H    12.175    15.372    -9.354
    82    H    11.593    14.020    -8.445
    83    N    13.307    16.584    -7.500
    84    C    12.679    15.414    -7.418
    85    N    12.567    14.709    -6.249
    86    H    12.093    13.819    -6.275
    87    C    13.073    15.100    -5.015
    88    O    12.927    14.385    -4.021
    89    C    13.710    16.371    -5.093
    90    N    14.318    17.140    -4.107
    91    C    14.747    18.200    -4.750
    92    H    15.277    19.044    -4.301
    93    C    13.672    20.069    -7.493
    94    H    12.693    19.578    -7.322
    95    O    13.799    20.449    -8.853
    96    H    13.139    21.136    -9.015
    97    C    13.862    21.265    -6.564
    98    H    13.597    20.999    -5.515
    99    O    13.228    22.489    -7.002
    100    P    11.727    22.781    -6.601
    101    O    11.639    22.800    -5.123
    102    O    11.286    24.002    -7.310
    103    O    10.900    21.546    -7.120
    104    C    10.529    21.437    -8.512
    105    H    11.428    21.444    -9.159
    106    H    9.888    22.297    -8.822
    107    C    9.753    20.142    -8.788
    108    H    9.542    20.026    -9.874
    109    O    10.531    18.983    -8.368
    110    C    9.666    18.013    -7.806
    111    H    9.806    17.070    -8.387
    112    N    9.989    17.769    -6.396
    113    C    10.155    16.840    -4.411
    114    N    10.843    18.044    -4.332
    115    C    10.716    18.557    -5.535
    116    H    11.136    19.510    -5.862
    117    N    9.185    14.743    -3.884
    118    C    8.708    14.729    -5.131
    119    H    8.111    13.848    -5.398
    120    N    8.889    15.627    -6.105
    121    C    9.620    16.668    -5.674
    122    C    9.934    15.800    -3.481
    123    N    10.443    15.794    -2.237
    124    H    11.001    16.544    -1.876
    125    H    10.226    15.036    -1.620
    126    C    8.250    18.507    -7.991
    127    H    7.585    18.210    -7.156
    128    O    7.735    18.034    -9.219
    129    H    6.920    18.527    -9.383
    130    C    8.434    20.018    -8.018
    131    H    8.629    20.408    -6.990
    132    O    7.381    20.733    -8.711
    133    P    6.176    21.292    -7.866
    134    O    6.731    22.104    -6.760
    135    O    5.225    21.965    -8.777
    136    O    5.497    20.012    -7.251
    137    C    4.713    19.094    -8.044
    138    H    5.289    18.731    -8.921
    139    H    3.794    19.593    -8.423
    140    C    4.287    17.861    -7.229
    141    H    3.779    17.110    -7.873
    142    O    5.459    17.225    -6.644
    143    C    5.135    16.715    -5.368
    144    H    5.363    15.630    -5.395
    145    N    5.947    17.339    -4.324
    146    C    7.100    17.686    -2.487
    147    N    7.234    18.836    -3.257
    148    C    6.528    18.585    -4.332
    149    H    6.401    19.267    -5.176
    150    N    7.294    16.087    -0.752
    151    C    6.512    15.298    -1.495
    152    H    6.277    14.321    -1.058
    153    N    5.953    15.544    -2.687
    154    C    6.305    16.758    -3.135
    155    C    7.618    17.316    -1.225
    156    N    8.412    18.106    -0.477
    157    H    8.726    19.007    -0.786
    158    H    8.756    17.762    0.400
    159    C    3.656    16.924    -5.162
    160    H    3.395    17.118    -4.101
    161    O    2.947    15.800    -5.649
    162    H    2.059    16.122    -5.841
    163    C    3.386    18.152    -6.025
    164    H    3.804    19.070    -5.552
    165    O    2.005    18.301    -6.442
    166    P    1.048    19.136    -5.498
    167    O    1.734    20.410    -5.179
    168    O    -0.295    19.250    -6.103
    169    O    0.944    18.299    -4.177
    170    C    0.272    17.023    -4.100
    171    H    0.633    16.317    -4.876
    172    H    -0.823    17.144    -4.261
    173    C    0.474    16.377    -2.720
    174    H    -0.021    15.383    -2.674
    175    O    1.887    16.173    -2.432
    176    C    2.120    16.388    -1.045
    177    H    2.529    15.422    -0.667
    178    N    3.106    17.476    -0.786
    179    C    3.174    18.545    -1.647
    180    H    2.494    18.516    -2.498
    181    C    4.055    19.536    -1.461
    182    H    4.140    20.376    -2.144
    183    C    3.931    17.441    0.340
    184    O    3.844    16.488    1.131
    185    N    4.806    18.453    0.556
    186    C    4.905    19.463    -0.322
    187    N    5.815    20.415    -0.120
    188    H    6.401    20.371    0.692
    189    H    5.894    21.212    -0.727
    190    C    0.769    16.643    -0.387
    191    H    0.835    17.362    0.458
    192    O    0.215    15.422    0.068
    193    H    -0.715    15.588    0.291
    194    C    -0.030    17.223    -1.551
    195    H    0.294    18.266    -1.762
    196    O    -1.465    17.097    -1.452
    197    P    -2.235    18.177    -0.606
    198    O    -2.422    17.668    0.770
    199    O    -1.548    19.480    -0.723
    200    O    -3.641    18.296    -1.306
    201    C    -4.786    17.535    -0.857
    202    H    -4.996    17.746    0.219
    203    H    -4.600    16.443    -0.961
    204    C    -6.062    17.869    -1.650
    205    H    -6.922    17.274    -1.280
    206    O    -6.401    19.278    -1.469
    207    C    -6.879    19.821    -2.696
    208    H    -7.897    20.225    -2.474
    209    N    -6.005    20.920    -3.197
    210    C    -4.724    21.084    -2.718
    211    H    -4.401    20.361    -1.970
    212    C    -6.516    21.785    -4.139
    213    O    -7.653    21.674    -4.589
    214    N    -5.665    22.786    -4.535
    215    H    -6.036    23.445    -5.198
    216    C    -4.381    23.017    -4.090
    217    O    -3.737    23.969    -4.531
    218    C    -3.919    22.081    -3.112
    219    H    -2.925    22.214    -2.688
    220    C    -7.006    18.677    -3.686
    221    H    -6.764    18.984    -4.726
    222    O    -8.316    18.136    -3.644
    223    H    -8.280    17.277    -4.095
    224    C    -5.970    17.685    -3.174
    225    H    -4.946    18.022    -3.463
    226    O    -6.248    16.312    -3.543
    227    P    -5.359    15.598    -4.632
    228    O    -3.957    15.653    -4.179
    229    O    -5.910    14.250    -4.867
    230    O    -5.571    16.465    -5.947
    231    C    -5.001    16.038    -7.209
    232    H    -5.742    16.228    -8.017
    233    H    -4.775    14.947    -7.235
    234    C    -3.722    16.816    -7.543
    235    H    -3.857    17.899    -7.342
    236    O    -2.636    16.338    -6.709
    237    C    -1.443    16.247    -7.460
    238    H    -0.671    16.820    -6.899
    239    N    -1.008    14.854    -7.578
    240    C    0.148    13.032    -7.996
    241    N    -0.987    12.622    -7.308
    242    C    -1.633    13.737    -7.074
    243    H    -2.583    13.816    -6.537
    244    N    2.253    13.049    -9.078
    245    C    2.104    14.373    -9.174
    246    H    2.923    14.903    -9.669
    247    N    1.098    15.142    -8.748
    248    C    0.146    14.405    -8.166
    249    C    1.269    12.330    -8.484
    250    N    1.407    10.997    -8.394
    251    H    0.760    10.437    -7.865
    252    H    2.268    10.583    -8.686
    253    C    -1.701    16.906    -8.798
    254    H    -1.128    16.442    -9.628
    255    O    -1.386    18.285    -8.722
    256    H    -1.686    18.633    -7.868
    257    C    -3.192    16.659    -8.976
    258    H    -3.352    15.589    -9.249
    259    O    -3.837    17.591    -9.871
    260    P    -4.601    17.073    -11.140
    261    O    -5.328    15.843    -10.760
    262    O    -5.402    18.188    -11.690
    263    O    -3.473    16.679    -12.168
    264    C    -2.533    17.644    -12.690
    265    H    -2.248    18.407    -11.924
    266    H    -2.988    18.182    -13.552
    267    C    -1.236    16.972    -13.180
    268    H    -0.531    17.731    -13.585
    269    O    -0.566    16.332    -12.055
    270    C    0.017    15.106    -12.481
    271    H    1.098    15.168    -12.205
    272    N    -0.583    13.909    -11.814
    273    C    -1.825    13.988    -11.232
    274    H    -2.315    14.958    -11.289
    275    C    -2.378    12.939    -10.607
    276    H    -3.344    13.001    -10.112
    277    C    0.100    12.697    -11.802
    278    O    1.205    12.624    -12.357
    279    N    -0.447    11.620    -11.189
    280    C    -1.636    11.724    -10.572
    281    N    -2.122    10.672    -9.915
    282    H    -1.576    9.833    -9.853
    283    H    -3.000    10.706    -9.434
    284    C    -0.103    15.057    -13.990
    285    H    -0.193    14.024    -14.378
    286    O    1.008    15.697    -14.590
    287    H    0.832    15.727    -15.539
    288    C    -1.383    15.847    -14.219
    289    H    -2.269    15.253    -13.898
    290    O    -1.507    16.396    -15.554
    291    P    -2.370    15.611    -16.615
    292    O    -3.561    15.036    -15.953
    293    O    -2.623    16.502    -17.764
    294    O    -1.458    14.422    -17.092
    295    C    -0.179    14.659    -17.733
    296    H    0.420    15.425    -17.192
    297    H    -0.336    15.036    -18.771
    298    C    0.669    13.375    -17.822
    299    H    1.624    13.576    -18.354
    300    O    1.017    12.906    -16.488
    301    C    0.996    11.484    -16.459
    302    H    2.009    11.164    -16.111
    303    N    -0.059    10.969    -15.531
    304    C    -1.129    11.759    -15.182
    305    H    -1.149    12.743    -15.639
    306    C    0.061    9.697    -15.018
    307    O    0.990    8.954    -15.307
    308    N    -0.930    9.327    -14.141
    309    H    -0.880    8.378    -13.791
    310    C    -2.005    10.079    -13.723
    311    O    -2.799    9.627    -12.900
    312    C    -2.065    11.383    -14.303
    313    H    -2.863    12.054    -14.002
    314    C    0.802    11.014    -17.893
    315    H    0.244    10.060    -17.945
    316    O    2.058    10.857    -18.531
    317    H    1.871    10.653    -19.455
    318    C    0.002    12.167    -18.493
    319    H    -1.042    12.142    -18.113
    320    O    0.075    12.290    -19.935
    321    P    -1.082    11.666    -20.812
    322    O    -2.409    12.013    -20.260
    323    O    -0.856    12.040    -22.227
    324    O    -0.862    10.118    -20.636
    325    C    0.282    9.496    -21.269
    326    H    1.237    9.971    -20.948
    327    H    0.212    9.588    -22.379
    328    C    0.354    8.003    -20.938
    329    H    1.214    7.519    -21.451
    330    O    0.533    7.815    -19.507
    331    C    -0.234    6.697    -19.083
    332    H    0.481    5.990    -18.600
    333    N    -1.254    7.090    -18.098
    334    C    -1.880    6.261    -17.209
    335    N    -2.445    3.079    -15.975
    336    H    -1.829    2.520    -16.532
    337    H    -2.998    2.638    -15.264
    338    N    -1.698    4.935    -17.112
    339    C    -2.462    4.385    -16.173
    340    N    -3.323    5.108    -15.387
    341    H    -3.867    4.616    -14.697
    342    C    -3.524    6.484    -15.457
    343    O    -4.329    7.053    -14.712
    344    C    -2.724    7.072    -16.474
    345    N    -2.644    8.392    -16.909
    346    C    -1.765    8.350    -17.881
    347    H    -1.446    9.201    -18.483
    348    C    -0.824    6.037    -20.318
    349    H    -1.832    5.604    -20.125
    350    O    0.062    5.030    -20.786
    351    H    -0.237    4.722    -21.658
    352    C    -0.920    7.221    -21.274
    353    H    -1.786    7.860    -21.007
    354    O    -0.954    6.868    -22.670
    355    H    -1.784    6.399    -22.868
    356    H    -7.832    0.522    -8.175
    357    O    -7.107    0.501    -8.826
    358    C    -6.954    -0.867    -9.235
    359    H    -7.932    -1.260    -9.591
    360    H    -6.645    -1.473    -8.355
    361    C    -5.914    -1.058    -10.346
    362    H    -5.743    -2.139    -10.550
    363    O    -6.403    -0.463    -11.587
    364    C    -5.319    0.176    -12.257
    365    H    -5.294    -0.261    -13.283
    366    N    -5.487    1.655    -12.362
    367    C    -6.379    2.315    -11.547
    368    H    -6.932    1.699    -10.837
    369    C    -6.556    3.641    -11.632
    370    H    -7.269    4.175    -11.007
    371    C    -4.734    2.380    -13.283
    372    O    -3.923    1.782    -14.007
    373    N    -4.915    3.715    -13.400
    374    C    -5.798    4.349    -12.608
    375    N    -5.967    5.664    -12.751
    376    H    -5.416    6.163    -13.425
    377    H    -6.600    6.178    -12.168
    378    C    -4.050    -0.212    -11.530
    379    H    -3.265    0.568    -11.595
    380    O    -3.550    -1.430    -12.046
    381    H    -2.781    -1.660    -11.510
    382    C    -4.559    -0.377    -10.103
    383    H    -4.782    0.618    -9.655
    384    O    -3.744    -1.207    -9.247
    385    P    -2.591    -0.540    -8.403
    386    O    -3.112    0.656    -7.703
    387    O    -1.971    -1.584    -7.558
    388    O    -1.543    -0.059    -9.470
    389    C    -0.715    -1.015    -10.170
    390    H    -1.335    -1.757    -10.716
    391    H    -0.066    -1.572    -9.455
    392    C    0.202    -0.315    -11.182
    393    H    0.830    -1.053    -11.722
    394    O    -0.590    0.387    -12.185
    395    C    0.056    1.608    -12.515
    396    H    0.202    1.608    -13.620
    397    N    -0.764    2.760    -12.137
    398    C    -1.641    4.769    -12.008
    399    N    -2.363    3.978    -11.128
    400    C    -1.804    2.800    -11.239
    401    H    -2.101    1.912    -10.679
    402    N    -0.849    6.613    -13.256
    403    C    0.068    5.781    -13.757
    404    H    0.753    6.233    -14.477
    405    N    0.251    4.477    -13.523
    406    C    -0.646    4.032    -12.629
    407    C    -1.742    6.129    -12.356
    408    N    -2.681    6.951    -11.851
    409    H    -3.314    6.656    -11.135
    410    H    -2.751    7.892    -12.193
    411    C    1.405    1.614    -11.830
    412    H    1.743    2.635    -11.543
    413    O    2.369    1.003    -12.669
    414    H    3.173    0.943    -12.142
    415    C    1.126    0.762    -10.596
    416    H    0.517    1.331    -9.855
    417    O    2.293    0.143    -10.006
    418    P    3.047    0.878    -8.840
    419    O    2.049    1.443    -7.908
    420    O    4.064    -0.029    -8.259
    421    O    3.775    2.088    -9.542
    422    C    4.856    1.893    -10.481
    423    H    4.559    1.207    -11.304
    424    H    5.737    1.447    -9.970
    425    C    5.317    3.221    -11.102
    426    H    6.133    3.047    -11.841
    427    O    4.221    3.853    -11.812
    428    C    4.276    5.258    -11.613
    429    H    4.354    5.715    -12.627
    430    N    3.057    5.741    -10.954
    431    C    2.492    6.977    -11.111
    432    N    2.473    10.124    -12.567
    433    H    3.314    10.125    -13.107
    434    H    1.946    10.973    -12.475
    435    N    2.979    7.981    -11.868
    436    C    2.180    9.047    -11.864
    437    N    1.025    9.114    -11.131
    438    H    0.504    9.977    -11.148
    439    C    0.521    8.115    -10.310
    440    O    -0.522    8.282    -9.671
    441    C    1.358    6.967    -10.319
    442    N    1.232    5.756    -9.643
    443    C    2.268    5.059    -10.050
    444    H    2.504    4.039    -9.743
    445    C    5.530    5.585    -10.822
    446    H    5.377    6.416    -10.096
    447    O    6.601    5.911    -11.690
    448    H    7.394    5.922    -11.138
    449    C    5.785    4.272    -10.091
    450    H    5.090    4.191    -9.223
    451    O    7.166    4.025    -9.748
    452    P    7.691    4.429    -8.328
    453    O    6.585    4.362    -7.349
    454    O    8.888    3.613    -8.012
    455    O    8.088    5.937    -8.476
    456    C    9.412    6.359    -8.860
    457    H    9.898    5.633    -9.555
    458    H    10.051    6.438    -7.949
    459    C    9.365    7.727    -9.568
    460    H    8.723    7.673    -10.474
    461    O    8.774    8.734    -8.691
    462    C    9.466    9.969    -8.840
    463    H    8.682    10.721    -9.089
    464    N    10.173    10.399    -7.594
    465    C    10.312    9.529    -6.533
    466    H    9.879    8.534    -6.661
    467    C    10.922    9.902    -5.400
    468    H    11.022    9.234    -4.546
    469    C    10.698    11.687    -7.498
    470    O    10.596    12.459    -8.462
    471    N    11.312    12.080    -6.358
    472    C    11.421    11.232    -5.321
    473    N    12.013    11.651    -4.203
    474    H    12.308    12.606    -4.130
    475    H    12.063    11.074    -3.383
    476    C    10.396    9.820    -10.027
    477    H    11.314    10.435    -9.937
    478    O    9.718    10.161    -11.223
    479    H    10.284    9.882    -11.954
    480    C    10.719    8.335    -9.972
    481    H    11.418    8.130    -9.127
    482    O    11.155    7.792    -11.234
    483    P    12.626    7.294    -11.453
    484    O    13.146    6.748    -10.179
    485    O    12.652    6.398    -12.624
    486    O    13.404    8.622    -11.794
    487    C    13.129    9.317    -13.038
    488    H    12.033    9.412    -13.230
    489    H    13.578    8.754    -13.888
    490    C    13.718    10.740    -13.050
    491    H    13.528    11.234    -14.027
    492    O    13.077    11.555    -12.026
    493    C    14.045    12.405    -11.420
    494    H    13.649    13.442    -11.526
    495    N    14.248    12.116    -9.967
    496    C    13.874    10.896    -9.455
    497    H    13.424    10.200    -10.163
    498    C    14.021    10.603    -8.158
    499    H    13.708    9.648    -7.740
    500    C    14.858    13.051    -9.131
    501    O    15.253    14.125    -9.606
    502    N    15.011    12.774    -7.814
    503    C    14.604    11.592    -7.319
    504    N    14.759    11.338    -6.023
    505    H    15.204    12.014    -5.429
    506    H    14.540    10.442    -5.634
    507    C    15.323    12.283    -12.227
    508    H    16.232    12.423    -11.609
    509    O    15.325    13.224    -13.283
    510    H    16.120    13.055    -13.804
    511    C    15.218    10.853    -12.751
    512    H    15.422    10.134    -11.923
    513    O    15.977    10.582    -13.956
    514    P    17.391    9.899    -13.807
    515    O    17.323    8.834    -12.785
    516    O    17.889    9.506    -15.144
    517    O    18.293    11.053    -13.241
    518    C    18.617    12.209    -14.045
    519    H    17.697    12.721    -14.406
    520    H    19.208    11.905    -14.940
    521    C    19.450    13.224    -13.246
    522    H    19.753    14.080    -13.888
    523    O    18.660    13.760    -12.141
    524    C    19.496    13.934    -11.002
    525    H    19.400    15.009    -10.719
    526    N    19.072    13.066    -9.863
    527    C    18.319    11.930    -10.069
    528    H    18.047    11.737    -11.104
    529    C    19.476    13.417    -8.595
    530    O    20.183    14.393    -8.371
    531    N    19.033    12.590    -7.597
    532    H    19.360    12.822    -6.665
    533    C    18.253    11.461    -7.724
    534    O    17.926    10.825    -6.724
    535    C    17.888    11.145    -9.072
    536    H    17.256    10.281    -9.259
    537    C    20.930    13.663    -11.445
    538    H    21.536    13.209    -10.630
    539    O    21.540    14.869    -11.890
    540    H    22.378    14.658    -12.340
    541    C    20.705    12.659    -12.572
    542    H    20.450    11.665    -12.150
    543    O    21.788    12.558    -13.511
    544    H    22.564    12.165    -13.076
 $END
