!*** FMO 5.3 (Gamess) INPUT generated by Facio 22.1.1.32 ***
 $CONTRL RUNTYP=ENERGY NPRINT=-5 ISPHER=1 MAXIT=200 $END
 $SYSTEM MWORDS=63 MEMDDI=63 $END
 $GDDI NGROUP=1 $END
 $SCF DIRSCF=.TRUE. NPUNCH=0 $END
!*** NumCPU : 2  MemPerNode : 512MB
 $PCM SOLVNT=WATER IEF=-10 ICOMP=2 ICAV=1 IDISP=1 IFMO=-1 $END
 $PCMCAV RADII=SUAHF $END
 $TESCAV NTSALL=60 $END
 $FMOPRP
    NAODIR=200
    NGRFMO(1)=1, 1, 0, 0, 0,   0, 0, 0, 0, 0
    IPIEDA=1
    NPRINT=9
 $END
 $FMO
      SCFTYP(1)=RHF
      MODGRD=10
      MODMUL=0
      MAXCAO=5
      MAXBND=19
      NLAYER=1
      MPLEVL(1)=2
      NFRAG=17
      ICHARG(1)=-1, -1, -1, -1, -1, -1, -1, -1, -1, -1, 0, -1, -1, -1,
-1, -1, 0
      FRGNAM(1)=F1, F2, F3, F4, F5, F6, F7, F8, F9, F10, F11, F12, F13,
F14, F15, F16, F17
      indat(1)=0
               1   -35   0
               36   -69   0
               70   -103   0
               104   -136   0
               137   -169   0
               170   -200   0
               201   -230   0
               231   -263   0
               264   -294   0
               295   -324   0
               325   -357   0
               358   -388   0
               389   -421   0
               422   -455   0
               456   -486   0
               487   -517   0
               518   -544   0
 $END

 $FMOBND
   -36   35       6-31G*    MINI
   -70   69       6-31G*    MINI
   -104   103       6-31G*    MINI
   -137   136       6-31G*    MINI
   -170   169       6-31G*    MINI
   -201   200       6-31G*    MINI
   -231   230       6-31G*    MINI
   -264   263       6-31G*    MINI
   -295   294       6-31G*    MINI
   -325   324       6-31G*    MINI
   -358   357       6-31G*    MINI
   -389   388       6-31G*    MINI
   -422   421       6-31G*    MINI
   -456   455       6-31G*    MINI
   -487   486       6-31G*    MINI
   -518   517       6-31G*    MINI
 $END
 $FMOHYB
 6-31G*      15   5
   1 0  -0.065034   0.288264   0.000000   0.000000   0.604412
         0.290129   0.000000   0.000000   0.319045  -0.017106
        -0.017106   0.057934   0.000000   0.000000   0.000000
   0 1  -0.065040   0.288293   0.569832   0.000000  -0.201456
         0.290147   0.300783   0.000000  -0.106342   0.049598
        -0.017106  -0.008771   0.000000  -0.027223   0.000000
   0 1  -0.065039   0.288293  -0.284916  -0.493490  -0.201455
         0.290145  -0.150392  -0.260486  -0.106340  -0.000427
         0.032923  -0.008771   0.033353   0.013612   0.023576
   0 1  -0.065039   0.288293  -0.284916   0.493490  -0.201455
         0.290145  -0.150392   0.260486  -0.106340  -0.000427
         0.032923  -0.008771  -0.033353   0.013612  -0.023576
   0 1   1.010938  -0.011975   0.000000   0.000000   0.000000
        -0.054085   0.000000   0.000000  -0.000000  -0.003174
        -0.003174  -0.003174   0.000000   0.000000   0.000000
 MINI         5   5
   1 0  -0.104883   0.308874   0.000000   0.000000   0.521806
   0 1  -0.104883   0.308874   0.491961   0.000000  -0.173934
   0 1  -0.104883   0.308876  -0.245980  -0.426050  -0.173933
   0 1  -0.104883   0.308876  -0.245980   0.426050  -0.173933
   0 1   0.988209   0.063992   0.000000   0.000000   0.000000
 $END
 
 $DATA
 FMO calculation
 C1 
 H.1-1    1
      N31 6
   
 O.1-1    8
      N31 6
      d 1
      1 0.800 1.0
   
 C.1-1    6
      N31 6
      d 1
      1 0.800 1.0
   
 N.1-1    7
      N31 6
      d 1
      1 0.800 1.0
   
 P.1-1   15
      N31 6
      d 1
      1 0.550 1.0
   
 $END
 $FMOXYZ
    1    H    11.159    9.625    4.812
    2    O    11.839    10.166    4.362
    3    C    12.659    10.734    5.395
    4    H    13.063    9.917    6.036
    5    H    12.034    11.392    6.037
    6    C    13.825    11.560    4.847
    7    H    14.408    12.020    5.675
    8    O    14.730    10.697    4.099
    9    C    15.233    11.406    2.981
    10    H    16.344    11.382    3.056
    11    N    14.824    10.772    1.721
    12    C    14.722    10.120    -0.378
    13    N    13.737    9.404    0.297
    14    C    13.836    9.831    1.536
    15    H    13.217    9.493    2.371
    16    N    16.195    10.916    -2.061
    17    C    16.729    11.694    -1.112
    18    H    17.555    12.333    -1.446
    19    N    16.420    11.781    0.186
    20    C    15.396    10.964    0.488
    21    C    15.165    10.099    -1.720
    22    N    14.644    9.295    -2.665
    23    H    13.867    8.691    -2.462
    24    H    14.966    9.340    -3.614
    25    C    14.753    12.834    3.099
    26    H    14.598    13.312    2.112
    27    O    15.680    13.589    3.853
    28    H    15.352    14.494    3.850
    29    C    13.436    12.660    3.850
    30    H    12.662    12.225    3.177
    31    O    12.965    13.830    4.562
    32    P    12.026    14.852    3.812
    33    O    10.924    14.109    3.163
    34    O    11.650    15.951    4.730
    35    O    12.947    15.454    2.688
    36    C    14.017    16.361    3.045
    37    H    14.681    15.932    3.827
    38    H    13.610    17.317    3.449
    39    C    14.866    16.703    1.818
    40    H    15.723    17.349    2.106
    41    O    15.417    15.496    1.217
    42    C    15.440    15.650    -0.193
    43    H    16.494    15.487    -0.515
    44    N    14.584    14.663    -0.867
    45    C    14.649    14.308    -2.189
    46    N    15.992    14.729    -5.352
    47    H    16.661    15.454    -5.211
    48    H    15.827    14.397    -6.286
    49    N    15.492    14.819    -3.103
    50    C    15.293    14.307    -4.313
    51    N    14.376    13.323    -4.571
    52    H    14.308    12.974    -5.514
    53    C    13.515    12.750    -3.644
    54    O    12.724    11.860    -3.974
    55    C    13.686    13.328    -2.356
    56    N    13.019    13.081    -1.162
    57    C    13.580    13.903    -0.309
    58    H    13.305    14.011    0.742
    59    C    15.036    17.073    -0.495
    60    H    14.515    17.175    -1.469
    61    O    16.179    17.904    -0.466
    62    H    15.850    18.807    -0.533
    63    C    14.117    17.400    0.675
    64    H    13.134    16.886    0.570
    65    O    13.986    18.812    0.961
    66    P    12.899    19.656    0.194
    67    O    11.595    18.988    0.392
    68    O    12.998    21.061    0.649
    69    O    13.310    19.567    -1.333
    70    C    14.421    20.352    -1.833
    71    H    15.359    20.136    -1.275
    72    H    14.211    21.445    -1.719
    73    C    14.678    20.078    -3.324
    74    H    15.589    20.608    -3.672
    75    O    14.885    18.660    -3.573
    76    C    14.281    18.300    -4.810
    77    H    15.091    17.865    -5.439
    78    N    13.237    17.280    -4.638
    79    C    12.762    16.430    -5.603
    80    N    12.744    15.306    -8.887
    81    H    13.437    15.881    -9.320
    82    H    12.282    14.603    -9.436
    83    N    13.149    16.396    -6.890
    84    C    12.522    15.454    -7.591
    85    N    11.625    14.584    -7.027
    86    H    11.195    13.894    -7.625
    87    C    11.241    14.563    -5.689
    88    O    10.452    13.720    -5.253
    89    C    11.851    15.616    -4.959
    90    N    11.716    15.978    -3.625
    91    C    12.556    16.976    -3.483
    92    H    12.733    17.530    -2.559
    93    C    13.766    19.566    -5.455
    94    H    12.830    19.408    -6.032
    95    O    14.763    20.100    -6.303
    96    H    14.476    20.990    -6.544
    97    C    13.521    20.465    -4.246
    98    H    12.590    20.151    -3.716
    99    O    13.568    21.887    -4.520
    100    P    12.217    22.607    -4.899
    101    O    11.225    22.346    -3.833
    102    O    12.518    24.025    -5.198
    103    O    11.753    21.890    -6.219
    104    C    12.342    22.282    -7.483
    105    H    13.437    22.070    -7.487
    106    H    12.217    23.374    -7.664
    107    C    11.669    21.540    -8.648
    108    H    12.111    21.859    -9.620
    109    O    11.898    20.109    -8.507
    110    C    10.768    19.403    -8.989
    111    H    11.133    18.748    -9.814
    112    N    10.175    18.573    -7.942
    113    C    9.129    16.960    -6.885
    114    N    9.613    17.817    -5.906
    115    C    10.218    18.762    -6.582
    116    H    10.724    19.628    -6.148
    117    N    8.097    15.139    -7.990
    118    C    8.486    15.709    -9.133
    119    H    8.205    15.174    -10.047
    120    N    9.163    16.848    -9.316
    121    C    9.466    17.419    -8.143
    122    C    8.402    15.752    -6.820
    123    N    8.030    15.182    -5.666
    124    H    8.304    15.542    -4.774
    125    H    7.515    14.324    -5.678
    126    C    9.788    20.414    -9.543
    127    H    8.730    20.121    -9.375
    128    O    10.030    20.604    -10.925
    129    H    9.550    21.399    -11.194
    130    C    10.135    21.660    -8.743
    131    H    9.746    21.566    -7.704
    132    O    9.748    22.896    -9.386
    133    P    8.411    23.612    -8.957
    134    O    8.415    23.753    -7.485
    135    O    8.288    24.862    -9.738
    136    O    7.263    22.616    -9.350
    137    C    6.929    22.312    -10.720
    138    H    7.826    21.998    -11.299
    139    H    6.503    23.211    -11.222
    140    C    5.885    21.183    -10.809
    141    H    5.605    20.997    -11.871
    142    O    6.438    19.939    -10.279
    143    C    5.428    19.238    -9.571
    144    H    5.363    18.221    -10.029
    145    N    5.782    19.120    -8.149
    146    C    6.028    18.399    -6.084
    147    N    6.721    19.598    -6.164
    148    C    6.547    19.982    -7.403
    149    H    6.967    20.888    -7.840
    150    N    5.101    16.362    -5.302
    151    C    4.567    16.239    -6.518
    152    H    3.973    15.335    -6.670
    153    N    4.699    17.026    -7.591
    154    C    5.438    18.101    -7.299
    155    C    5.851    17.464    -5.039
    156    N    6.414    17.586    -3.824
    157    H    6.970    18.378    -3.565
    158    H    6.193    16.916    -3.117
    159    C    4.115    19.974    -9.795
    160    H    3.427    19.902    -8.925
    161    O    3.482    19.476    -10.959
    162    H    2.698    20.023    -11.127
    163    C    4.602    21.405    -9.998
    164    H    4.927    21.834    -9.027
    165    O    3.699    22.272    -10.724
    166    P    2.633    23.117    -9.922
    167    O    3.209    23.474    -8.610
    168    O    2.171    24.225    -10.783
    169    O    1.419    22.145    -9.702
    170    C    0.462    22.400    -8.633
    171    H    -0.409    22.968    -9.031
    172    H    0.898    23.003    -7.800
    173    C    -0.047    21.088    -8.012
    174    H    -0.755    20.594    -8.706
    175    O    1.080    20.171    -7.830
    176    C    0.919    19.452    -6.625
    177    H    0.999    18.376    -6.904
    178    N    1.979    19.764    -5.622
    179    C    2.672    20.954    -5.722
    180    H    2.384    21.620    -6.542
    181    C    3.665    21.255    -4.878
    182    H    4.241    22.174    -4.960
    183    C    2.278    18.876    -4.584
    184    O    1.639    17.821    -4.474
    185    N    3.279    19.174    -3.728
    186    C    3.982    20.304    -3.867
    187    N    5.000    20.529    -3.043
    188    H    5.197    19.847    -2.338
    189    H    5.568    21.351    -3.087
    190    C    -0.480    19.726    -6.135
    191    H    -0.547    19.672    -5.036
    192    O    -1.395    18.822    -6.746
    193    H    -1.221    17.916    -6.423
    194    C    -0.704    21.160    -6.610
    195    H    -0.113    21.871    -5.995
    196    O    -2.079    21.581    -6.695
    197    P    -3.045    21.582    -5.436
    198    O    -2.490    22.477    -4.391
    199    O    -4.397    21.935    -5.922
    200    O    -3.108    20.116    -4.868
    201    C    -3.531    19.769    -3.536
    202    H    -4.580    19.402    -3.578
    203    H    -3.509    20.638    -2.846
    204    C    -2.677    18.629    -2.936
    205    H    -2.867    17.701    -3.518
    206    O    -1.255    18.920    -2.994
    207    C    -0.725    19.053    -1.699
    208    H    -0.266    18.058    -1.477
    209    N    0.268    20.152    -1.658
    210    C    0.018    21.333    -2.320
    211    H    -0.948    21.386    -2.831
    212    C    1.443    19.956    -0.972
    213    O    1.694    18.918    -0.366
    214    N    2.315    21.014    -1.008
    215    H    3.202    20.853    -0.557
    216    C    2.149    22.216    -1.661
    217    O    3.041    23.063    -1.633
    218    C    0.894    22.349    -2.342
    219    H    0.681    23.278    -2.866
    220    C    -1.910    19.286    -0.785
    221    H    -2.239    20.347    -0.825
    222    O    -1.659    18.888    0.546
    223    H    -1.568    17.922    0.523
    224    C    -2.944    18.378    -1.439
    225    H    -3.961    18.759    -1.178
    226    O    -2.759    16.991    -1.070
    227    P    -3.962    15.986    -1.045
    228    O    -3.944    15.268    0.249
    229    O    -5.218    16.696    -1.378
    230    O    -3.622    14.957    -2.183
    231    C    -2.334    14.323    -2.294
    232    H    -2.464    13.262    -2.610
    233    H    -1.786    14.312    -1.322
    234    C    -1.493    15.033    -3.348
    235    H    -1.478    16.129    -3.183
    236    O    -0.118    14.583    -3.223
    237    C    0.485    14.551    -4.510
    238    H    1.355    15.248    -4.478
    239    N    0.971    13.198    -4.831
    240    C    2.028    11.489    -5.735
    241    N    1.369    10.990    -4.617
    242    C    0.765    12.040    -4.114
    243    H    0.137    12.026    -3.219
    244    N    3.359    11.662    -7.691
    245    C    3.006    12.950    -7.716
    246    H    3.416    13.536    -8.547
    247    N    2.247    13.637    -6.855
    248    C    1.786    12.843    -5.880
    249    C    2.869    10.882    -6.694
    250    N    3.217    9.584    -6.663
    251    H    2.874    8.954    -5.966
    252    H    3.825    9.224    -7.368
    253    C    -0.540    15.075    -5.509
    254    H    -0.466    14.567    -6.490
    255    O    -0.384    16.465    -5.710
    256    H    -0.361    16.927    -4.856
    257    C    -1.853    14.752    -4.811
    258    H    -2.043    13.654    -4.864
    259    O    -2.979    15.566    -5.231
    260    P    -4.139    14.914    -6.065
    261    O    -4.317    13.513    -5.624
    262    O    -5.339    15.774    -6.028
    263    O    -3.614    14.895    -7.546
    264    C    -3.231    16.119    -8.217
    265    H    -2.700    16.812    -7.524
    266    H    -4.132    16.645    -8.608
    267    C    -2.275    15.844    -9.388
    268    H    -2.009    16.783    -9.919
    269    O    -1.041    15.279    -8.873
    270    C    -0.567    14.273    -9.753
    271    H    0.470    14.580    -10.019
    272    N    -0.519    12.922    -9.122
    273    C    -1.309    12.640    -8.033
    274    H    -1.925    13.460    -7.673
    275    C    -1.270    11.449    -7.425
    276    H    -1.867    11.226    -6.542
    277    C    0.307    11.930    -9.643
    278    O    0.994    12.184    -10.644
    279    N    0.343    10.712    -9.057
    280    C    -0.395    10.464    -7.963
    281    N    -0.297    9.277    -7.371
    282    H    0.353    8.604    -7.734
    283    H    -0.796    9.061    -6.533
    284    C    -1.434    14.324    -10.995
    285    H    -1.543    13.332    -11.475
    286    O    -0.899    15.246    -11.925
    287    H    -1.534    15.301    -12.651
    288    C    -2.759    14.820    -10.422
    289    H    -3.248    14.005    -9.842
    290    O    -3.645    15.461    -11.373
    291    P    -4.715    14.576    -12.119
    292    O    -5.335    13.656    -11.146
    293    O    -5.629    15.494    -12.837
    294    O    -3.907    13.726    -13.154
    295    C    -3.273    14.306    -14.310
    296    H    -2.620    15.160    -14.026
    297    H    -4.047    14.675    -15.024
    298    C    -2.394    13.272    -15.029
    299    H    -1.889    13.727    -15.907
    300    O    -1.349    12.785    -14.136
    301    C    -1.123    11.403    -14.386
    302    H    -0.040    11.319    -14.640
    303    N    -1.439    10.565    -13.189
    304    C    -2.335    10.999    -12.239
    305    H    -2.753    11.985    -12.419
    306    C    -0.850    9.327    -13.073
    307    O    -0.109    8.867    -13.933
    308    N    -1.134    8.656    -11.912
    309    H    -0.749    7.721    -11.840
    310    C    -1.976    9.054    -10.899
    311    O    -2.127    8.353    -9.901
    312    C    -2.622    10.308    -11.127
    313    H    -3.293    10.703    -10.370
    314    C    -1.945    11.031    -15.607
    315    H    -2.287    9.980    -15.575
    316    O    -1.186    11.247    -16.784
    317    H    -1.763    11.052    -17.532
    318    C    -3.117    12.006    -15.498
    319    H    -3.794    11.700    -14.667
    320    O    -3.821    12.276    -16.733
    321    P    -5.112    11.443    -17.076
    322    O    -5.993    11.388    -15.893
    323    O    -5.713    11.978    -18.317
    324    O    -4.551    10.000    -17.356
    325    C    -3.776    9.768    -18.559
    326    H    -2.902    10.456    -18.618
    327    H    -4.396    9.947    -19.469
    328    C    -3.262    8.325    -18.614
    329    H    -2.690    8.141    -19.551
    330    O    -2.347    8.081    -17.506
    331    C    -2.543    6.756    -17.028
    332    H    -1.552    6.248    -17.086
    333    N    -2.994    6.750    -15.628
    334    C    -2.920    5.700    -14.752
    335    N    -2.112    2.404    -14.078
    336    H    -1.773    2.076    -14.959
    337    H    -2.157    1.765    -13.304
    338    N    -2.444    4.472    -15.030
    339    C    -2.510    3.658    -13.980
    340    N    -3.008    4.041    -12.761
    341    H    -3.015    3.362    -12.015
    342    C    -3.481    5.307    -12.437
    343    O    -3.917    5.567    -11.310
    344    C    -3.441    6.175    -13.561
    345    N    -3.851    7.497    -13.692
    346    C    -3.572    7.791    -14.939
    347    H    -3.780    8.745    -15.424
    348    C    -3.527    6.064    -17.957
    349    H    -4.174    5.341    -17.416
    350    O    -2.818    5.402    -18.994
    351    H    -3.455    5.099    -19.668
    352    C    -4.341    7.245    -18.473
    353    H    -5.073    7.578    -17.702
    354    O    -4.991    7.004    -19.735
    355    H    -5.697    6.342    -19.623
    356    H    -2.339    -2.244    -5.419
    357    O    -2.058    -1.995    -6.319
    358    C    -1.855    -3.217    -7.044
    359    H    -2.790    -3.820    -7.005
    360    H    -1.046    -3.803    -6.552
    361    C    -1.469    -3.005    -8.515
    362    H    -1.192    -3.976    -8.985
    363    O    -2.611    -2.480    -9.251
    364    C    -2.160    -1.507    -10.187
    365    H    -2.555    -1.838    -11.178
    366    N    -2.662    -0.133    -9.891
    367    C    -3.131    0.185    -8.635
    368    H    -3.128    -0.621    -7.899
    369    C    -3.591    1.410    -8.353
    370    H    -3.997    1.668    -7.378
    371    C    -2.615    0.853    -10.874
    372    O    -2.147    0.573    -11.988
    373    N    -3.095    2.091    -10.613
    374    C    -3.575    2.383    -9.391
    375    N    -4.062    3.603    -9.161
    376    H    -4.030    4.291    -9.890
    377    H    -4.460    3.852    -8.277
    378    C    -0.648    -1.576    -10.212
    379    H    -0.180    -0.600    -10.455
    380    O    -0.218    -2.553    -11.142
    381    H    0.744    -2.557    -11.084
    382    C    -0.340    -1.996    -8.774
    383    H    -0.512    -1.138    -8.083
    384    O    0.944    -2.637    -8.567
    385    P    2.193    -1.732    -8.227
    386    O    1.830    -0.782    -7.156
    387    O    3.368    -2.592    -7.970
    388    O    2.421    -0.931    -9.558
    389    C    2.978    -1.577    -10.724
    390    H    2.332    -2.413    -11.074
    391    H    3.978    -2.016    -10.503
    392    C    3.142    -0.570    -11.868
    393    H    3.552    -1.065    -12.774
    394    O    1.841    -0.012    -12.227
    395    C    1.998    1.364    -12.543
    396    H    1.575    1.507    -13.567
    397    N    1.279    2.222    -11.596
    398    C    0.229    3.914    -10.667
    399    N    0.255    2.903    -9.711
    400    C    0.884    1.924    -10.315
    401    H    1.082    0.945    -9.879
    402    N    -0.139    5.975    -11.778
    403    C    0.547    5.458    -12.803
    404    H    0.675    6.117    -13.672
    405    N    1.058    4.231    -12.940
    406    C    0.870    3.509    -11.825
    407    C    -0.329    5.211    -10.671
    408    N    -1.048    5.706    -9.647
    409    H    -1.162    5.200    -8.787
    410    H    -1.456    6.621    -9.717
    411    C    3.482    1.658    -12.566
    412    H    3.722    2.698    -12.263
    413    O    3.998    1.399    -13.856
    414    H    4.954    1.521    -13.801
    415    C    4.011    0.655    -11.549
    416    H    3.737    0.974    -10.517
    417    O    5.417    0.324    -11.686
    418    P    6.459    1.191    -10.881
    419    O    5.971    1.374    -9.497
    420    O    7.788    0.567    -11.040
    421    O    6.472    2.590    -11.592
    422    C    6.973    2.749    -12.941
    423    H    6.493    2.031    -13.642
    424    H    8.069    2.558    -12.982
    425    C    6.727    4.173    -13.463
    426    H    7.081    4.276    -14.509
    427    O    5.301    4.461    -13.460
    428    C    5.097    5.812    -13.072
    429    H    4.506    6.286    -13.891
    430    N    4.340    5.905    -11.814
    431    C    3.556    6.957    -11.430
    432    N    2.250    10.112    -12.027
    433    H    2.653    10.351    -12.908
    434    H    1.719    10.801    -11.526
    435    N    3.369    8.091    -12.127
    436    C    2.552    8.939    -11.499
    437    N    1.989    8.671    -10.279
    438    H    1.401    9.376    -9.862
    439    C    2.155    7.505    -9.543
    440    O    1.597    7.346    -8.453
    441    C    3.033    6.602    -10.199
    442    N    3.489    5.347    -9.810
    443    C    4.271    4.978    -10.797
    444    H    4.821    4.038    -10.848
    445    C    6.457    6.480    -12.988
    446    H    6.508    7.274    -12.213
    447    O    6.804    7.017    -14.251
    448    H    7.738    7.255    -14.203
    449    C    7.354    5.302    -12.630
    450    H    7.201    5.008    -11.566
    451    O    8.751    5.476    -12.980
    452    P    9.706    6.150    -11.917
    453    O    9.102    6.023    -10.574
    454    O    11.051    5.564    -12.088
    455    O    9.736    7.672    -12.324
    456    C    10.058    8.101    -13.668
    457    H    9.123    8.181    -14.262
    458    H    10.732    7.382    -14.196
    459    C    10.714    9.498    -13.687
    460    H    10.869    9.839    -14.734
    461    O    9.837    10.473    -13.045
    462    C    10.625    11.419    -12.328
    463    H    10.348    12.414    -12.748
    464    N    10.349    11.436    -10.859
    465    C    9.646    10.402    -10.280
    466    H    9.339    9.592    -10.946
    467    C    9.343    10.409    -8.975
    468    H    8.770    9.613    -8.506
    469    C    10.792    12.496    -10.064
    470    O    11.441    13.418    -10.581
    471    N    10.501    12.511    -8.743
    472    C    9.783    11.514    -8.196
    473    N    9.502    11.551    -6.895
    474    H    9.790    12.338    -6.345
    475    H    8.963    10.832    -6.456
    476    C    12.078    11.138    -12.657
    477    H    12.756    11.377    -11.817
    478    O    12.466    11.880    -13.800
    479    H    13.357    11.589    -14.033
    480    C    12.052    9.640    -12.943
    481    H    11.950    9.058    -11.999
    482    O    13.129    9.177    -13.780
    483    P    14.426    8.533    -13.172
    484    O    14.047    7.653    -12.051
    485    O    15.198    7.905    -14.269
    486    O    15.212    9.754    -12.579
    487    C    15.850    10.738    -13.414
    488    H    15.138    11.157    -14.159
    489    H    16.691    10.275    -13.981
    490    C    16.410    11.900    -12.576
    491    H    16.935    12.634    -13.226
    492    O    15.318    12.613    -11.919
    493    C    15.741    13.006    -10.613
    494    H    15.601    14.113    -10.562
    495    N    14.941    12.364    -9.526
    496    C    14.269    11.191    -9.770
    497    H    14.355    10.799    -10.782
    498    C    13.525    10.596    -8.830
    499    H    12.957    9.689    -9.027
    500    C    14.923    12.903    -8.243
    501    O    15.597    13.914    -8.002
    502    N    14.169    12.324    -7.279
    503    C    13.470    11.206    -7.546
    504    N    12.721    10.662    -6.590
    505    H    12.689    11.078    -5.677
    506    H    12.244    9.792    -6.732
    507    C    17.224    12.704    -10.505
    508    H    17.530    12.458    -9.469
    509    O    17.986    13.804    -10.966
    510    H    18.909    13.521    -10.958
    511    C    17.358    11.502    -11.433
    512    H    16.910    10.602    -10.955
    513    O    18.689    11.270    -11.953
    514    P    19.617    10.205    -11.255
    515    O    18.819    9.012    -10.899
    516    O    20.804    9.981    -12.106
    517    O    20.060    10.904    -9.921
    518    C    20.896    12.083    -9.939
    519    H    20.462    12.883    -10.581
    520    H    21.903    11.831    -10.346
    521    C    21.089    12.651    -8.523
    522    H    21.796    13.508    -8.528
    523    O    19.818    13.141    -8.003
    524    C    19.730    12.854    -6.611
    525    H    19.569    13.836    -6.107
    526    N    18.592    11.938    -6.305
    527    C    18.045    11.134    -7.280
    528    H    18.519    11.203    -8.257
    529    C    18.108    11.903    -5.016
    530    O    18.588    12.572    -4.108
    531    N    17.047    11.056    -4.819
    532    H    16.724    10.984    -3.861
    533    C    16.452    10.224    -5.743
    534    O    15.527    9.490    -5.404
    535    C    17.011    10.310    -7.058
    536    H    16.600    9.682    -7.846
    537    C    21.077    12.283    -6.179
    538    H    20.967    11.523    -5.376
    539    O    21.931    13.328    -5.740
    540    H    22.836    12.979    -5.674
    541    C    21.565    11.638    -7.474
    542    H    21.036    10.676    -7.645
    543    O    22.991    11.464    -7.552
    544    H    23.294    10.811    -6.892
 $END
