!*** FMO 5.3 (Gamess) INPUT generated by Facio 22.1.1.32 ***
 $CONTRL RUNTYP=ENERGY NPRINT=-5 ISPHER=1 MAXIT=200 $END
 $SYSTEM MWORDS=63 MEMDDI=63 $END
 $GDDI NGROUP=1 $END
 $SCF DIRSCF=.TRUE. NPUNCH=0 $END
!*** NumCPU : 2  MemPerNode : 512MB
 $PCM SOLVNT=WATER IEF=-10 ICOMP=2 ICAV=1 IDISP=1 IFMO=-1 $END
 $PCMCAV RADII=SUAHF $END
 $TESCAV NTSALL=60 $END
 $FMOPRP
    NAODIR=200
    NGRFMO(1)=1, 1, 0, 0, 0,   0, 0, 0, 0, 0
    IPIEDA=1
    NPRINT=9
 $END
 $FMO
      SCFTYP(1)=RHF
      MODGRD=10
      MODMUL=0
      MAXCAO=5
      MAXBND=18
      NLAYER=1
      MPLEVL(1)=2
      NFRAG=16
      ICHARG(1)=-1, -1, -1, -1, -1, -1, -1, 0, -1, -1, -1, -1, -1, -1,
-1, 0
      FRGNAM(1)=F1, F2, F3, F4, F5, F6, F7, F8, F9, F10, F11, F12, F13,
F14, F15, F16
      indat(1)=0
               1   -32   0
               33   -66   0
               67   -99   0
               100   -132   0
               133   -166   0
               167   -197   0
               198   -228   0
               229   -258   0
               259   -292   0
               293   -326   0
               327   -359   0
               360   -393   0
               394   -427   0
               428   -460   0
               461   -491   0
               492   -521   0
 $END

 $FMOBND
   -33   32       6-31G*    MINI
   -67   66       6-31G*    MINI
   -100   99       6-31G*    MINI
   -133   132       6-31G*    MINI
   -167   166       6-31G*    MINI
   -198   197       6-31G*    MINI
   -229   228       6-31G*    MINI
   -259   258       6-31G*    MINI
   -293   292       6-31G*    MINI
   -327   326       6-31G*    MINI
   -360   359       6-31G*    MINI
   -394   393       6-31G*    MINI
   -428   427       6-31G*    MINI
   -461   460       6-31G*    MINI
   -492   491       6-31G*    MINI
 $END
 $FMOHYB
 6-31G*      15   5
   1 0  -0.065034   0.288264   0.000000   0.000000   0.604412
         0.290129   0.000000   0.000000   0.319045  -0.017106
        -0.017106   0.057934   0.000000   0.000000   0.000000
   0 1  -0.065040   0.288293   0.569832   0.000000  -0.201456
         0.290147   0.300783   0.000000  -0.106342   0.049598
        -0.017106  -0.008771   0.000000  -0.027223   0.000000
   0 1  -0.065039   0.288293  -0.284916  -0.493490  -0.201455
         0.290145  -0.150392  -0.260486  -0.106340  -0.000427
         0.032923  -0.008771   0.033353   0.013612   0.023576
   0 1  -0.065039   0.288293  -0.284916   0.493490  -0.201455
         0.290145  -0.150392   0.260486  -0.106340  -0.000427
         0.032923  -0.008771  -0.033353   0.013612  -0.023576
   0 1   1.010938  -0.011975   0.000000   0.000000   0.000000
        -0.054085   0.000000   0.000000  -0.000000  -0.003174
        -0.003174  -0.003174   0.000000   0.000000   0.000000
 MINI         5   5
   1 0  -0.104883   0.308874   0.000000   0.000000   0.521806
   0 1  -0.104883   0.308874   0.491961   0.000000  -0.173934
   0 1  -0.104883   0.308876  -0.245980  -0.426050  -0.173933
   0 1  -0.104883   0.308876  -0.245980   0.426050  -0.173933
   0 1   0.988209   0.063992   0.000000   0.000000   0.000000
 $END
 
 $DATA
 FMO calculation
 C1 
 H.1-1    1
      N31 6
   
 O.1-1    8
      N31 6
      d 1
      1 0.800 1.0
   
 C.1-1    6
      N31 6
      d 1
      1 0.800 1.0
   
 N.1-1    7
      N31 6
      d 1
      1 0.800 1.0
   
 P.1-1   15
      N31 6
      d 1
      1 0.550 1.0
   
 $END
 $FMOXYZ
    1    H    8.539    -3.523    -8.675
    2    O    8.289    -2.585    -8.777
    3    C    9.482    -1.868    -9.127
    4    H    9.877    -2.268    -10.084
    5    H    10.264    -2.033    -8.348
    6    C    9.256    -0.359    -9.294
    7    H    10.213    0.160    -9.518
    8    O    8.354    -0.104    -10.414
    9    C    7.498    0.983    -10.091
    10    H    7.638    1.737    -10.903
    11    N    6.065    0.561    -10.018
    12    C    5.720    -0.768    -9.876
    13    H    6.551    -1.471    -9.831
    14    C    5.087    1.529    -10.107
    15    O    5.346    2.722    -10.224
    16    N    3.799    1.060    -10.080
    17    H    3.077    1.769    -10.129
    18    C    3.384    -0.251    -9.983
    19    O    2.185    -0.525    -10.025
    20    C    4.451    -1.197    -9.861
    21    H    4.211    -2.254    -9.777
    22    C    8.001    1.564    -8.782
    23    H    7.184    2.009    -8.183
    24    O    8.991    2.546    -9.033
    25    H    9.295    2.852    -8.171
    26    C    8.591    0.334    -8.100
    27    H    7.776    -0.337    -7.744
    28    O    9.584    0.606    -7.085
    29    P    9.149    0.722    -5.580
    30    O    8.338    -0.456    -5.206
    31    O    10.343    0.993    -4.749
    32    O    8.239    2.009    -5.576
    33    C    8.863    3.317    -5.699
    34    H    9.510    3.372    -6.603
    35    H    9.507    3.528    -4.811
    36    C    7.826    4.450    -5.795
    37    H    8.327    5.431    -5.939
    38    O    6.957    4.230    -6.939
    39    C    5.631    4.614    -6.605
    40    H    5.319    5.373    -7.358
    41    N    4.702    3.479    -6.669
    42    C    3.338    3.552    -6.733
    43    N    0.420    5.414    -6.769
    44    H    0.749    6.350    -6.631
    45    H    -0.569    5.239    -6.760
    46    N    2.608    4.682    -6.733
    47    C    1.304    4.435    -6.810
    48    N    0.784    3.177    -6.925
    49    H    -0.220    3.082    -6.954
    50    C    1.511    1.994    -6.953
    51    O    0.954    0.900    -7.076
    52    C    2.902    2.243    -6.814
    53    N    3.973    1.362    -6.761
    54    C    5.019    2.143    -6.679
    55    H    6.054    1.804    -6.607
    56    C    5.668    5.251    -5.233
    57    H    4.746    5.051    -4.650
    58    O    5.872    6.647    -5.347
    59    H    6.010    6.985    -4.449
    60    C    6.870    4.565    -4.599
    61    H    6.606    3.526    -4.302
    62    O    7.499    5.300    -3.524
    63    P    6.861    5.233    -2.083
    64    O    6.591    3.816    -1.756
    65    O    7.740    5.976    -1.147
    66    O    5.491    6.023    -2.182
    67    C    4.463    5.763    -1.180
    68    H    4.526    6.523    -0.370
    69    H    4.584    4.766    -0.688
    70    C    3.039    5.782    -1.766
    71    H    2.731    6.808    -2.057
    72    O    3.001    4.974    -2.973
    73    C    1.802    4.244    -3.037
    74    H    1.332    4.514    -4.009
    75    N    2.073    2.811    -3.027
    76    C    1.926    0.643    -3.307
    77    N    3.156    0.875    -2.711
    78    C    3.206    2.174    -2.579
    79    H    4.054    2.735    -2.177
    80    N    0.030    -0.420    -4.200
    81    C    -0.526    0.786    -4.296
    82    H    -1.541    0.793    -4.709
    83    N    0.007    1.982    -3.992
    84    C    1.244    1.830    -3.495
    85    C    1.280    -0.534    -3.719
    86    N    1.840    -1.749    -3.663
    87    H    2.708    -1.919    -3.194
    88    H    1.274    -2.547    -3.905
    89    C    0.919    4.691    -1.888
    90    H    0.292    3.875    -1.470
    91    O    0.093    5.762    -2.306
    92    H    -0.119    5.700    -3.247
    93    C    1.960    5.151    -0.869
    94    H    2.457    4.254    -0.431
    95    O    1.484    6.107    0.122
    96    P    1.219    5.588    1.592
    97    O    1.359    4.115    1.620
    98    O    2.086    6.341    2.530
    99    O    -0.285    5.915    1.926
    100    C    -0.841    7.248    1.840
    101    H    -0.408    7.821    0.988
    102    H    -0.626    7.814    2.776
    103    C    -2.368    7.219    1.639
    104    H    -2.773    8.248    1.553
    105    O    -2.676    6.527    0.398
    106    C    -3.867    5.775    0.550
    107    H    -4.569    6.132    -0.241
    108    N    -3.619    4.344    0.364
    109    C    -3.875    2.204    -0.057
    110    N    -2.519    2.397    0.157
    111    C    -2.417    3.683    0.396
    112    H    -1.486    4.219    0.605
    113    N    -5.973    1.227    -0.578
    114    C    -6.497    2.442    -0.366
    115    H    -7.583    2.528    -0.477
    116    N    -5.880    3.580    -0.039
    117    C    -4.560    3.394    0.078
    118    C    -4.632    1.074    -0.433
    119    N    -4.108    -0.136    -0.679
    120    H    -3.166    -0.392    -0.425
    121    H    -4.586    -0.737    -1.312
    122    C    -4.438    6.089    1.912
    123    H    -4.949    5.219    2.373
    124    O    -5.343    7.172    1.816
    125    H    -5.588    7.388    2.723
    126    C    -3.190    6.472    2.700
    127    H    -2.596    5.564    2.956
    128    O    -3.452    7.333    3.834
    129    P    -3.579    6.702    5.269
    130    O    -2.564    5.639    5.394
    131    O    -3.548    7.787    6.270
    132    O    -5.000    6.030    5.294
    133    C    -6.227    6.783    5.206
    134    H    -6.196    7.521    4.371
    135    H    -6.393    7.349    6.149
    136    C    -7.423    5.840    4.982
    137    H    -8.376    6.408    4.942
    138    O    -7.264    5.174    3.696
    139    C    -7.708    3.826    3.794
    140    H    -8.467    3.678    2.992
    141    N    -6.600    2.884    3.586
    142    C    -6.690    1.616    3.074
    143    N    -8.585    -0.985    1.794
    144    H    -9.506    -0.596    1.809
    145    H    -8.457    -1.891    1.389
    146    N    -7.819    0.997    2.686
    147    C    -7.591    -0.237    2.235
    148    N    -6.343    -0.803    2.187
    149    H    -6.262    -1.736    1.828
    150    C    -5.157    -0.162    2.543
    151    O    -4.065    -0.718    2.427
    152    C    -5.395    1.145    3.037
    153    N    -4.506    2.092    3.527
    154    C    -5.268    3.102    3.850
    155    H    -4.912    4.041    4.267
    156    C    -8.361    3.666    5.147
    157    H    -8.249    2.640    5.557
    158    O    -9.735    4.004    5.054
    159    H    -10.067    4.125    5.955
    160    C    -7.589    4.679    5.979
    161    H    -6.561    4.303    6.189
    162    O    -8.292    5.117    7.163
    163    P    -7.893    4.502    8.559
    164    O    -6.423    4.551    8.685
    165    O    -8.670    5.193    9.608
    166    O    -8.344    2.996    8.480
    167    C    -9.731    2.612    8.362
    168    H    -10.220    3.128    7.507
    169    H    -10.287    2.895    9.286
    170    C    -9.883    1.095    8.156
    171    H    -10.952    0.802    8.166
    172    O    -9.363    0.724    6.847
    173    C    -8.686    -0.525    6.952
    174    H    -9.198    -1.188    6.217
    175    N    -7.248    -0.430    6.595
    176    C    -6.577    0.745    6.825
    177    H    -7.169    1.563    7.226
    178    C    -5.286    0.880    6.518
    179    H    -4.750    1.816    6.657
    180    C    -6.565    -1.530    6.079
    181    O    -7.176    -2.598    5.929
    182    N    -5.261    -1.408    5.743
    183    C    -4.621    -0.243    5.955
    184    N    -3.336    -0.130    5.655
    185    H    -2.894    -0.850    5.112
    186    H    -2.857    0.745    5.729
    187    C    -8.926    -1.075    8.347
    188    H    -8.067    -1.668    8.731
    189    O    -10.099    -1.870    8.352
    190    H    -10.323    -2.054    9.278
    191    C    -9.115    0.206    9.150
    192    H    -8.128    0.694    9.318
    193    O    -9.881    0.055    10.368
    194    P    -9.120    -0.287    11.705
    195    O    -7.957    0.618    11.817
    196    O    -10.105    -0.247    12.808
    197    O    -8.627    -1.774    11.521
    198    C    -7.453    -2.203    12.260
    199    H    -7.674    -2.265    13.349
    200    H    -6.598    -1.493    12.122
    201    C    -6.989    -3.588    11.798
    202    H    -7.776    -4.351    12.003
    203    O    -6.753    -3.576    10.362
    204    C    -5.605    -4.355    10.071
    205    H    -5.930    -5.103    9.312
    206    N    -4.489    -3.538    9.508
    207    C    -4.504    -2.166    9.637
    208    H    -5.352    -1.736    10.178
    209    C    -3.533    -1.406    9.117
    210    H    -3.536    -0.321    9.196
    211    C    -3.432    -4.155    8.839
    212    O    -3.418    -5.391    8.733
    213    N    -2.435    -3.401    8.321
    214    C    -2.472    -2.062    8.432
    215    N    -1.487    -1.342    7.904
    216    H    -0.758    -1.797    7.386
    217    H    -1.504    -0.342    7.912
    218    C    -5.223    -5.081    11.349
    219    H    -4.140    -5.300    11.405
    220    O    -5.955    -6.288    11.453
    221    H    -5.743    -6.669    12.313
    222    C    -5.664    -4.075    12.408
    223    H    -4.974    -3.200    12.421
    224    O    -5.901    -4.625    13.724
    225    P    -4.742    -4.614    14.793
    226    O    -4.101    -3.282    14.833
    227    O    -5.280    -5.122    16.072
    228    O    -3.697    -5.645    14.242
    229    C    -3.995    -7.059    14.250
    230    H    -4.929    -7.280    13.687
    231    H    -4.134    -7.419    15.298
    232    C    -2.860    -7.871    13.615
    233    H    -3.098    -8.954    13.649
    234    O    -2.696    -7.514    12.213
    235    C    -1.310    -7.487    11.893
    236    H    -1.190    -8.178    11.025
    237    N    -0.840    -6.128    11.488
    238    C    -1.560    -5.009    11.841
    239    H    -2.458    -5.187    12.426
    240    C    -1.186    -3.781    11.465
    241    H    -1.763    -2.893    11.723
    242    C    0.344    -5.976    10.770
    243    O    1.015    -6.980    10.493
    244    N    0.737    -4.745    10.372
    245    C    0.007    -3.663    10.696
    246    N    0.420    -2.465    10.286
    247    H    1.274    -2.386    9.766
    248    H    -0.071    -1.625    10.518
    249    C    -0.554    -8.059    13.084
    250    H    0.450    -7.599    13.202
    251    O    -0.420    -9.468    12.954
    252    H    -1.303    -9.878    12.954
    253    C    -1.477    -7.664    14.234
    254    H    -1.359    -6.584    14.471
    255    O    -1.358    -8.465    15.421
    256    H    -0.464    -8.367    15.803
    257    H    9.419    -1.500    3.886
    258    O    8.934    -2.249    4.275
    259    C    9.798    -3.392    4.194
    260    H    10.725    -3.185    4.775
    261    H    10.086    -3.563    3.129
    262    C    9.157    -4.670    4.748
    263    H    9.843    -5.536    4.627
    264    O    8.887    -4.543    6.180
    265    C    7.644    -5.176    6.464
    266    H    7.839    -5.918    7.274
    267    N    6.630    -4.212    6.918
    268    C    5.478    -4.514    7.591
    269    N    3.398    -6.842    9.076
    270    H    3.850    -7.706    8.866
    271    H    2.525    -6.860    9.573
    272    N    5.077    -5.746    7.949
    273    C    3.937    -5.725    8.633
    274    N    3.256    -4.573    8.925
    275    H    2.408    -4.647    9.466
    276    C    3.641    -3.287    8.563
    277    O    2.965    -2.302    8.880
    278    C    4.856    -3.300    7.825
    279    N    5.596    -2.251    7.288
    280    C    6.641    -2.845    6.753
    281    H    7.459    -2.344    6.230
    282    C    7.202    -5.904    5.212
    283    H    6.098    -5.943    5.111
    284    O    7.727    -7.218    5.194
    285    H    7.393    -7.621    4.381
    286    C    7.812    -5.037    4.115
    287    H    7.238    -4.085    4.008
    288    O    8.039    -5.705    2.849
    289    P    6.873    -5.693    1.790
    290    O    6.387    -4.308    1.622
    291    O    7.353    -6.380    0.575
    292    O    5.718    -6.537    2.433
    293    C    5.844    -7.978    2.502
    294    H    6.791    -8.279    3.011
    295    H    5.853    -8.426    1.480
    296    C    4.675    -8.582    3.289
    297    H    4.819    -9.674    3.443
    298    O    4.610    -7.967    4.607
    299    C    3.253    -7.841    4.995
    300    H    3.147    -8.387    5.961
    301    N    2.859    -6.444    5.193
    302    C    1.753    -6.015    5.878
    303    N    -1.149    -6.681    7.658
    304    H    -1.180    -7.679    7.666
    305    H    -1.911    -6.165    8.060
    306    N    0.835    -6.799    6.479
    307    C    -0.131    -6.087    7.061
    308    N    -0.140    -4.720    7.087
    309    H    -0.914    -4.260    7.540
    310    C    0.807    -3.892    6.507
    311    O    0.716    -2.667    6.591
    312    C    1.805    -4.635    5.826
    313    N    2.900    -4.204    5.086
    314    C    3.496    -5.316    4.726
    315    H    4.400    -5.383    4.117
    316    C    2.413    -8.514    3.940
    317    H    1.433    -8.018    3.796
    318    O    2.231    -9.877    4.282
    319    H    1.847    -10.309    3.507
    320    C    3.272    -8.355    2.698
    321    H    3.243    -7.299    2.332
    322    O    2.997    -9.318    1.663
    323    P    2.011    -9.010    0.465
    324    O    2.461    -7.788    -0.227
    325    O    1.991    -10.247    -0.341
    326    O    0.586    -8.796    1.118
    327    C    -0.156    -9.865    1.744
    328    H    0.483    -10.456    2.440
    329    H    -0.544    -10.569    0.969
    330    C    -1.361    -9.331    2.546
    331    H    -1.915    -10.163    3.028
    332    O    -0.910    -8.444    3.613
    333    C    -1.787    -7.335    3.731
    334    H    -2.119    -7.304    4.795
    335    N    -1.112    -6.073    3.409
    336    C    -0.537    -3.952    3.308
    337    N    0.420    -4.651    2.601
    338    C    0.023    -5.895    2.662
    339    H    0.529    -6.737    2.193
    340    N    -1.735    -2.224    4.378
    341    C    -2.580    -3.172    4.789
    342    H    -3.406    -2.835    5.417
    343    N    -2.539    -4.492    4.586
    344    C    -1.488    -4.818    3.819
    345    C    -0.680    -2.582    3.602
    346    N    0.182    -1.646    3.156
    347    H    1.059    -1.889    2.740
    348    H    0.033    -0.692    3.419
    349    C    -2.968    -7.599    2.838
    350    H    -3.392    -6.669    2.408
    351    O    -3.961    -8.289    3.572
    352    H    -4.606    -8.641    2.938
    353    C    -2.359    -8.480    1.749
    354    H    -1.751    -7.864    1.040
    355    O    -3.324    -9.333    1.091
    356    P    -3.904    -8.889    -0.304
    357    O    -2.846    -9.088    -1.309
    358    O    -5.180    -9.603    -0.525
    359    O    -4.187    -7.351    -0.135
    360    C    -5.405    -6.860    0.464
    361    H    -5.475    -7.178    1.529
    362    H    -6.299    -7.251    -0.078
    363    C    -5.450    -5.326    0.423
    364    H    -6.384    -4.931    0.887
    365    O    -4.319    -4.774    1.164
    366    C    -3.802    -3.650    0.468
    367    H    -3.799    -2.807    1.195
    368    N    -2.422    -3.868    0.002
    369    C    -1.473    -2.897    -0.214
    370    N    -0.436    0.424    -0.189
    371    H    0.437    0.900    -0.216
    372    H    -1.260    0.954    0.035
    373    N    -1.635    -1.563    -0.048
    374    C    -0.502    -0.892    -0.271
    375    N    0.675    -1.492    -0.609
    376    H    1.497    -0.928    -0.724
    377    C    0.849    -2.848    -0.826
    378    O    1.959    -3.275    -1.141
    379    C    -0.338    -3.582    -0.603
    380    N    -0.568    -4.951    -0.665
    381    C    -1.822    -5.073    -0.308
    382    H    -2.356    -6.019    -0.249
    383    C    -4.760    -3.344    -0.667
    384    H    -4.243    -2.916    -1.550
    385    O    -5.775    -2.450    -0.222
    386    H    -5.345    -1.638    0.086
    387    C    -5.311    -4.728    -0.984
    388    H    -4.536    -5.322    -1.523
    389    O    -6.587    -4.734    -1.650
    390    P    -6.733    -5.088    -3.174
    391    O    -6.549    -6.543    -3.349
    392    O    -8.011    -4.527    -3.662
    393    O    -5.538    -4.355    -3.874
    394    C    -5.577    -2.927    -4.103
    395    H    -5.816    -2.364    -3.171
    396    H    -6.372    -2.693    -4.839
    397    C    -4.226    -2.418    -4.634
    398    H    -4.171    -1.315    -4.668
    399    O    -3.173    -2.854    -3.734
    400    C    -2.016    -3.200    -4.470
    401    H    -1.210    -2.532    -4.103
    402    N    -1.607    -4.587    -4.234
    403    C    -0.327    -5.082    -4.233
    404    N    3.093    -4.619    -4.567
    405    H    3.924    -5.171    -4.486
    406    H    3.162    -3.649    -4.783
    407    N    0.798    -4.377    -4.461
    408    C    1.892    -5.136    -4.365
    409    N    1.858    -6.485    -4.133
    410    H    2.729    -6.980    -4.054
    411    C    0.711    -7.245    -3.949
    412    O    0.774    -8.468    -3.788
    413    C    -0.460    -6.441    -4.004
    414    N    -1.798    -6.789    -3.865
    415    C    -2.438    -5.652    -3.992
    416    H    -3.518    -5.521    -3.932
    417    C    -2.292    -2.932    -5.936
    418    H    -1.853    -3.707    -6.607
    419    O    -1.784    -1.674    -6.304
    420    H    -2.165    -1.473    -7.165
    421    C    -3.820    -2.949    -6.019
    422    H    -4.166    -4.001    -6.102
    423    O    -4.331    -2.120    -7.084
    424    P    -5.788    -2.148    -7.661
    425    O    -5.689    -1.710    -9.069
    426    O    -6.415    -3.466    -7.417
    427    O    -6.496    -1.024    -6.803
    428    C    -7.925    -1.060    -6.573
    429    H    -8.193    -1.915    -5.909
    430    H    -8.477    -1.171    -7.533
    431    C    -8.424    0.225    -5.888
    432    H    -9.518    0.171    -5.688
    433    O    -7.771    0.388    -4.590
    434    C    -7.508    1.766    -4.368
    435    H    -7.986    2.037    -3.399
    436    N    -6.077    2.030    -4.279
    437    C    -4.138    2.970    -3.886
    438    N    -3.864    1.712    -4.406
    439    C    -5.047    1.199    -4.628
    440    H    -5.249    0.218    -5.063
    441    N    -3.914    5.153    -2.996
    442    C    -5.244    5.222    -3.023
    443    H    -5.667    6.176    -2.683
    444    N    -6.127    4.292    -3.404
    445    C    -5.500    3.180    -3.817
    446    C    -3.315    4.015    -3.421
    447    N    -1.986    3.954    -3.326
    448    H    -1.456    3.167    -3.666
    449    H    -1.534    4.636    -2.753
    450    C    -8.150    2.548    -5.489
    451    H    -7.566    3.449    -5.758
    452    O    -9.460    2.926    -5.123
    453    H    -9.905    3.247    -5.922
    454    C    -8.145    1.541    -6.629
    455    H    -7.119    1.439    -7.053
    456    O    -9.157    1.798    -7.628
    457    P    -8.776    2.184    -9.103
    458    O    -8.039    1.072    -9.732
    459    O    -10.006    2.620    -9.796
    460    O    -7.798    3.409    -8.931
    461    C    -8.307    4.701    -8.524
    462    H    -8.993    4.603    -7.651
    463    H    -8.873    5.163    -9.365
    464    C    -7.179    5.667    -8.111
    465    H    -7.596    6.648    -7.796
    466    O    -6.459    5.127    -6.968
    467    C    -5.071    5.399    -7.102
    468    H    -4.781    5.935    -6.169
    469    N    -4.239    4.169    -7.221
    470    C    -4.799    2.989    -7.652
    471    H    -5.872    3.011    -7.832
    472    C    -4.066    1.877    -7.791
    473    H    -4.498    0.928    -8.104
    474    C    -2.869    4.230    -6.979
    475    O    -2.361    5.316    -6.671
    476    N    -2.114    3.116    -7.091
    477    C    -2.674    1.967    -7.501
    478    N    -1.905    0.900    -7.676
    479    H    -0.965    0.889    -7.321
    480    H    -2.297    0.043    -7.995
    481    C    -4.907    6.330    -8.289
    482    H    -3.942    6.183    -8.814
    483    O    -5.013    7.677    -7.870
    484    H    -5.006    8.224    -8.665
    485    C    -6.088    5.914    -9.160
    486    H    -5.880    4.919    -9.618
    487    O    -6.534    6.913    -10.108
    488    P    -6.159    6.739    -11.627
    489    O    -6.266    5.317    -12.008
    490    O    -6.921    7.710    -12.445
    491    O    -4.643    7.159    -11.651
    492    C    -4.307    8.548    -11.420
    493    H    -4.730    8.917    -10.454
    494    H    -4.726    9.185    -12.234
    495    C    -2.787    8.750    -11.412
    496    H    -2.527    9.826    -11.315
    497    O    -2.203    8.057    -10.271
    498    C    -0.956    7.492    -10.654
    499    H    -0.189    7.890    -9.950
    500    N    -0.989    6.029    -10.549
    501    C    -0.429    3.912    -10.363
    502    N    -1.816    3.943    -10.396
    503    C    -2.097    5.216    -10.509
    504    H    -3.104    5.634    -10.573
    505    N    1.814    3.166    -10.238
    506    C    2.168    4.451    -10.354
    507    H    3.246    4.639    -10.356
    508    N    1.392    5.533    -10.480
    509    C    0.093    5.191    -10.461
    510    C    0.495    2.852    -10.247
    511    N    0.136    1.562    -10.128
    512    H    -0.827    1.293    -10.082
    513    H    0.831    0.856    -9.962
    514    C    -0.639    7.963    -12.064
    515    H    -0.108    7.185    -12.654
    516    O    0.139    9.151    -12.021
    517    H    0.197    9.532    -12.916
    518    C    -2.038    8.184    -12.628
    519    H    -2.502    7.210    -12.896
    520    O    -2.097    9.093    -13.740
    521    H    -1.651    8.698    -14.508
 $END
