!*** FMO 5.3 (Gamess) INPUT generated by Facio 22.1.1.32 ***
 $CONTRL RUNTYP=ENERGY NPRINT=-5 ISPHER=1 MAXIT=200 $END
 $SYSTEM MWORDS=63 MEMDDI=63 $END
 $GDDI NGROUP=1 $END
 $SCF DIRSCF=.TRUE. NPUNCH=0 $END
!*** NumCPU : 2  MemPerNode : 512MB
 $PCM SOLVNT=WATER IEF=-10 ICOMP=2 ICAV=1 IDISP=1 IFMO=-1 $END
 $PCMCAV RADII=SUAHF $END
 $TESCAV NTSALL=60 $END
 $FMOPRP
    NAODIR=200
    NGRFMO(1)=1, 1, 0, 0, 0,   0, 0, 0, 0, 0
    IPIEDA=1
    NPRINT=9
 $END
 $FMO
      SCFTYP(1)=RHF
      MODGRD=10
      MODMUL=0
      MAXCAO=5
      MAXBND=18
      NLAYER=1
      MPLEVL(1)=2
      NFRAG=16
      ICHARG(1)=-1, -1, -1, -1, -1, -1, -1, 0, -1, -1, -1, -1, -1, -1,
-1, 0
      FRGNAM(1)=F1, F2, F3, F4, F5, F6, F7, F8, F9, F10, F11, F12, F13,
F14, F15, F16
      indat(1)=0
               1   -32   0
               33   -66   0
               67   -99   0
               100   -132   0
               133   -166   0
               167   -197   0
               198   -228   0
               229   -258   0
               259   -292   0
               293   -326   0
               327   -359   0
               360   -393   0
               394   -427   0
               428   -460   0
               461   -491   0
               492   -521   0
 $END

 $FMOBND
   -33   32       6-31G*    MINI
   -67   66       6-31G*    MINI
   -100   99       6-31G*    MINI
   -133   132       6-31G*    MINI
   -167   166       6-31G*    MINI
   -198   197       6-31G*    MINI
   -229   228       6-31G*    MINI
   -259   258       6-31G*    MINI
   -293   292       6-31G*    MINI
   -327   326       6-31G*    MINI
   -360   359       6-31G*    MINI
   -394   393       6-31G*    MINI
   -428   427       6-31G*    MINI
   -461   460       6-31G*    MINI
   -492   491       6-31G*    MINI
 $END
 $FMOHYB
 6-31G*      15   5
   1 0  -0.065034   0.288264   0.000000   0.000000   0.604412
         0.290129   0.000000   0.000000   0.319045  -0.017106
        -0.017106   0.057934   0.000000   0.000000   0.000000
   0 1  -0.065040   0.288293   0.569832   0.000000  -0.201456
         0.290147   0.300783   0.000000  -0.106342   0.049598
        -0.017106  -0.008771   0.000000  -0.027223   0.000000
   0 1  -0.065039   0.288293  -0.284916  -0.493490  -0.201455
         0.290145  -0.150392  -0.260486  -0.106340  -0.000427
         0.032923  -0.008771   0.033353   0.013612   0.023576
   0 1  -0.065039   0.288293  -0.284916   0.493490  -0.201455
         0.290145  -0.150392   0.260486  -0.106340  -0.000427
         0.032923  -0.008771  -0.033353   0.013612  -0.023576
   0 1   1.010938  -0.011975   0.000000   0.000000   0.000000
        -0.054085   0.000000   0.000000  -0.000000  -0.003174
        -0.003174  -0.003174   0.000000   0.000000   0.000000
 MINI         5   5
   1 0  -0.104883   0.308874   0.000000   0.000000   0.521806
   0 1  -0.104883   0.308874   0.491961   0.000000  -0.173934
   0 1  -0.104883   0.308876  -0.245980  -0.426050  -0.173933
   0 1  -0.104883   0.308876  -0.245980   0.426050  -0.173933
   0 1   0.988209   0.063992   0.000000   0.000000   0.000000
 $END
 
 $DATA
 FMO calculation
 C1 
 H.1-1    1
      N31 6
   
 O.1-1    8
      N31 6
      d 1
      1 0.800 1.0
   
 C.1-1    6
      N31 6
      d 1
      1 0.800 1.0
   
 N.1-1    7
      N31 6
      d 1
      1 0.800 1.0
   
 P.1-1   15
      N31 6
      d 1
      1 0.550 1.0
   
 $END
 $FMOXYZ
    1    H    5.928    -6.746    -8.031
    2    O    6.022    -5.779    -7.934
    3    C    7.422    -5.475    -8.004
    4    H    7.850    -5.930    -8.926
    5    H    7.936    -5.928    -7.127
    6    C    7.708    -3.967    -8.019
    7    H    8.800    -3.772    -8.019
    8    O    7.161    -3.366    -9.233
    9    C    6.616    -2.091    -8.926
    10    H    7.122    -1.368    -9.609
    11    N    5.138    -2.044    -9.144
    12    C    4.394    -3.203    -9.237
    13    H    4.955    -4.134    -9.158
    14    C    4.531    -0.812    -9.272
    15    O    5.153    0.243    -9.195
    16    N    3.181    -0.851    -9.508
    17    H    2.730    0.050    -9.603
    18    C    2.388    -1.967    -9.661
    19    O    1.198    -1.844    -9.949
    20    C    3.078    -3.208    -9.490
    21    H    2.524    -4.133    -9.618
    22    C    7.010    -1.775    -7.495
    23    H    6.259    -1.140    -6.991
    24    O    8.274    -1.133    -7.470
    25    H    8.454    -0.921    -6.546
    26    C    7.071    -3.167    -6.874
    27    H    6.041    -3.569    -6.731
    28    O    7.891    -3.277    -5.686
    29    P    7.212    -3.136    -4.269
    30    O    5.999    -3.976    -4.242
    31    O    8.222    -3.405    -3.220
    32    O    6.788    -1.621    -4.194
    33    C    7.820    -0.603    -4.134
    34    H    8.608    -0.755    -4.909
    35    H    8.331    -0.649    -3.150
    36    C    7.236    0.808    -4.310
    37    H    8.039    1.572    -4.299
    38    O    6.568    0.904    -5.602
    39    C    5.417    1.724    -5.481
    40    H    5.529    2.554    -6.218
    41    N    4.177    0.984    -5.784
    42    C    2.950    1.526    -6.066
    43    N    0.872    4.278    -6.352
    44    H    1.477    5.034    -6.109
    45    H    -0.107    4.464    -6.482
    46    N    2.647    2.839    -6.098
    47    C    1.362    3.055    -6.346
    48    N    0.470    2.051    -6.607
    49    H    -0.493    2.299    -6.774
    50    C    0.764    0.695    -6.637
    51    O    -0.104    -0.141    -6.898
    52    C    2.118    0.449    -6.306
    53    N    2.797    -0.751    -6.151
    54    C    4.015    -0.382    -5.835
    55    H    4.843    -1.060    -5.617
    56    C    5.419    2.291    -4.081
    57    H    4.394    2.420    -3.689
    58    O    6.104    3.531    -4.062
    59    H    6.290    3.744    -3.136
    60    C    6.165    1.225    -3.293
    61    H    5.520    0.330    -3.121
    62    O    6.778    1.720    -2.079
    63    P    5.971    1.671    -0.727
    64    O    5.748    0.253    -0.383
    65    O    6.688    2.494    0.270
    66    O    4.574    2.327    -1.043
    67    C    4.366    3.756    -1.053
    68    H    5.065    4.251    -1.760
    69    H    4.548    4.185    -0.041
    70    C    2.925    4.123    -1.460
    71    H    2.815    5.224    -1.586
    72    O    2.569    3.490    -2.726
    73    C    1.240    3.011    -2.669
    74    H    0.719    3.471    -3.538
    75    N    1.180    1.540    -2.805
    76    C    0.531    -0.521    -3.261
    77    N    1.836    -0.614    -2.793
    78    C    2.174    0.625    -2.539
    79    H    3.144    0.929    -2.149
    80    N    -1.592    -1.051    -4.168
    81    C    -1.824    0.263    -4.176
    82    H    -2.803    0.562    -4.562
    83    N    -1.060    1.267    -3.717
    84    C    0.120    0.801    -3.283
    85    C    -0.396    -1.493    -3.715
    86    N    -0.146    -2.816    -3.737
    87    H    0.764    -3.177    -3.522
    88    H    -0.799    -3.431    -4.205
    89    C    0.630    3.531    -1.379
    90    H    -0.132    2.846    -0.948
    91    O    0.075    4.821    -1.596
    92    H    -0.768    4.747    -2.057
    93    C    1.858    3.625    -0.482
    94    H    2.194    2.609    -0.170
    95    O    1.727    4.548    0.627
    96    P    1.193    4.001    2.002
    97    O    0.838    2.574    1.812
    98    O    2.200    4.322    3.038
    99    O    -0.135    4.787    2.318
    100    C    -0.111    6.216    2.565
    101    H    0.639    6.741    1.925
    102    H    0.142    6.406    3.631
    103    C    -1.468    6.868    2.280
    104    H    -1.416    7.971    2.407
    105    O    -1.845    6.613    0.899
    106    C    -3.233    6.337    0.826
    107    H    -3.650    7.044    0.071
    108    N    -3.471    4.968    0.377
    109    C    -4.402    3.147    -0.413
    110    N    -3.054    2.867    -0.268
    111    C    -2.549    3.966    0.225
    112    H    -1.499    4.128    0.476
    113    N    -6.708    2.979    -0.922
    114    C    -6.811    4.246    -0.516
    115    H    -7.818    4.671    -0.575
    116    N    -5.860    5.064    -0.045
    117    C    -4.670    4.442    -0.023
    118    C    -5.492    2.386    -0.884
    119    N    -5.386    1.113    -1.282
    120    H    -4.529    0.621    -1.165
    121    H    -6.198    0.634    -1.615
    122    C    -3.833    6.616    2.186
    123    H    -4.687    5.949    2.424
    124    O    -4.263    7.961    2.243
    125    H    -4.475    8.164    3.168
    126    C    -2.649    6.348    3.110
    127    H    -2.503    5.243    3.194
    128    O    -2.726    7.038    4.386
    129    P    -2.554    6.227    5.731
    130    O    -1.800    4.986    5.464
    131    O    -2.028    7.119    6.793
    132    O    -4.020    5.802    6.107
    133    C    -5.074    6.753    6.360
    134    H    -4.947    7.688    5.766
    135    H    -5.058    7.044    7.432
    136    C    -6.456    6.161    6.040
    137    H    -7.262    6.876    6.311
    138    O    -6.554    5.937    4.599
    139    C    -7.214    4.699    4.359
    140    H    -8.047    4.908    3.647
    141    N    -6.297    3.712    3.766
    142    C    -6.637    2.560    3.109
    143    N    -9.036    0.342    1.970
    144    H    -9.080    -0.529    1.491
    145    H    -9.884    0.764    2.292
    146    N    -7.883    2.115    2.893
    147    C    -7.897    0.953    2.242
    148    N    -6.760    0.318    1.808
    149    H    -6.845    -0.565    1.331
    150    C    -5.460    0.768    2.005
    151    O    -4.488    0.147    1.571
    152    C    -5.439    1.992    2.722
    153    N    -4.368    2.767    3.137
    154    C    -4.924    3.764    3.761
    155    H    -4.383    4.581    4.227
    156    C    -7.781    4.224    5.678
    157    H    -7.815    3.118    5.745
    158    O    -9.077    4.759    5.872
    159    H    -9.301    4.648    6.807
    160    C    -6.784    4.797    6.676
    161    H    -5.842    4.203    6.669
    162    O    -7.325    4.972    8.006
    163    P    -7.029    3.893    9.114
    164    O    -5.563    3.838    9.298
    165    O    -7.842    4.212    10.307
    166    O    -7.516    2.520    8.507
    167    C    -8.929    2.233    8.366
    168    H    -9.438    3.018    7.763
    169    H    -9.423    2.202    9.369
    170    C    -9.178    0.889    7.664
    171    H    -10.267    0.683    7.575
    172    O    -8.635    0.916    6.315
    173    C    -8.073    -0.350    6.003
    174    H    -8.602    -0.694    5.081
    175    N    -6.611    -0.279    5.736
    176    C    -5.878    0.778    6.227
    177    H    -6.435    1.533    6.778
    178    C    -4.566    0.885    5.996
    179    H    -3.977    1.731    6.347
    180    C    -5.975    -1.284    5.011
    181    O    -6.642    -2.238    4.580
    182    N    -4.647    -1.198    4.778
    183    C    -3.949    -0.144    5.231
    184    N    -2.651    -0.072    4.982
    185    H    -2.219    -0.799    4.435
    186    H    -2.098    0.699    5.293
    187    C    -8.409    -1.287    7.146
    188    H    -7.625    -2.054    7.321
    189    O    -9.651    -1.919    6.895
    190    H    -9.929    -2.327    7.724
    191    C    -8.503    -0.320    8.321
    192    H    -7.485    0.012    8.633
    193    O    -9.307    -0.788    9.423
    194    P    -8.624    -1.526    10.631
    195    O    -7.545    -0.665    11.163
    196    O    -9.685    -1.926    11.581
    197    O    -7.975    -2.808    9.991
    198    C    -8.803    -3.918    9.578
    199    H    -9.549    -3.606    8.814
    200    H    -9.363    -4.329    10.449
    201    C    -7.966    -5.058    8.981
    202    H    -8.617    -5.905    8.673
    203    O    -7.266    -4.599    7.793
    204    C    -5.977    -5.197    7.744
    205    H    -5.932    -5.739    6.771
    206    N    -4.878    -4.188    7.795
    207    C    -5.104    -2.943    8.339
    208    H    -6.107    -2.764    8.722
    209    C    -4.149    -2.005    8.365
    210    H    -4.319    -1.009    8.770
    211    C    -3.612    -4.503    7.311
    212    O    -3.405    -5.636    6.851
    213    N    -2.632    -3.571    7.337
    214    C    -2.878    -2.341    7.821
    215    N    -1.905    -1.432    7.810
    216    H    -1.019    -1.667    7.402
    217    H    -2.019    -0.518    8.203
    218    C    -5.903    -6.213    8.873
    219    H    -4.879    -6.315    9.281
    220    O    -6.360    -7.479    8.439
    221    H    -6.435    -8.036    9.226
    222    C    -6.858    -5.602    9.890
    223    H    -6.382    -4.711    10.363
    224    O    -7.422    -6.537    10.840
    225    P    -6.860    -6.561    12.309
    226    O    -6.568    -5.187    12.765
    227    O    -7.746    -7.375    13.166
    228    O    -5.495    -7.315    12.129
    229    C    -5.483    -8.734    11.857
    230    H    -6.065    -8.976    10.938
    231    H    -5.933    -9.293    12.710
    232    C    -4.052    -9.246    11.667
    233    H    -4.036    -10.346    11.501
    234    O    -3.459    -8.624    10.494
    235    C    -2.091    -8.334    10.758
    236    H    -1.514    -8.859    9.963
    237    N    -1.797    -6.874    10.681
    238    C    -2.809    -5.952    10.816
    239    H    -3.805    -6.362    10.970
    240    C    -2.579    -4.636    10.735
    241    H    -3.377    -3.900    10.814
    242    C    -0.491    -6.434    10.507
    243    O    0.424    -7.269    10.439
    244    N    -0.235    -5.110    10.410
    245    C    -1.236    -4.218    10.518
    246    N    -0.949    -2.922    10.432
    247    H    0.002    -2.632    10.299
    248    H    -1.647    -2.214    10.532
    249    C    -1.735    -8.944    12.110
    250    H    -0.983    -8.335    12.658
    251    O    -1.254    -10.270    11.933
    252    H    -1.203    -10.702    12.802
    253    C    -3.090    -8.905    12.813
    254    H    -3.308    -7.871    13.162
    255    O    -3.239    -9.849    13.886
    256    H    -2.633    -9.624    14.617
    257    H    9.337    0.438    8.174
    258    O    8.922    -0.446    8.208
    259    C    9.975    -1.390    8.450
    260    H    10.503    -1.111    9.389
    261    H    10.708    -1.339    7.615
    262    C    9.470    -2.831    8.579
    263    H    10.317    -3.543    8.676
    264    O    8.655    -2.959    9.781
    265    C    7.558    -3.819    9.512
    266    H    7.578    -4.627    10.277
    267    N    6.273    -3.108    9.598
    268    C    5.043    -3.694    9.730
    269    N    3.083    -6.535    10.003
    270    H    3.759    -7.269    9.988
    271    H    2.117    -6.766    10.147
    272    N    4.803    -5.016    9.799
    273    C    3.510    -5.287    9.955
    274    N    2.547    -4.319    10.060
    275    H    1.596    -4.610    10.222
    276    C    2.766    -2.948    10.010
    277    O    1.829    -2.149    10.125
    278    C    4.141    -2.649    9.806
    279    N    4.793    -1.423    9.702
    280    C    6.060    -1.747    9.571
    281    H    6.889    -1.044    9.460
    282    C    7.781    -4.420    8.144
    283    H    6.828    -4.633    7.618
    284    O    8.544    -5.609    8.254
    285    H    8.680    -5.921    7.353
    286    C    8.558    -3.310    7.442
    287    H    7.879    -2.461    7.196
    288    O    9.361    -3.733    6.315
    289    P    8.707    -3.719    4.876
    290    O    8.125    -2.385    4.627
    291    O    9.712    -4.196    3.905
    292    O    7.543    -4.782    4.954
    293    C    7.878    -6.194    4.974
    294    H    8.621    -6.420    5.771
    295    H    8.335    -6.504    4.006
    296    C    6.639    -7.072    5.214
    297    H    6.923    -8.138    5.344
    298    O    5.945    -6.653    6.422
    299    C    4.544    -6.780    6.230
    300    H    4.173    -7.460    7.032
    301    N    3.854    -5.486    6.344
    302    C    2.509    -5.297    6.531
    303    N    -0.705    -6.564    6.833
    304    H    -0.565    -7.550    6.770
    305    H    -1.641    -6.204    6.857
    306    N    1.576    -6.262    6.626
    307    C    0.347    -5.769    6.767
    308    N    0.086    -4.427    6.854
    309    H    -0.872    -4.136    6.968
    310    C    1.030    -3.411    6.804
    311    O    0.722    -2.220    6.913
    312    C    2.335    -3.929    6.605
    313    N    3.543    -3.269    6.452
    314    C    4.418    -4.231    6.287
    315    H    5.489    -4.097    6.121
    316    C    4.329    -7.425    4.881
    317    H    3.410    -7.062    4.378
    318    O    4.275    -8.832    5.025
    319    H    4.314    -9.201    4.134
    320    C    5.575    -6.992    4.118
    321    H    5.514    -5.913    3.838
    322    O    5.932    -7.859    3.013
    323    P    5.465    -7.463    1.561
    324    O    5.877    -6.067    1.318
    325    O    5.976    -8.480    0.618
    326    O    3.898    -7.551    1.630
    327    C    3.238    -8.838    1.705
    328    H    3.635    -9.446    2.549
    329    H    3.407    -9.420    0.771
    330    C    1.721    -8.683    1.907
    331    H    1.236    -9.673    2.030
    332    O    1.468    -7.916    3.119
    333    C    0.384    -7.032    2.910
    334    H    -0.356    -7.248    3.712
    335    N    0.808    -5.630    3.012
    336    C    0.827    -3.452    3.306
    337    N    2.145    -3.822    3.072
    338    C    2.080    -5.118    2.892
    339    H    2.935    -5.762    2.693
    340    N    -1.110    -2.195    3.788
    341    C    -1.790    -3.341    3.706
    342    H    -2.870    -3.257    3.880
    343    N    -1.332    -4.575    3.471
    344    C    -0.006    -4.557    3.271
    345    C    0.230    -2.209    3.590
    346    N    0.930    -1.062    3.690
    347    H    1.934    -1.052    3.644
    348    H    0.484    -0.236    4.033
    349    C    -0.218    -7.357    1.563
    350    H    -0.620    -6.459    1.053
    351    O    -1.239    -8.325    1.713
    352    H    -1.427    -8.676    0.830
    353    C    0.978    -7.918    0.803
    354    H    1.663    -7.095    0.491
    355    O    0.624    -8.812    -0.281
    356    P    0.548    -8.222    -1.743
    357    O    1.828    -7.554    -2.075
    358    O    0.119    -9.311    -2.645
    359    O    -0.574    -7.128    -1.671
    360    C    -1.979    -7.445    -1.624
    361    H    -2.206    -8.143    -0.787
    362    H    -2.292    -7.936    -2.571
    363    C    -2.829    -6.172    -1.445
    364    H    -3.908    -6.421    -1.347
    365    O    -2.424    -5.480    -0.226
    366    C    -2.414    -4.073    -0.445
    367    H    -3.072    -3.622    0.335
    368    N    -1.053    -3.518    -0.325
    369    C    -0.741    -2.241    0.045
    370    N    -1.691    0.847    1.233
    371    H    -1.281    1.748    1.322
    372    H    -2.686    0.782    1.158
    373    N    -1.621    -1.281    0.364
    374    C    -1.011    -0.169    0.774
    375    N    0.338    0.008    0.774
    376    H    0.689    0.879    1.152
    377    C    1.263    -0.977    0.470
    378    O    2.475    -0.758    0.562
    379    C    0.638    -2.176    0.039
    380    N    1.190    -3.383    -0.365
    381    C    0.149    -4.151    -0.567
    382    H    0.198    -5.192    -0.873
    383    C    -3.010    -3.825    -1.812
    384    H    -2.562    -2.945    -2.322
    385    O    -4.414    -3.682    -1.743
    386    H    -4.734    -4.026    -2.588
    387    C    -2.652    -5.105    -2.538
    388    H    -1.560    -5.092    -2.764
    389    O    -3.504    -5.369    -3.686
    390    P    -2.792    -5.636    -5.069
    391    O    -1.542    -4.847    -5.128
    392    O    -2.681    -7.097    -5.265
    393    O    -3.793    -5.072    -6.143
    394    C    -4.278    -3.710    -6.129
    395    H    -3.662    -3.101    -6.827
    396    H    -4.190    -3.239    -5.122
    397    C    -5.742    -3.620    -6.615
    398    H    -5.781    -3.807    -7.709
    399    O    -6.603    -4.593    -5.953
    400    C    -7.475    -3.929    -5.042
    401    H    -8.474    -3.904    -5.531
    402    N    -7.579    -4.674    -3.766
    403    C    -8.264    -4.320    -2.628
    404    N    -10.072    -1.965    -0.869
    405    H    -10.605    -1.890    -0.029
    406    H    -10.152    -1.261    -1.574
    407    N    -8.968    -3.196    -2.447
    408    C    -9.460    -3.080    -1.226
    409    N    -9.368    -4.070    -0.284
    410    H    -9.804    -3.919    0.607
    411    C    -8.694    -5.279    -0.458
    412    O    -8.643    -6.133    0.435
    413    C    -8.090    -5.364    -1.743
    414    N    -7.323    -6.372    -2.313
    415    C    -7.051    -5.924    -3.516
    416    H    -6.480    -6.465    -4.277
    417    C    -6.942    -2.506    -4.901
    418    H    -6.131    -2.477    -4.146
    419    O    -7.918    -1.527    -4.611
    420    H    -8.520    -1.497    -5.368
    421    C    -6.400    -2.270    -6.298
    422    H    -5.606    -1.485    -6.227
    423    O    -7.441    -1.950    -7.264
    424    P    -7.152    -0.822    -8.317
    425    O    -5.695    -0.773    -8.569
    426    O    -8.027    -1.076    -9.482
    427    O    -7.582    0.504    -7.595
    428    C    -8.965    0.898    -7.468
    429    H    -9.514    0.172    -6.822
    430    H    -9.455    0.937    -8.474
    431    C    -9.109    2.273    -6.794
    432    H    -10.178    2.563    -6.712
    433    O    -8.588    2.205    -5.434
    434    C    -7.951    3.428    -5.102
    435    H    -8.463    3.826    -4.196
    436    N    -6.533    3.231    -4.798
    437    C    -4.469    3.552    -4.125
    438    N    -4.521    2.248    -4.608
    439    C    -5.767    2.105    -4.995
    440    H    -6.197    1.204    -5.443
    441    N    -3.692    5.629    -3.273
    442    C    -4.929    6.087    -3.468
    443    H    -5.088    7.136    -3.197
    444    N    -6.008    5.433    -3.910
    445    C    -5.700    4.167    -4.243
    446    C    -3.423    4.342    -3.594
    447    N    -2.160    3.936    -3.428
    448    H    -1.927    2.963    -3.573
    449    H    -1.468    4.637    -3.585
    450    C    -8.156    4.385    -6.257
    451    H    -7.278    5.035    -6.423
    452    O    -9.299    5.187    -6.032
    453    H    -9.536    5.591    -6.883
    454    C    -8.343    3.439    -7.435
    455    H    -7.359    3.019    -7.750
    456    O    -9.100    4.023    -8.519
    457    P    -8.441    4.233    -9.930
    458    O    -7.959    2.936    -10.437
    459    O    -9.392    4.957    -10.800
    460    O    -7.192    5.144    -9.657
    461    C    -7.306    6.508    -9.207
    462    H    -8.081    6.609    -8.410
    463    H    -7.605    7.160    -10.060
    464    C    -5.978    7.043    -8.638
    465    H    -6.084    8.102    -8.322
    466    O    -5.604    6.271    -7.462
    467    C    -4.199    6.077    -7.435
    468    H    -3.861    6.479    -6.451
    469    N    -3.812    4.637    -7.538
    470    C    -4.658    3.730    -8.133
    471    H    -5.606    4.125    -8.486
    472    C    -4.343    2.432    -8.231
    473    H    -5.017    1.699    -8.671
    474    C    -2.566    4.213    -7.089
    475    O    -1.778    5.048    -6.622
    476    N    -2.232    2.905    -7.161
    477    C    -3.095    2.018    -7.693
    478    N    -2.769    0.726    -7.734
    479    H    -1.882    0.417    -7.382
    480    H    -3.407    0.052    -8.106
    481    C    -3.611    6.924    -8.543
    482    H    -2.689    6.484    -8.974
    483    O    -3.338    8.227    -8.067
    484    H    -3.105    8.760    -8.838
    485    C    -4.753    6.928    -9.554
    486    H    -4.831    5.926    -10.036
    487    O    -4.729    8.028    -10.494
    488    P    -4.166    7.762    -11.942
    489    O    -4.618    6.429    -12.399
    490    O    -4.488    8.903    -12.828
    491    O    -2.602    7.720    -11.741
    492    C    -1.916    8.899    -11.252
    493    H    -2.366    9.279    -10.307
    494    H    -1.975    9.726    -11.996
    495    C    -0.438    8.598    -10.976
    496    H    0.118    9.518    -10.692
    497    O    -0.337    7.676    -9.853
    498    C    0.731    6.770    -10.086
    499    H    1.422    6.869    -9.218
    500    N    0.242    5.387    -10.164
    501    C    0.105    3.193    -10.127
    502    N    -1.173    3.654    -10.414
    503    C    -1.038    4.957    -10.430
    504    H    -1.841    5.669    -10.629
    505    N    1.967    1.781    -9.732
    506    C    2.697    2.897    -9.632
    507    H    3.763    2.745    -9.428
    508    N    2.305    4.171    -9.730
    509    C    0.987    4.250    -9.980
    510    C    0.636    1.894    -9.982
    511    N    -0.110    0.777    -10.066
    512    H    -1.087    0.812    -10.289
    513    H    0.314    -0.126    -9.961
    514    C    1.446    7.206    -11.355
    515    H    1.836    6.342    -11.934
    516    O    2.513    8.086    -11.034
    517    H    2.877    8.457    -11.856
    518    C    0.316    7.897    -12.114
    519    H    -0.360    7.141    -12.566
    520    O    0.756    8.846    -13.101
    521    H    1.202    8.376    -13.826
 $END
