!*** FMO 5.3 (Gamess) INPUT generated by Facio 22.1.1.32 ***
 $CONTRL RUNTYP=ENERGY NPRINT=-5 ISPHER=1 MAXIT=200 $END
 $SYSTEM MWORDS=63 MEMDDI=63 $END
 $GDDI NGROUP=1 $END
 $SCF DIRSCF=.TRUE. NPUNCH=0 $END
!*** NumCPU : 2  MemPerNode : 512MB
 $PCM SOLVNT=WATER IEF=-10 ICOMP=2 ICAV=1 IDISP=1 IFMO=-1 $END
 $PCMCAV RADII=SUAHF $END
 $TESCAV NTSALL=60 $END
 $FMOPRP
    NAODIR=200
    NGRFMO(1)=1, 1, 0, 0, 0,   0, 0, 0, 0, 0
    IPIEDA=1
    NPRINT=9
 $END
 $FMO
      SCFTYP(1)=RHF
      MODGRD=10
      MODMUL=0
      MAXCAO=5
      MAXBND=13
      NLAYER=1
      MPLEVL(1)=2
      NFRAG=11
      ICHARG(1)=-1, -1, -1, -1, -1, -1, -1, -1, -1, -1, 0
      FRGNAM(1)=F1, F2, F3, F4, F5, F6, F7, F8, F9, F10, F11
      indat(1)=0
               1   -35   0
               36   -66   0
               67   -97   0
               98   -127   0
               128   -157   0
               158   -188   0
               189   -219   0
               220   -250   0
               251   -284   0
               285   -318   0
               319   -345   0
 $END

 $FMOBND
   -36   35       6-31G*    MINI
   -67   66       6-31G*    MINI
   -98   97       6-31G*    MINI
   -128   127       6-31G*    MINI
   -158   157       6-31G*    MINI
   -189   188       6-31G*    MINI
   -220   219       6-31G*    MINI
   -251   250       6-31G*    MINI
   -285   284       6-31G*    MINI
   -319   318       6-31G*    MINI
 $END
 $FMOHYB
 6-31G*      15   5
   1 0  -0.065034   0.288264   0.000000   0.000000   0.604412
         0.290129   0.000000   0.000000   0.319045  -0.017106
        -0.017106   0.057934   0.000000   0.000000   0.000000
   0 1  -0.065040   0.288293   0.569832   0.000000  -0.201456
         0.290147   0.300783   0.000000  -0.106342   0.049598
        -0.017106  -0.008771   0.000000  -0.027223   0.000000
   0 1  -0.065039   0.288293  -0.284916  -0.493490  -0.201455
         0.290145  -0.150392  -0.260486  -0.106340  -0.000427
         0.032923  -0.008771   0.033353   0.013612   0.023576
   0 1  -0.065039   0.288293  -0.284916   0.493490  -0.201455
         0.290145  -0.150392   0.260486  -0.106340  -0.000427
         0.032923  -0.008771  -0.033353   0.013612  -0.023576
   0 1   1.010938  -0.011975   0.000000   0.000000   0.000000
        -0.054085   0.000000   0.000000  -0.000000  -0.003174
        -0.003174  -0.003174   0.000000   0.000000   0.000000
 MINI         5   5
   1 0  -0.104883   0.308874   0.000000   0.000000   0.521806
   0 1  -0.104883   0.308874   0.491961   0.000000  -0.173934
   0 1  -0.104883   0.308876  -0.245980  -0.426050  -0.173933
   0 1  -0.104883   0.308876  -0.245980   0.426050  -0.173933
   0 1   0.988209   0.063992   0.000000   0.000000   0.000000
 $END
 
 $DATA
 FMO calculation
 C1 
 H.1-1    1
      N31 6
   
 O.1-1    8
      N31 6
      d 1
      1 0.800 1.0
   
 C.1-1    6
      N31 6
      d 1
      1 0.800 1.0
   
 N.1-1    7
      N31 6
      d 1
      1 0.800 1.0
   
 P.1-1   15
      N31 6
      d 1
      1 0.550 1.0
   
 $END
 $FMOXYZ
    1    H    12.310    -5.970    13.341
    2    O    11.598    -5.667    12.750
    3    C    10.679    -4.926    13.564
    4    H    11.222    -4.098    14.075
    5    H    10.264    -5.598    14.348
    6    C    9.519    -4.336    12.759
    7    H    8.797    -3.815    13.423
    8    O    10.019    -3.348    11.806
    9    C    9.286    -3.459    10.596
    10    H    8.864    -2.448    10.386
    11    N    10.155    -3.855    9.481
    12    C    10.990    -4.163    7.469
    13    N    11.956    -4.616    8.362
    14    C    11.416    -4.410    9.542
    15    H    11.890    -4.639    10.500
    16    N    9.835    -3.590    5.480
    17    C    8.825    -3.207    6.270
    18    H    7.940    -2.823    5.749
    19    N    8.746    -3.216    7.605
    20    C    9.874    -3.703    8.147
    21    C    10.959    -4.084    6.060
    22    N    11.984    -4.462    5.274
    23    H    12.840    -4.813    5.661
    24    H    11.906    -4.410    4.275
    25    C    8.156    -4.437    10.830
    26    H    7.880    -5.005    9.919
    27    O    7.028    -3.740    11.316
    28    H    6.366    -4.403    11.550
    29    C    8.751    -5.347    11.898
    30    H    9.509    -6.028    11.445
    31    O    7.786    -6.042    12.716
    32    P    7.337    -7.497    12.319
    33    O    8.524    -8.319    12.000
    34    O    6.448    -8.025    13.377
    35    O    6.506    -7.289    10.996
    36    C    5.225    -6.614    11.047
    37    H    5.300    -5.623    11.548
    38    H    4.494    -7.226    11.626
    39    C    4.644    -6.392    9.642
    40    H    3.665    -5.870    9.692
    41    O    5.536    -5.564    8.840
    42    C    5.524    -6.031    7.493
    43    H    5.188    -5.166    6.873
    44    N    6.871    -6.468    7.023
    45    C    7.832    -6.847    7.932
    46    H    7.537    -6.806    8.981
    47    C    9.060    -7.212    7.540
    48    H    9.839    -7.483    8.249
    49    C    7.154    -6.528    5.662
    50    O    6.271    -6.228    4.845
    51    N    8.383    -6.906    5.247
    52    C    9.333    -7.217    6.143
    53    N    10.547    -7.542    5.705
    54    H    10.731    -7.520    4.719
    55    H    11.299    -7.782    6.323
    56    C    4.482    -7.135    7.396
    57    H    4.756    -7.927    6.667
    58    O    3.225    -6.587    7.055
    59    H    2.573    -7.299    7.146
    60    C    4.473    -7.672    8.820
    61    H    5.385    -8.284    9.004
    62    O    3.256    -8.340    9.219
    63    P    3.102    -9.875    8.907
    64    O    4.435    -10.516    8.965
    65    O    2.061    -10.424    9.808
    66    O    2.551    -9.898    7.434
    67    C    2.766    -11.062    6.598
    68    H    2.019    -11.851    6.835
    69    H    3.777    -11.505    6.760
    70    C    2.655    -10.710    5.110
    71    H    1.619    -10.417    4.832
    72    O    3.521    -9.567    4.834
    73    C    4.314    -9.820    3.687
    74    H    4.218    -8.920    3.039
    75    N    5.756    -10.032    4.018
    76    C    6.167    -10.146    5.332
    77    H    5.383    -10.105    6.094
    78    C    7.460    -10.299    5.645
    79    H    7.802    -10.385    6.674
    80    C    6.703    -10.060    2.996
    81    O    6.334    -9.901    1.821
    82    N    8.009    -10.237    3.295
    83    C    8.400    -10.342    4.575
    84    N    9.695    -10.500    4.835
    85    H    10.341    -10.538    4.067
    86    H    10.057    -10.559    5.770
    87    C    3.694    -11.010    2.984
    88    H    4.443    -11.593    2.409
    89    O    2.648    -10.590    2.124
    90    H    2.139    -11.374    1.868
    91    C    3.167    -11.815    4.163
    92    H    4.028    -12.289    4.694
    93    O    2.111    -12.753    3.823
    94    P    2.424    -14.304    3.911
    95    O    2.710    -14.627    5.326
    96    O    1.317    -15.044    3.267
    97    O    3.726    -14.512    3.060
    98    C    3.771    -14.252    1.637
    99    H    3.403    -13.232    1.394
    100    H    3.124    -14.971    1.083
    101    C    5.202    -14.379    1.086
    102    H    5.193    -14.246    -0.018
    103    O    6.063    -13.330    1.622
    104    C    7.358    -13.854    1.872
    105    H    8.057    -13.199    1.303
    106    N    7.706    -13.829    3.321
    107    C    6.722    -13.750    4.277
    108    H    5.703    -13.709    3.896
    109    C    9.033    -13.925    3.685
    110    O    9.933    -14.041    2.859
    111    N    9.278    -13.870    5.033
    112    H    10.258    -13.989    5.284
    113    C    8.339    -13.730    6.040
    114    O    8.688    -13.634    7.215
    115    C    6.983    -13.674    5.586
    116    H    6.189    -13.568    6.322
    117    C    7.395    -15.257    1.296
    118    H    8.044    -15.935    1.895
    119    O    7.833    -15.240    -0.050
    120    H    7.748    -16.163    -0.357
    121    C    5.937    -15.692    1.386
    122    H    5.687    -15.979    2.433
    123    O    5.505    -16.707    0.448
    124    P    6.207    -18.113    0.394
    125    O    5.480    -18.927    -0.602
    126    O    7.647    -17.914    0.138
    127    O    6.023    -18.732    1.828
    128    C    6.315    -20.131    2.009
    129    H    7.383    -20.356    1.780
    130    H    5.676    -20.757    1.338
    131    C    6.015    -20.530    3.454
    132    H    4.969    -20.270    3.726
    133    O    6.151    -21.975    3.540
    134    C    6.789    -22.334    4.756
    135    H    6.114    -23.076    5.246
    136    N    8.131    -22.956    4.531
    137    C    8.643    -23.099    3.256
    138    H    8.042    -22.683    2.446
    139    C    8.793    -23.505    5.611
    140    O    8.337    -23.484    6.751
    141    N    9.994    -24.097    5.320
    142    H    10.461    -24.524    6.107
    143    C    10.549    -24.298    4.074
    144    O    11.600    -24.926    3.955
    145    C    9.797    -23.729    2.999
    146    H    10.172    -23.835    1.985
    147    C    6.839    -21.080    5.606
    148    H    7.726    -21.053    6.275
    149    O    5.650    -20.943    6.373
    150    H    5.819    -20.148    6.915
    151    C    6.953    -19.978    4.548
    152    H    7.968    -19.966    4.114
    153    O    6.547    -18.651    4.952
    154    P    7.093    -17.938    6.248
    155    O    6.481    -16.603    6.376
    156    O    6.898    -18.849    7.405
    157    O    8.630    -17.729    5.987
    158    C    9.495    -17.314    7.082
    159    H    9.042    -17.495    8.081
    160    H    9.684    -16.219    7.014
    161    C    10.853    -18.044    7.102
    162    H    11.264    -18.089    8.133
    163    O    10.721    -19.413    6.616
    164    C    11.866    -19.754    5.856
    165    H    12.297    -20.641    6.375
    166    N    11.541    -20.123    4.452
    167    C    10.454    -19.556    3.832
    168    H    9.858    -18.875    4.442
    169    C    10.121    -19.877    2.574
    170    H    9.244    -19.461    2.082
    171    C    12.379    -20.978    3.736
    172    O    13.407    -21.417    4.279
    173    N    12.052    -21.319    2.468
    174    C    10.953    -20.810    1.889
    175    N    10.626    -21.213    0.666
    176    H    9.815    -20.882    0.184
    177    H    11.218    -21.869    0.194
    178    C    12.843    -18.603    5.951
    179    H    13.412    -18.458    5.012
    180    O    13.733    -18.813    7.033
    181    H    14.153    -17.963    7.231
    182    C    11.925    -17.415    6.209
    183    H    11.401    -17.106    5.274
    184    O    12.566    -16.312    6.893
    185    P    13.135    -15.108    6.050
    186    O    11.973    -14.460    5.411
    187    O    13.979    -14.268    6.925
    188    O    14.036    -15.782    4.946
    189    C    15.372    -16.250    5.242
    190    H    15.358    -17.011    6.054
    191    H    16.019    -15.404    5.575
    192    C    16.031    -16.886    4.006
    193    H    17.040    -17.282    4.252
    194    O    15.232    -18.006    3.530
    195    C    15.279    -18.057    2.113
    196    H    15.700    -19.058    1.868
    197    N    13.941    -17.929    1.483
    198    C    12.939    -17.263    2.146
    199    H    13.216    -16.871    3.124
    200    C    11.711    -17.145    1.619
    201    H    10.900    -16.637    2.139
    202    C    13.709    -18.461    0.216
    203    O    14.630    -19.056    -0.368
    204    N    12.485    -18.331    -0.341
    205    C    11.498    -17.716    0.327
    206    N    10.307    -17.665    -0.250
    207    H    9.446    -17.454    0.222
    208    H    10.214    -18.049    -1.170
    209    C    16.242    -16.986    1.649
    210    H    15.934    -16.532    0.687
    211    O    17.544    -17.527    1.534
    212    H    18.161    -16.783    1.472
    213    C    16.157    -15.972    2.782
    214    H    15.202    -15.395    2.718
    215    O    17.326    -15.135    2.909
    216    P    17.298    -13.684    2.303
    217    O    16.189    -12.952    2.946
    218    O    18.656    -13.111    2.431
    219    O    16.948    -13.875    0.781
    220    C    17.938    -14.361    -0.153
    221    H    18.369    -15.331    0.187
    222    H    18.772    -13.628    -0.250
    223    C    17.332    -14.581    -1.546
    224    H    18.099    -14.975    -2.247
    225    O    16.266    -15.580    -1.480
    226    C    15.227    -15.214    -2.382
    227    H    15.098    -16.089    -3.057
    228    N    13.926    -14.932    -1.716
    229    C    13.912    -14.579    -0.386
    230    H    14.878    -14.552    0.115
    231    C    12.769    -14.316    0.255
    232    H    12.735    -14.058    1.311
    233    C    12.728    -14.980    -2.436
    234    O    12.745    -15.273    -3.645
    235    N    11.561    -14.714    -1.800
    236    C    11.568    -14.384    -0.498
    237    N    10.418    -14.155    0.113
    238    H    9.567    -14.402    -0.360
    239    H    10.365    -14.044    1.108
    240    C    15.732    -14.034    -3.185
    241    H    14.914    -13.354    -3.476
    242    O    16.413    -14.485    -4.343
    243    H    16.924    -13.741    -4.695
    244    C    16.675    -13.360    -2.199
    245    H    16.101    -12.848    -1.394
    246    O    17.670    -12.516    -2.822
    247    P    17.549    -10.949    -2.746
    248    O    17.638    -10.534    -1.331
    249    O    18.534    -10.332    -3.664
    250    O    16.089    -10.637    -3.241
    251    C    15.675    -10.812    -4.613
    252    H    15.952    -11.821    -4.993
    253    H    16.163    -10.063    -5.274
    254    C    14.156    -10.639    -4.771
    255    H    13.848    -10.789    -5.828
    256    O    13.461    -11.628    -3.957
    257    C    12.307    -11.049    -3.384
    258    H    11.447    -11.696    -3.675
    259    N    12.399    -11.000    -1.916
    260    C    11.353    -10.851    -1.044
    261    N    7.962    -10.467    -0.422
    262    H    7.556    -10.445    -1.335
    263    H    7.364    -10.362    0.378
    264    N    10.053    -10.716    -1.377
    265    C    9.268    -10.619    -0.305
    266    N    9.739    -10.661    0.979
    267    H    9.082    -10.579    1.739
    268    C    11.068    -10.780    1.348
    269    O    11.388    -10.783    2.538
    270    C    11.918    -10.882    0.217
    271    N    13.296    -11.039    0.142
    272    C    13.539    -11.101    -1.145
    273    H    14.521    -11.249    -1.594
    274    C    12.150    -9.677    -3.997
    275    H    11.664    -8.961    -3.307
    276    O    11.401    -9.769    -5.189
    277    H    11.424    -8.895    -5.599
    278    C    13.596    -9.292    -4.292
    279    H    14.136    -9.048    -3.349
    280    O    13.763    -8.280    -5.323
    281    P    13.718    -6.765    -4.869
    282    O    14.610    -6.632    -3.698
    283    O    14.034    -5.918    -6.037
    284    O    12.232    -6.488    -4.417
    285    C    11.184    -6.395    -5.410
    286    H    11.133    -7.314    -6.041
    287    H    11.367    -5.534    -6.094
    288    C    9.815    -6.179    -4.753
    289    H    9.011    -6.143    -5.516
    290    O    9.507    -7.288    -3.853
    291    C    8.872    -6.784    -2.686
    292    H    7.921    -7.353    -2.571
    293    N    9.694    -6.978    -1.480
    294    C    9.247    -6.949    -0.188
    295    N    6.673    -6.530    2.092
    296    H    5.886    -6.327    1.512
    297    H    6.565    -6.489    3.089
    298    N    7.980    -6.724    0.200
    299    C    7.840    -6.761    1.523
    300    N    8.882    -7.014    2.378
    301    H    8.692    -7.019    3.368
    302    C    10.197    -7.269    2.009
    303    O    11.065    -7.500    2.855
    304    C    10.356    -7.200    0.598
    305    N    11.490    -7.355    -0.188
    306    C    11.047    -7.219    -1.414
    307    H    11.659    -7.275    -2.313
    308    C    8.561    -5.325    -2.935
    309    H    8.568    -4.723    -2.005
    310    O    7.299    -5.208    -3.562
    311    H    7.198    -4.280    -3.811
    312    C    9.694    -4.927    -3.874
    313    H    10.653    -4.856    -3.311
    314    O    9.418    -3.769    -4.697
    315    P    10.006    -2.373    -4.272
    316    O    11.385    -2.556    -3.775
    317    O    9.820    -1.404    -5.374
    318    O    9.089    -1.947    -3.062
    319    C    7.685    -1.677    -3.291
    320    H    7.176    -2.526    -3.806
    321    H    7.571    -0.775    -3.937
    322    C    6.947    -1.403    -1.974
    323    H    5.890    -1.120    -2.164
    324    O    6.928    -2.602    -1.145
    325    C    7.102    -2.240    0.219
    326    H    6.225    -2.659    0.765
    327    N    8.365    -2.800    0.782
    328    C    9.397    -3.191    -0.042
    329    H    9.216    -3.063    -1.105
    330    C    8.479    -2.907    2.149
    331    O    7.595    -2.544    2.918
    332    N    9.664    -3.434    2.591
    333    H    9.755    -3.510    3.598
    334    C    10.729    -3.865    1.826
    335    O    11.728    -4.328    2.370
    336    C    10.539    -3.721    0.415
    337    H    11.331    -4.040    -0.262
    338    C    7.057    -0.719    0.291
    339    H    7.717    -0.322    1.092
    340    O    5.723    -0.281    0.501
    341    H    5.677    0.679    0.339
    342    C    7.585    -0.330    -1.084
    343    H    8.689    -0.454    -1.121
    344    O    7.201    0.988    -1.516
    345    H    7.657    1.658    -0.976
 $END
