!*** FMO 5.3 (Gamess) INPUT generated by Facio 22.1.1.32 ***
 $CONTRL RUNTYP=ENERGY NPRINT=-5 ISPHER=1 MAXIT=200 $END
 $SYSTEM MWORDS=63 MEMDDI=63 $END
 $GDDI NGROUP=1 $END
 $SCF DIRSCF=.TRUE. NPUNCH=0 $END
!*** NumCPU : 2  MemPerNode : 512MB
 $PCM SOLVNT=WATER IEF=-10 ICOMP=2 ICAV=1 IDISP=1 IFMO=-1 $END
 $PCMCAV RADII=SUAHF $END
 $TESCAV NTSALL=60 $END
 $FMOPRP
    NAODIR=200
    NGRFMO(1)=1, 1, 0, 0, 0,   0, 0, 0, 0, 0
    IPIEDA=1
    NPRINT=9
 $END
 $FMO
      SCFTYP(1)=RHF
      MODGRD=10
      MODMUL=0
      MAXCAO=5
      MAXBND=13
      NLAYER=1
      MPLEVL(1)=2
      NFRAG=11
      ICHARG(1)=-1, -1, -1, -1, -1, -1, -1, -1, -1, -1, 0
      FRGNAM(1)=F1, F2, F3, F4, F5, F6, F7, F8, F9, F10, F11
      indat(1)=0
               1   -35   0
               36   -66   0
               67   -97   0
               98   -127   0
               128   -157   0
               158   -188   0
               189   -219   0
               220   -250   0
               251   -284   0
               285   -318   0
               319   -345   0
 $END

 $FMOBND
   -36   35       6-31G*    MINI
   -67   66       6-31G*    MINI
   -98   97       6-31G*    MINI
   -128   127       6-31G*    MINI
   -158   157       6-31G*    MINI
   -189   188       6-31G*    MINI
   -220   219       6-31G*    MINI
   -251   250       6-31G*    MINI
   -285   284       6-31G*    MINI
   -319   318       6-31G*    MINI
 $END
 $FMOHYB
 6-31G*      15   5
   1 0  -0.065034   0.288264   0.000000   0.000000   0.604412
         0.290129   0.000000   0.000000   0.319045  -0.017106
        -0.017106   0.057934   0.000000   0.000000   0.000000
   0 1  -0.065040   0.288293   0.569832   0.000000  -0.201456
         0.290147   0.300783   0.000000  -0.106342   0.049598
        -0.017106  -0.008771   0.000000  -0.027223   0.000000
   0 1  -0.065039   0.288293  -0.284916  -0.493490  -0.201455
         0.290145  -0.150392  -0.260486  -0.106340  -0.000427
         0.032923  -0.008771   0.033353   0.013612   0.023576
   0 1  -0.065039   0.288293  -0.284916   0.493490  -0.201455
         0.290145  -0.150392   0.260486  -0.106340  -0.000427
         0.032923  -0.008771  -0.033353   0.013612  -0.023576
   0 1   1.010938  -0.011975   0.000000   0.000000   0.000000
        -0.054085   0.000000   0.000000  -0.000000  -0.003174
        -0.003174  -0.003174   0.000000   0.000000   0.000000
 MINI         5   5
   1 0  -0.104883   0.308874   0.000000   0.000000   0.521806
   0 1  -0.104883   0.308874   0.491961   0.000000  -0.173934
   0 1  -0.104883   0.308876  -0.245980  -0.426050  -0.173933
   0 1  -0.104883   0.308876  -0.245980   0.426050  -0.173933
   0 1   0.988209   0.063992   0.000000   0.000000   0.000000
 $END
 
 $DATA
 FMO calculation
 C1 
 H.1-1    1
      N31 6
   
 O.1-1    8
      N31 6
      d 1
      1 0.800 1.0
   
 C.1-1    6
      N31 6
      d 1
      1 0.800 1.0
   
 N.1-1    7
      N31 6
      d 1
      1 0.800 1.0
   
 P.1-1   15
      N31 6
      d 1
      1 0.550 1.0
   
 $END
 $FMOXYZ
    1    H    12.483    -11.417    13.131
    2    O    11.826    -10.893    12.630
    3    C    10.743    -10.618    13.532
    4    H    11.139    -10.073    14.419
    5    H    10.307    -11.576    13.887
    6    C    9.623    -9.779    12.905
    7    H    8.804    -9.598    13.636
    8    O    10.140    -8.474    12.507
    9    C    9.533    -8.082    11.288
    10    H    9.057    -7.091    11.468
    11    N    10.528    -7.949    10.218
    12    C    11.569    -7.371    8.368
    13    N    12.472    -8.134    9.098
    14    C    11.810    -8.449    10.187
    15    H    12.204    -9.044    11.016
    16    N    10.566    -6.064    6.664
    17    C    9.460    -6.076    7.415
    18    H    8.606    -5.529    7.000
    19    N    9.267    -6.610    8.627
    20    C    10.367    -7.258    9.043
    21    C    11.666    -6.719    7.119
    22    N    12.790    -6.706    6.379
    23    H    13.641    -7.119    6.713
    24    H    12.805    -6.260    5.480
    25    C    8.462    -9.100    10.963
    26    H    8.329    -9.244    9.872
    27    O    7.241    -8.699    11.548
    28    H    6.618    -9.419    11.398
    29    C    9.010    -10.360    11.624
    30    H    9.864    -10.758    11.032
    31    O    8.014    -11.364    11.955
    32    P    7.768    -12.544    10.928
    33    O    9.067    -13.044    10.437
    34    O    6.872    -13.524    11.577
    35    O    6.985    -11.835    9.752
    36    C    5.692    -11.220    9.992
    37    H    5.703    -10.575    10.896
    38    H    4.918    -11.996    10.176
    39    C    5.222    -10.370    8.800
    40    H    4.242    -9.888    9.009
    41    O    6.178    -9.305    8.540
    42    C    6.299    -9.115    7.136
    43    H    6.016    -8.051    6.966
    44    N    7.684    -9.325    6.634
    45    C    8.559    -10.117    7.342
    46    H    8.180    -10.567    8.260
    47    C    9.821    -10.293    6.939
    48    H    10.535    -10.882    7.511
    49    C    8.088    -8.766    5.421
    50    O    7.273    -8.109    4.753
    51    N    9.358    -8.943    4.993
    52    C    10.224    -9.669    5.725
    53    N    11.488    -9.796    5.318
    54    H    11.776    -9.375    4.455
    55    H    12.071    -10.492    5.739
    56    C    5.282    -10.008    6.459
    57    H    5.632    -10.387    5.476
    58    O    4.069    -9.302    6.298
    59    H    3.444    -9.932    5.921
    60    C    5.125    -11.137    7.470
    61    H    6.003    -11.823    7.420
    62    O    3.861    -11.837    7.402
    63    P    3.730    -13.099    6.473
    64    O    4.876    -13.964    6.778
    65    O    2.381    -13.677    6.673
    66    O    3.824    -12.529    5.002
    67    C    2.725    -11.796    4.418
    68    H    2.451    -10.911    5.035
    69    H    1.824    -12.443    4.348
    70    C    3.065    -11.307    3.002
    71    H    2.214    -10.740    2.564
    72    O    4.208    -10.408    3.044
    73    C    5.015    -10.616    1.893
    74    H    5.039    -9.631    1.370
    75    N    6.412    -11.015    2.248
    76    C    6.655    -11.722    3.405
    77    H    5.784    -11.973    4.011
    78    C    7.898    -12.063    3.771
    79    H    8.109    -12.600    4.694
    80    C    7.473    -10.705    1.399
    81    O    7.242    -10.125    0.328
    82    N    8.738    -11.034    1.755
    83    C    8.969    -11.702    2.903
    84    N    10.217    -12.036    3.234
    85    H    10.979    -11.787    2.630
    86    H    10.404    -12.486    4.112
    87    C    4.301    -11.624    0.996
    88    H    5.007    -12.287    0.460
    89    O    3.475    -10.951    0.059
    90    H    2.938    -11.615    -0.407
    91    C    3.479    -12.407    2.016
    92    H    4.138    -13.096    2.586
    93    O    2.304    -13.052    1.494
    94    P    2.331    -14.520    0.939
    95    O    0.958    -15.071    1.036
    96    O    2.974    -14.528    -0.392
    97    O    3.249    -15.301    1.943
    98    C    3.158    -16.738    2.036
    99    H    3.136    -17.213    1.024
    100    H    2.225    -17.025    2.570
    101    C    4.349    -17.344    2.795
    102    H    4.177    -18.435    2.917
    103    O    5.559    -17.170    2.021
    104    C    6.449    -16.301    2.683
    105    H    7.193    -16.974    3.161
    106    N    7.091    -15.350    1.737
    107    C    6.349    -14.771    0.739
    108    H    5.297    -15.065    0.719
    109    C    8.446    -15.135    1.827
    110    O    9.149    -15.697    2.657
    111    N    8.966    -14.279    0.893
    112    H    9.973    -14.187    0.903
    113    C    8.297    -13.697    -0.160
    114    O    8.910    -13.000    -0.966
    115    C    6.890    -13.978    -0.198
    116    H    6.293    -13.567    -1.009
    117    C    5.673    -15.618    3.766
    118    H    5.136    -14.727    3.385
    119    O    6.538    -15.249    4.806
    120    H    6.914    -16.069    5.152
    121    C    4.679    -16.716    4.164
    122    H    3.770    -16.213    4.571
    123    O    5.225    -17.698    5.088
    124    P    4.195    -18.599    5.891
    125    O    2.967    -17.836    6.196
    126    O    3.994    -19.876    5.174
    127    O    4.914    -18.927    7.252
    128    C    6.115    -19.732    7.302
    129    H    6.708    -19.651    6.365
    130    H    5.840    -20.804    7.421
    131    C    7.045    -19.279    8.449
    132    H    7.487    -18.294    8.190
    133    O    6.316    -19.152    9.701
    134    C    6.627    -20.227    10.563
    135    H    7.269    -19.780    11.359
    136    N    5.395    -20.838    11.127
    137    C    4.246    -20.927    10.370
    138    H    4.313    -20.506    9.362
    139    C    5.433    -21.325    12.414
    140    O    6.439    -21.270    13.115
    141    N    4.256    -21.865    12.863
    142    H    4.272    -22.225    13.808
    143    C    3.059    -21.949    12.188
    144    O    2.070    -22.433    12.739
    145    C    3.103    -21.447    10.846
    146    H    2.198    -21.498    10.247
    147    C    7.449    -21.212    9.762
    148    H    6.778    -21.893    9.197
    149    O    8.317    -21.974    10.580
    150    H    9.067    -21.411    10.848
    151    C    8.171    -20.283    8.774
    152    H    8.402    -20.851    7.839
    153    O    9.345    -19.595    9.279
    154    P    10.727    -20.338    9.359
    155    O    10.868    -20.810    10.759
    156    O    10.791    -21.362    8.298
    157    O    11.801    -19.220    9.081
    158    C    12.207    -18.896    7.732
    159    H    12.449    -19.807    7.145
    160    H    13.154    -18.307    7.773
    161    C    11.158    -18.070    6.986
    162    H    10.193    -18.617    6.906
    163    O    10.896    -16.854    7.737
    164    C    10.695    -15.787    6.827
    165    H    9.693    -15.368    7.076
    166    N    11.704    -14.705    6.975
    167    C    12.886    -14.968    7.626
    168    H    13.027    -15.985    8.000
    169    C    13.806    -14.016    7.814
    170    H    14.741    -14.211    8.337
    171    C    11.471    -13.431    6.454
    172    O    10.426    -13.215    5.823
    173    N    12.402    -12.458    6.622
    174    C    13.536    -12.720    7.295
    175    N    14.422    -11.744    7.482
    176    H    14.232    -10.834    7.120
    177    H    15.297    -11.905    7.940
    178    C    10.640    -16.382    5.434
    179    H    10.996    -15.687    4.645
    180    O    9.311    -16.782    5.164
    181    H    9.223    -16.784    4.200
    182    C    11.548    -17.599    5.573
    183    H    12.619    -17.280    5.607
    184    O    11.278    -18.645    4.600
    185    P    12.436    -19.327    3.801
    186    O    13.606    -19.521    4.680
    187    O    11.878    -20.528    3.143
    188    O    12.793    -18.259    2.707
    189    C    13.843    -18.572    1.761
    190    H    13.803    -19.641    1.425
    191    H    14.836    -18.410    2.240
    192    C    13.771    -17.663    0.524
    193    H    14.653    -17.870    -0.128
    194    O    12.577    -17.950    -0.253
    195    C    11.752    -16.800    -0.299
    196    H    12.009    -16.300    -1.262
    197    N    10.326    -17.185    -0.236
    198    C    9.890    -17.956    0.815
    199    H    10.638    -18.197    1.575
    200    C    8.621    -18.385    0.877
    201    H    8.249    -19.004    1.691
    202    C    9.442    -16.798    -1.239
    203    O    9.866    -16.109    -2.181
    204    N    8.152    -17.213    -1.187
    205    C    7.748    -18.027    -0.196
    206    N    6.516    -18.523    -0.242
    207    H    5.914    -18.127    -0.932
    208    H    6.087    -18.816    0.611
    209    C    12.190    -15.899    0.837
    210    H    11.758    -16.224    1.808
    211    O    11.905    -14.537    0.609
    212    H    12.654    -14.221    0.080
    213    C    13.696    -16.148    0.813
    214    H    14.092    -15.975    1.845
    215    O    14.392    -15.378    -0.215
    216    P    15.802    -14.779    0.185
    217    O    15.569    -13.666    1.125
    218    O    16.684    -15.870    0.647
    219    O    16.341    -14.204    -1.177
    220    C    17.324    -14.902    -1.974
    221    H    17.212    -16.010    -1.909
    222    H    18.343    -14.645    -1.608
    223    C    17.232    -14.510    -3.456
    224    H    18.072    -14.953    -4.035
    225    O    16.006    -15.064    -4.012
    226    C    15.416    -14.118    -4.894
    227    H    15.298    -14.661    -5.862
    228    N    14.074    -13.653    -4.435
    229    C    13.645    -13.915    -3.151
    230    H    14.353    -14.439    -2.506
    231    C    12.425    -13.549    -2.735
    232    H    12.059    -13.763    -1.734
    233    C    13.235    -12.973    -5.319
    234    O    13.627    -12.756    -6.476
    235    N    12.005    -12.582    -4.908
    236    C    11.587    -12.865    -3.662
    237    N    10.355    -12.510    -3.305
    238    H    9.958    -12.765    -2.418
    239    H    9.785    -12.016    -3.962
    240    C    16.406    -12.980    -5.084
    241    H    15.905    -12.000    -5.230
    242    O    17.259    -13.253    -6.182
    243    H    17.969    -12.592    -6.173
    244    C    17.167    -13.003    -3.763
    245    H    16.548    -12.533    -2.963
    246    O    18.503    -12.460    -3.834
    247    P    18.769    -10.937    -3.540
    248    O    18.310    -10.643    -2.168
    249    O    20.188    -10.649    -3.845
    250    O    17.883    -10.143    -4.569
    251    C    17.473    -8.770    -4.312
    252    H    18.142    -8.064    -4.858
    253    H    17.533    -8.506    -3.228
    254    C    16.020    -8.489    -4.760
    255    H    15.985    -8.250    -5.844
    256    O    15.203    -9.684    -4.574
    257    C    13.964    -9.342    -3.994
    258    H    13.173    -9.830    -4.610
    259    N    13.876    -9.837    -2.613
    260    C    12.732    -9.940    -1.872
    261    N    9.294    -9.632    -1.587
    262    H    9.017    -9.244    -2.468
    263    H    8.595    -9.832    -0.896
    264    N    11.496    -9.603    -2.284
    265    C    10.570    -9.888    -1.372
    266    N    10.854    -10.442    -0.157
    267    H    10.091    -10.656    0.467
    268    C    12.112    -10.786    0.298
    269    O    12.250    -11.281    1.417
    270    C    13.118    -10.483    -0.662
    271    N    14.495    -10.688    -0.628
    272    C    14.900    -10.307    -1.817
    273    H    15.934    -10.338    -2.172
    274    C    13.829    -7.841    -4.088
    275    H    13.201    -7.421    -3.276
    276    O    13.286    -7.475    -5.345
    277    H    13.307    -6.511    -5.382
    278    C    15.282    -7.395    -3.957
    279    H    15.617    -7.502    -2.898
    280    O    15.560    -6.085    -4.510
    281    P    15.565    -4.828    -3.556
    282    O    16.315    -5.188    -2.333
    283    O    16.041    -3.653    -4.317
    284    O    14.051    -4.614    -3.181
    285    C    13.106    -4.121    -4.155
    286    H    13.158    -4.711    -5.096
    287    H    13.325    -3.057    -4.400
    288    C    11.665    -4.194    -3.629
    289    H    10.940    -3.859    -4.402
    290    O    11.326    -5.570    -3.285
    291    C    10.547    -5.574    -2.098
    292    H    9.624    -6.153    -2.318
    293    N    11.260    -6.224    -0.989
    294    C    10.696    -6.720    0.154
    295    N    7.906    -7.290    2.130
    296    H    7.170    -6.880    1.595
    297    H    7.705    -7.646    3.046
    298    N    9.390    -6.683    0.471
    299    C    9.133    -7.261    1.642
    300    N    10.104    -7.843    2.415
    301    H    9.828    -8.269    3.287
    302    C    11.459    -7.908    2.110
    303    O    12.277    -8.462    2.850
    304    C    11.739    -7.262    0.878
    305    N    12.943    -7.082    0.217
    306    C    12.611    -6.456    -0.884
    307    H    13.306    -6.150    -1.664
    308    C    10.189    -4.138    -1.785
    309    H    10.064    -3.960    -0.700
    310    O    9.000    -3.781    -2.458
    311    H    8.846    -2.845    -2.280
    312    C    11.398    -3.397    -2.345
    313    H    12.278    -3.567    -1.686
    314    O    11.183    -2.002    -2.666
    315    P    11.587    -0.898    -1.615
    316    O    12.909    -1.213    -1.031
    317    O    11.436    0.442    -2.220
    318    O    10.498    -1.074    -0.495
    319    C    9.110    -0.755    -0.754
    320    H    8.719    -1.309    -1.638
    321    H    8.997    0.333    -0.967
    322    C    8.224    -1.083    0.459
    323    H    7.169    -0.786    0.279
    324    O    8.231    -2.521    0.714
    325    C    8.240    -2.751    2.121
    326    H    7.353    -3.396    2.334
    327    N    9.488    -3.444    2.562
    328    C    10.624    -3.426    1.783
    329    H    10.546    -2.859    0.860
    330    C    9.481    -4.103    3.771
    331    O    8.498    -4.128    4.504
    332    N    10.656    -4.731    4.096
    333    H    10.654    -5.221    4.984
    334    C    11.818    -4.772    3.356
    335    O    12.799    -5.376    3.782
    336    C    11.748    -4.073    2.111
    337    H    12.622    -4.068    1.464
    338    C    8.055    -1.402    2.803
    339    H    8.604    -1.354    3.769
    340    O    6.675    -1.140    3.015
    341    H    6.567    -0.229    3.339
    342    C    8.682    -0.459    1.784
    343    H    9.787    -0.526    1.834
    344    O    8.254    0.910    1.895
    345    H    8.573    1.281    2.735
 $END
