!*** FMO 5.3 (Gamess) INPUT generated by Facio 22.1.1.32 ***
 $CONTRL RUNTYP=ENERGY NPRINT=-5 ISPHER=1 MAXIT=200 $END
 $SYSTEM MWORDS=63 MEMDDI=63 $END
 $GDDI NGROUP=1 $END
 $SCF DIRSCF=.TRUE. NPUNCH=0 $END
!*** NumCPU : 2  MemPerNode : 512MB
 $PCM SOLVNT=WATER IEF=-10 ICOMP=2 ICAV=1 IDISP=1 IFMO=-1 $END
 $PCMCAV RADII=SUAHF $END
 $TESCAV NTSALL=60 $END
 $FMOPRP
    NAODIR=200
    NGRFMO(1)=1, 1, 0, 0, 0,   0, 0, 0, 0, 0
    IPIEDA=1
    NPRINT=9
 $END
 $FMO
      SCFTYP(1)=RHF
      MODGRD=10
      MODMUL=0
      MAXCAO=5
      MAXBND=13
      NLAYER=1
      MPLEVL(1)=2
      NFRAG=11
      ICHARG(1)=-1, -1, -1, -1, -1, -1, -1, -1, -1, -1, 0
      FRGNAM(1)=F1, F2, F3, F4, F5, F6, F7, F8, F9, F10, F11
      indat(1)=0
               1   -35   0
               36   -66   0
               67   -97   0
               98   -127   0
               128   -157   0
               158   -188   0
               189   -219   0
               220   -252   0
               253   -285   0
               286   -319   0
               320   -346   0
 $END

 $FMOBND
   -36   35       6-31G*    MINI
   -67   66       6-31G*    MINI
   -98   97       6-31G*    MINI
   -128   127       6-31G*    MINI
   -158   157       6-31G*    MINI
   -189   188       6-31G*    MINI
   -220   219       6-31G*    MINI
   -253   252       6-31G*    MINI
   -286   285       6-31G*    MINI
   -320   319       6-31G*    MINI
 $END
 $FMOHYB
 6-31G*      15   5
   1 0  -0.065034   0.288264   0.000000   0.000000   0.604412
         0.290129   0.000000   0.000000   0.319045  -0.017106
        -0.017106   0.057934   0.000000   0.000000   0.000000
   0 1  -0.065040   0.288293   0.569832   0.000000  -0.201456
         0.290147   0.300783   0.000000  -0.106342   0.049598
        -0.017106  -0.008771   0.000000  -0.027223   0.000000
   0 1  -0.065039   0.288293  -0.284916  -0.493490  -0.201455
         0.290145  -0.150392  -0.260486  -0.106340  -0.000427
         0.032923  -0.008771   0.033353   0.013612   0.023576
   0 1  -0.065039   0.288293  -0.284916   0.493490  -0.201455
         0.290145  -0.150392   0.260486  -0.106340  -0.000427
         0.032923  -0.008771  -0.033353   0.013612  -0.023576
   0 1   1.010938  -0.011975   0.000000   0.000000   0.000000
        -0.054085   0.000000   0.000000  -0.000000  -0.003174
        -0.003174  -0.003174   0.000000   0.000000   0.000000
 MINI         5   5
   1 0  -0.104883   0.308874   0.000000   0.000000   0.521806
   0 1  -0.104883   0.308874   0.491961   0.000000  -0.173934
   0 1  -0.104883   0.308876  -0.245980  -0.426050  -0.173933
   0 1  -0.104883   0.308876  -0.245980   0.426050  -0.173933
   0 1   0.988209   0.063992   0.000000   0.000000   0.000000
 $END
 
 $DATA
 FMO calculation
 C1 
 H.1-1    1
      N31 6
   
 O.1-1    8
      N31 6
      d 1
      1 0.800 1.0
   
 C.1-1    6
      N31 6
      d 1
      1 0.800 1.0
   
 N.1-1    7
      N31 6
      d 1
      1 0.800 1.0
   
 P.1-1   15
      N31 6
      d 1
      1 0.550 1.0
   
 $END
 $FMOXYZ
    1    H    -4.735    -14.826    9.591
    2    O    -4.270    -14.259    8.946
    3    C    -5.202    -14.009    7.885
    4    H    -6.100    -13.497    8.300
    5    H    -5.530    -14.978    7.459
    6    C    -4.617    -13.144    6.761
    7    H    -5.359    -13.007    5.944
    8    O    -4.302    -11.815    7.282
    9    C    -3.103    -11.350    6.682
    10    H    -3.346    -10.362    6.221
    11    N    -2.047    -11.168    7.683
    12    C    -0.244    -10.484    8.741
    13    N    -0.936    -11.294    9.637
    14    C    -1.998    -11.672    8.963
    15    H    -2.797    -12.310    9.350
    16    N    1.361    -9.037    7.769
    17    C    0.627    -9.100    6.652
    18    H    1.011    -8.525    5.801
    19    N    -0.526    -9.743    6.434
    20    C    -0.913    -10.413    7.531
    21    C    0.947    -9.733    8.858
    22    N    1.671    -9.666    9.992
    23    H    1.423    -10.213    10.793
    24    H    2.564    -9.210    10.000
    25    C    -2.715    -12.334    5.602
    26    H    -1.616    -12.412    5.468
    27    O    -3.321    -11.976    4.374
    28    H    -3.121    -12.696    3.765
    29    C    -3.294    -13.634    6.144
    30    H    -2.674    -14.003    6.996
    31    O    -3.542    -14.641    5.131
    32    P    -2.477    -15.791    4.931
    33    O    -1.984    -16.236    6.252
    34    O    -3.085    -16.815    4.050
    35    O    -1.326    -15.042    4.155
    36    C    -1.563    -14.501    2.829
    37    H    -2.495    -13.892    2.794
    38    H    -1.670    -15.329    2.084
    39    C    -0.404    -13.602    2.367
    40    H    -0.621    -13.145    1.377
    41    O    -0.201    -12.516    3.311
    42    C    1.191    -12.251    3.428
    43    H    1.306    -11.186    3.119
    44    N    1.696    -12.395    4.816
    45    C    1.011    -13.158    5.732
    46    H    0.115    -13.655    5.357
    47    C    1.420    -13.246    7.006
    48    H    0.870    -13.811    7.761
    49    C    2.872    -11.754    5.188
    50    O    3.485    -11.079    4.344
    51    N    3.303    -11.832    6.461
    52    C    2.606    -12.533    7.366
    53    N    3.038    -12.543    8.618
    54    H    3.934    -12.127    8.788
    55    H    2.816    -13.337    9.189
    56    C    1.925    -13.128    2.432
    57    H    2.914    -13.468    2.800
    58    O    2.086    -12.429    1.211
    59    H    2.380    -13.069    0.542
    60    C    0.960    -14.296    2.294
    61    H    1.017    -14.945    3.202
    62    O    1.074    -15.024    1.053
    63    P    1.952    -16.327    1.016
    64    O    1.884    -16.982    2.338
    65    O    1.543    -17.115    -0.167
    66    O    3.415    -15.793    0.754
    67    C    4.455    -16.781    0.506
    68    H    4.208    -17.426    -0.368
    69    H    4.581    -17.441    1.397
    70    C    5.799    -16.097    0.218
    71    H    5.713    -15.416    -0.656
    72    O    6.159    -15.295    1.361
    73    C    7.547    -15.386    1.613
    74    H    7.905    -14.329    1.592
    75    N    7.835    -15.993    2.938
    76    C    7.087    -17.058    3.397
    77    H    6.267    -17.406    2.763
    78    C    7.320    -17.598    4.600
    79    H    6.721    -18.414    4.996
    80    C    8.859    -15.474    3.727
    81    O    9.515    -14.510    3.303
    82    N    9.106    -16.021    4.937
    83    C    8.370    -17.048    5.386
    84    N    8.640    -17.561    6.578
    85    H    9.327    -17.101    7.152
    86    H    8.123    -18.323    6.960
    87    C    8.176    -16.130    0.464
    88    H    9.040    -16.747    0.776
    89    O    8.588    -15.218    -0.543
    90    H    7.806    -14.765    -0.900
    91    C    7.017    -17.013    0.017
    92    H    6.874    -17.853    0.734
    93    O    7.109    -17.438    -1.347
    94    P    7.555    -18.882    -1.765
    95    O    6.351    -19.574    -2.270
    96    O    8.707    -18.803    -2.693
    97    O    8.051    -19.591    -0.436
    98    C    7.890    -21.027    -0.308
    99    H    8.584    -21.559    -0.997
    100    H    6.859    -21.336    -0.580
    101    C    8.160    -21.531    1.123
    102    H    7.904    -22.610    1.216
    103    O    9.592    -21.417    1.386
    104    C    9.810    -20.935    2.701
    105    H    10.493    -21.670    3.187
    106    N    10.452    -19.585    2.715
    107    C    10.601    -18.856    1.555
    108    H    10.163    -19.298    0.659
    109    C    10.960    -19.113    3.909
    110    O    10.880    -19.744    4.957
    111    N    11.573    -17.888    3.836
    112    H    12.005    -17.565    4.683
    113    C    11.804    -17.135    2.706
    114    O    12.446    -16.090    2.776
    115    C    11.250    -17.685    1.509
    116    H    11.385    -17.141    0.579
    117    C    8.476    -20.952    3.412
    118    H    8.386    -20.120    4.144
    119    O    8.262    -22.182    4.077
    120    H    7.353    -22.104    4.414
    121    C    7.471    -20.762    2.270
    122    H    7.443    -19.691    1.971
    123    O    6.126    -21.283    2.505
    124    P    5.285    -20.667    3.696
    125    O    6.119    -20.676    4.916
    126    O    4.720    -19.388    3.234
    127    O    4.178    -21.750    3.917
    128    C    3.065    -21.988    3.045
    129    H    3.390    -22.366    2.043
    130    H    2.499    -21.044    2.893
    131    C    2.111    -23.023    3.659
    132    H    1.237    -23.201    2.998
    133    O    2.797    -24.300    3.783
    134    C    2.408    -24.945    4.982
    135    H    1.978    -25.925    4.656
    136    N    3.566    -25.174    5.892
    137    C    4.721    -24.431    5.771
    138    H    4.727    -23.696    4.968
    139    C    3.466    -26.166    6.843
    140    O    2.456    -26.850    6.980
    141    N    4.585    -26.341    7.617
    142    H    4.551    -27.099    8.287
    143    C    5.784    -25.665    7.522
    144    O    6.734    -25.991    8.232
    145    C    5.803    -24.630    6.534
    146    H    6.721    -24.068    6.382
    147    C    1.305    -24.107    5.619
    148    H    1.364    -24.112    6.728
    149    O    0.032    -24.578    5.205
    150    H    -0.624    -23.907    5.456
    151    C    1.603    -22.711    5.076
    152    H    2.469    -22.281    5.626
    153    O    0.458    -21.818    5.023
    154    P    0.255    -20.780    6.197
    155    O    -0.974    -20.019    5.888
    156    O    0.254    -21.522    7.477
    157    O    1.489    -19.796    6.156
    158    C    1.418    -18.531    6.868
    159    H    0.435    -18.365    7.369
    160    H    1.540    -17.692    6.149
    161    C    2.516    -18.468    7.945
    162    H    2.629    -19.461    8.430
    163    O    3.778    -18.072    7.351
    164    C    4.071    -16.734    7.702
    165    H    4.906    -16.814    8.436
    166    N    4.470    -15.908    6.532
    167    C    3.931    -16.160    5.283
    168    H    3.246    -17.012    5.200
    169    C    4.275    -15.417    4.219
    170    H    3.891    -15.616    3.221
    171    C    5.357    -14.848    6.697
    172    O    5.836    -14.621    7.818
    173    N    5.692    -14.090    5.629
    174    C    5.184    -14.341    4.429
    175    N    5.578    -13.553    3.433
    176    H    6.291    -12.887    3.633
    177    H    5.521    -13.906    2.495
    178    C    2.861    -16.168    8.410
    179    H    2.143    -15.739    7.676
    180    O    3.215    -15.209    9.378
    181    H    3.387    -15.696    10.198
    182    C    2.256    -17.419    9.044
    183    H    1.151    -17.295    9.136
    184    O    2.843    -17.824    10.308
    185    P    2.234    -17.366    11.682
    186    O    2.345    -15.899    11.807
    187    O    0.886    -17.954    11.834
    188    O    3.203    -18.012    12.741
    189    C    3.294    -19.440    12.875
    190    H    2.832    -19.988    12.019
    191    H    2.743    -19.751    13.792
    192    C    4.757    -19.851    13.033
    193    H    5.182    -19.419    13.962
    194    O    4.817    -21.297    13.110
    195    C    5.375    -21.809    11.909
    196    H    6.419    -22.073    12.193
    197    N    4.635    -22.993    11.431
    198    C    3.276    -22.896    11.273
    199    H    2.828    -21.933    11.516
    200    C    2.547    -23.946    10.878
    201    H    1.467    -23.891    10.764
    202    C    5.290    -24.189    11.141
    203    O    6.525    -24.251    11.260
    204    N    4.562    -25.270    10.774
    205    C    3.227    -25.175    10.641
    206    N    2.531    -26.256    10.295
    207    H    3.007    -27.127    10.164
    208    H    1.534    -26.239    10.207
    209    C    5.431    -20.676    10.905
    210    H    4.468    -20.555    10.362
    211    O    6.500    -20.822    9.998
    212    H    7.314    -20.649    10.495
    213    C    5.654    -19.482    11.833
    214    H    5.207    -18.593    11.325
    215    O    7.050    -19.273    12.228
    216    P    7.565    -17.781    12.282
    217    O    7.067    -17.067    11.096
    218    O    7.230    -17.221    13.608
    219    O    9.128    -17.932    12.164
    220    C    9.968    -18.161    13.322
    221    H    10.154    -19.253    13.438
    222    H    9.504    -17.802    14.270
    223    C    11.328    -17.450    13.197
    224    H    11.992    -17.724    14.049
    225    O    11.998    -17.850    11.966
    226    C    12.641    -16.720    11.396
    227    H    13.711    -17.000    11.264
    228    N    12.079    -16.384    10.084
    229    C    11.828    -15.592    8.049
    230    N    10.709    -16.375    8.299
    231    C    10.905    -16.825    9.517
    232    H    10.231    -17.491    10.060
    233    N    13.442    -14.223    6.983
    234    C    14.118    -14.256    8.133
    235    H    15.061    -13.697    8.132
    236    N    13.850    -14.941    9.250
    237    C    12.673    -15.582    9.145
    238    C    12.259    -14.881    6.910
    239    N    11.602    -14.860    5.743
    240    H    10.663    -15.212    5.622
    241    H    11.956    -14.298    4.999
    242    C    12.540    -15.579    12.385
    243    H    12.456    -14.588    11.889
    244    O    13.657    -15.596    13.256
    245    H    13.508    -14.905    13.921
    246    C    11.246    -15.916    13.121
    247    H    10.361    -15.684    12.486
    248    O    11.134    -15.354    14.448
    249    P    10.704    -13.844    14.625
    250    O    9.542    -13.577    13.755
    251    O    10.535    -13.577    16.069
    252    O    11.928    -13.001    14.122
    253    C    11.818    -11.568    13.904
    254    H    12.178    -11.024    14.804
    255    H    10.761    -11.247    13.733
    256    C    12.657    -11.072    12.703
    257    H    13.696    -10.838    13.017
    258    O    12.757    -12.119    11.694
    259    C    12.573    -11.580    10.409
    260    H    13.425    -11.933    9.782
    261    N    11.320    -12.048    9.823
    262    C    9.750    -12.529    8.378
    263    N    9.300    -12.993    9.605
    264    C    10.264    -12.687    10.434
    265    H    10.272    -12.912    11.504
    266    N    9.902    -12.001    6.072
    267    C    11.090    -11.468    6.356
    268    H    11.630    -11.036    5.509
    269    N    11.715    -11.375    7.532
    270    C    10.988    -11.942    8.504
    271    C    9.194    -12.555    7.086
    272    N    7.994    -13.080    6.870
    273    H    7.477    -13.543    7.592
    274    H    7.613    -13.245    5.963
    275    C    12.621    -10.081    10.540
    276    H    11.979    -9.577    9.792
    277    O    13.961    -9.631    10.415
    278    H    14.003    -8.723    10.748
    279    C    12.067    -9.870    11.939
    280    H    10.959    -10.002    11.938
    281    O    12.482    -8.631    12.541
    282    P    11.535    -7.380    12.607
    283    O    10.311    -7.771    13.340
    284    O    12.316    -6.248    13.150
    285    O    11.141    -7.064    11.112
    286    C    12.113    -6.525    10.185
    287    H    13.054    -7.120    10.189
    288    H    12.370    -5.477    10.463
    289    C    11.585    -6.514    8.740
    290    H    12.339    -6.076    8.051
    291    O    11.354    -7.877    8.286
    292    C    10.152    -7.934    7.539
    293    H    10.392    -8.450    6.582
    294    N    9.113    -8.696    8.246
    295    C    7.989    -9.250    7.694
    296    N    6.038    -9.994    4.935
    297    H    6.508    -9.516    4.192
    298    H    5.161    -10.444    4.751
    299    N    7.628    -9.182    6.401
    300    C    6.530    -9.899    6.154
    301    N    5.824    -10.558    7.126
    302    H    5.005    -11.078    6.851
    303    C    6.165    -10.632    8.468
    304    O    5.482    -11.256    9.288
    305    C    7.342    -9.886    8.738
    306    N    8.029    -9.704    9.928
    307    C    9.072    -8.996    9.588
    308    H    9.862    -8.683    10.265
    309    C    9.734    -6.510    7.269
    310    H    8.638    -6.404    7.151
    311    O    10.381    -6.047    6.102
    312    H    10.172    -5.110    6.016
    313    C    10.248    -5.797    8.517
    314    H    9.611    -6.051    9.396
    315    O    10.475    -4.373    8.368
    316    P    9.346    -3.375    8.826
    317    O    8.841    -3.777    10.153
    318    O    9.847    -1.991    8.688
    319    O    8.194    -3.600    7.774
    320    C    8.416    -3.245    6.386
    321    H    9.329    -3.726    5.977
    322    H    8.551    -2.142    6.286
    323    C    7.231    -3.654    5.500
    324    H    7.386    -3.330    4.451
    325    O    7.079    -5.105    5.479
    326    C    5.690    -5.428    5.497
    327    H    5.519    -6.072    4.601
    328    N    5.309    -6.173    6.732
    329    C    6.090    -6.124    7.866
    330    H    6.978    -5.502    7.792
    331    C    4.155    -6.922    6.709
    332    O    3.418    -6.970    5.731
    333    N    3.886    -7.608    7.865
    334    H    3.030    -8.151    7.855
    335    C    4.614    -7.597    9.035
    336    O    4.218    -8.230    10.010
    337    C    5.801    -6.800    8.985
    338    H    6.434    -6.747    9.870
    339    C    4.919    -4.124    5.328
    340    H    3.946    -4.149    5.862
    341    O    4.716    -3.852    3.947
    342    H    4.377    -2.946    3.848
    343    C    5.874    -3.131    5.980
    344    H    5.832    -3.223    7.086
    345    O    5.689    -1.765    5.571
    346    H    4.839    -1.435    5.904
 $END
