!*** temporary files located in: /var/folders/wn/25xnr5j11fq6gnchzvsv59j40000gp/T/fmo-2022-06-29-03-52-36.B3hgAxX6 ***
!*** INPUT generated by RNAFMO  ***
 $CONTRL RUNTYP=ENERGY NPRINT=-5 ISPHER=-1 MAXIT=200 $END
 $SYSTEM MWORDS=63 MEMDDI=63 $END
 $GDDI NGROUP=1 $END
 $SCF DIRSCF=.TRUE. NPUNCH=0 $END
!*** NumCPU : 2  MemPerNode : 512MB
 $PCM SOLVNT=WATER IEF=-10 ICOMP=2 ICAV=1 IDISP=1 IFMO=-1 $END
 $PCMCAV RADII=SUAHF $END
 $TESCAV NTSALL=60 $END
 $FMOPRP
    NAODIR=220
    NGRFMO(1)=1, 1, 0, 0, 0,   0, 0, 0, 0, 0
    NPRINT=9
 $END
 $FMO
      SCFTYP(1)=RHF
      MODGRD=10
      MODMUL=0
      NBODY=1
      MAXCAO=5
      MAXBND=1
      NLAYER=1
      MPLEVL(1)=2
      NFRAG=1
      ICHARG(1)= -1
      FRGNAM(1)= 6YG
      INDAT(1)= 0
                1 -48 0
 $END
 $FMOHYB
 6-31G*      15   5
   1 0  -0.065034   0.288264   0.000000   0.000000   0.604412
         0.290129   0.000000   0.000000   0.319045  -0.017106
        -0.017106   0.057934   0.000000   0.000000   0.000000
   0 1  -0.065040   0.288293   0.569832   0.000000  -0.201456
         0.290147   0.300783   0.000000  -0.106342   0.049598
        -0.017106  -0.008771   0.000000  -0.027223   0.000000
   0 1  -0.065039   0.288293  -0.284916  -0.493490  -0.201455
         0.290145  -0.150392  -0.260486  -0.106340  -0.000427
         0.032923  -0.008771   0.033353   0.013612   0.023576
   0 1  -0.065039   0.288293  -0.284916   0.493490  -0.201455
         0.290145  -0.150392   0.260486  -0.106340  -0.000427
         0.032923  -0.008771  -0.033353   0.013612  -0.023576
   0 1   1.010938  -0.011975   0.000000   0.000000   0.000000
        -0.054085   0.000000   0.000000  -0.000000  -0.003174
        -0.003174  -0.003174   0.000000   0.000000   0.000000
 MINI         5   5
   1 0  -0.104883   0.308874   0.000000   0.000000   0.521806
   0 1  -0.104883   0.308874   0.491961   0.000000  -0.173934
   0 1  -0.104883   0.308876  -0.245980  -0.426050  -0.173933
   0 1  -0.104883   0.308876  -0.245980   0.426050  -0.173933
   0 1   0.988209   0.063992   0.000000   0.000000   0.000000
 $END
 $DATA
 FMO calculation
 C1
 H.1-1    1
      N31 6

 O.1-1    8
      N31 6
      d 1
      1 0.800 1.0

 C.1-1    6
      N31 6
      d 1
      1 0.800 1.0

 N.1-1    7
      N31 6
      d 1
      1 0.800 1.0

 P.1-1   15
      N31 6
      d 1
      1 0.550 1.0

 F.1-1    9
      N31 6
      d 1
      1 0.800 1.0

 S.1-1   16
      N31 6
      d 1
      1 0.650 1.0

 $END
 $FMOXYZ
    1	    C    12.774    -69.087    -73.517
    2	    N    13.844    -68.494    -74.361
    3	    H    12.189    -68.230    -73.108
    4	    H    13.268    -69.627    -72.675
    5	    C    13.228    -67.907    -75.574
    6	    C    12.475    -68.976    -76.367
    7	    H    14.021    -67.472    -76.220
    8	    H    12.514    -67.099    -75.299
    9	    H    13.178    -69.774    -76.693
    10	    H    12.037    -68.498    -77.272
    11	    C    11.320    -69.600    -75.578
    12	    C    11.801    -70.115    -74.207
    13	    H    10.894    -70.447    -76.163
    14	    H    10.517    -68.840    -75.456
    15	    H    12.364    -71.064    -74.357
    16	    C    10.631    -70.348    -73.283
    17	    N    9.354    -70.683    -73.625
    18	    C    8.353    -70.730    -72.688
    19	    C    8.617    -70.285    -71.380
    20	    O    7.219    -71.126    -72.971
    21	    H    7.843    -70.286    -70.620
    22	    C    9.882    -69.955    -71.061
    23	    N    10.863    -70.104    -71.948
    24	    H    11.777    -69.787    -71.655
    25	    C    10.333    -69.377    -69.745
    26	    C    9.606    -69.125    -68.618
    27	    H    8.537    -69.257    -68.572
    28	    C    10.358    -68.634    -67.567
    29	    C    11.678    -68.470    -67.862
    30	    H    9.969    -68.396    -66.591
    31	    H    12.501    -68.129    -67.239
    32	    S    11.973    -68.901    -69.473
    33	    C    14.661    -67.475    -73.633
    34	    C    14.869    -67.673    -72.147
    35	    H    14.211    -66.467    -73.781
    36	    H    15.676    -67.483    -74.092
    37	    C    15.702    -68.689    -71.645
    38	    N    16.102    -68.735    -70.378
    39	    H    16.108    -69.442    -72.309
    40	    C    15.622    -67.771    -69.540
    41	    N    14.778    -66.767    -69.912
    42	    C    14.386    -66.762    -71.182
    43	    H    13.727    -65.951    -71.471
    44	    O    16.050    -67.693    -68.216
    45	    C    17.009    -68.670    -67.788
    46	    H    17.932    -68.648    -68.411
    47	    H    16.574    -69.690    -67.808
    48	    H    17.307    -68.451    -66.738
 $END
