!*** temporary files located in: /var/folders/wn/25xnr5j11fq6gnchzvsv59j40000gp/T/fmo-2022-06-29-03-52-28.vBVhYKA3 ***
!*** INPUT generated by RNAFMO  ***
 $CONTRL RUNTYP=ENERGY NPRINT=-5 ISPHER=-1 MAXIT=200 $END
 $SYSTEM MWORDS=63 MEMDDI=63 $END
 $GDDI NGROUP=1 $END
 $SCF DIRSCF=.TRUE. NPUNCH=0 $END
!*** NumCPU : 2  MemPerNode : 512MB
 $PCM SOLVNT=WATER IEF=-10 ICOMP=2 ICAV=1 IDISP=1 IFMO=-1 $END
 $PCMCAV RADII=SUAHF $END
 $TESCAV NTSALL=60 $END
 $FMOPRP
    NAODIR=220
    NGRFMO(1)=1, 1, 0, 0, 0,   0, 0, 0, 0, 0
    NPRINT=9
    IPIEDA=1
 $END
 $FMO
      SCFTYP(1)=RHF
      MODGRD=10
      MODMUL=0
      MAXCAO=5
      MAXBND=9
      NLAYER=1
      MPLEVL(1)=2
      NFRAG=17
      ICHARG(1)= -1, -1, 0, -1, 0,
                 0, -1, -1, 0, -1,
                 0, -1, 0, 0, -1,
                 0, 0
      FRGNAM(1)= GUA10, GUA11, GUA12, GUA32, GUA33,
                 GUA41, GUA47, ADE48, ADE49, URA61,
                 GUA62, GUA84, ADE85, GUA93, GUA98,
                 ADE99, GUA101
      INDAT(1)= 0
                1 -36 0
                37 -70 0
                71 -101 0
                102 -137 0
                138 -168 0
                169 -201 0
                202 -237 0
                238 -270 0
                271 -300 0
                301 -332 0
                333 -363 0
                364 -399 0
                400 -429 0
                430 -462 0
                463 -498 0
                499 -528 0
                529 -561 0
 $END
 $FMOHYB
 6-31G*      15   5
   1 0  -0.065034   0.288264   0.000000   0.000000   0.604412
         0.290129   0.000000   0.000000   0.319045  -0.017106
        -0.017106   0.057934   0.000000   0.000000   0.000000
   0 1  -0.065040   0.288293   0.569832   0.000000  -0.201456
         0.290147   0.300783   0.000000  -0.106342   0.049598
        -0.017106  -0.008771   0.000000  -0.027223   0.000000
   0 1  -0.065039   0.288293  -0.284916  -0.493490  -0.201455
         0.290145  -0.150392  -0.260486  -0.106340  -0.000427
         0.032923  -0.008771   0.033353   0.013612   0.023576
   0 1  -0.065039   0.288293  -0.284916   0.493490  -0.201455
         0.290145  -0.150392   0.260486  -0.106340  -0.000427
         0.032923  -0.008771  -0.033353   0.013612  -0.023576
   0 1   1.010938  -0.011975   0.000000   0.000000   0.000000
        -0.054085   0.000000   0.000000  -0.000000  -0.003174
        -0.003174  -0.003174   0.000000   0.000000   0.000000
 MINI         5   5
   1 0  -0.104883   0.308874   0.000000   0.000000   0.521806
   0 1  -0.104883   0.308874   0.491961   0.000000  -0.173934
   0 1  -0.104883   0.308876  -0.245980  -0.426050  -0.173933
   0 1  -0.104883   0.308876  -0.245980   0.426050  -0.173933
   0 1   0.988209   0.063992   0.000000   0.000000   0.000000
 $END
 $FMOBND
      -37 36 6-31G* MINI
      -71 70 6-31G* MINI
      -138 137 6-31G* MINI
      -238 237 6-31G* MINI
      -271 270 6-31G* MINI
      -333 332 6-31G* MINI
      -400 399 6-31G* MINI
      -499 498 6-31G* MINI
 $END
 $DATA
 FMO calculation
 C1
 H.1-1    1
      N31 6

 O.1-1    8
      N31 6
      d 1
      1 0.800 1.0

 C.1-1    6
      N31 6
      d 1
      1 0.800 1.0

 N.1-1    7
      N31 6
      d 1
      1 0.800 1.0

 P.1-1   15
      N31 6
      d 1
      1 0.550 1.0

 F.1-1    9
      N31 6
      d 1
      1 0.800 1.0

 S.1-1   16
      N31 6
      d 1
      1 0.650 1.0

 $END
 $FMOXYZ
    1    H    6.478    -65.082    -81.828
    2    O    5.791    -65.099    -82.508
    3    C    6.521    -64.904    -83.721
    4    H    6.714    -63.813    -83.813
    5    H    5.901    -65.217    -84.592
    6    C    7.873    -65.640    -83.746
    7    H    8.441    -65.321    -84.649
    8    O    8.658    -65.312    -82.551
    9    C    9.074    -66.533    -81.936
    10    H    10.020    -66.841    -82.440
    11    N    9.285    -66.349    -80.490
    12    C    10.453    -65.971    -79.874
    13    N    13.723    -64.895    -80.090
    14    H    14.229    -64.127    -79.709
    15    H    13.785    -64.995    -81.081
    16    N    11.640    -65.737    -80.469
    17    C    12.522    -65.210    -79.649
    18    N    12.305    -65.033    -78.304
    19    H    13.010    -64.595    -77.753
    20    C    11.115    -65.319    -77.646
    21    O    11.029    -65.117    -76.431
    22    C    10.136    -65.847    -78.530
    23    N    8.810    -66.180    -78.300
    24    C    8.347    -66.481    -79.492
    25    H    7.328    -66.813    -79.691
    26    C    7.973    -67.507    -82.274
    27    H    7.040    -67.271    -81.720
    28    O    8.304    -68.860    -82.066
    29    H    8.672    -69.206    -82.897
    30    C    7.800    -67.181    -83.747
    31    H    6.778    -67.480    -84.077
    32    O    8.847    -67.745    -84.562
    33    P    8.498    -68.697    -85.764
    34    O    7.603    -67.982    -86.703
    35    O    8.020    -69.965    -85.180
    36    O    9.921    -68.887    -86.407
    37    C    10.537    -67.860    -87.216
    38    H    10.055    -66.858    -87.103
    39    H    10.437    -68.155    -88.283
    40    C    12.034    -67.703    -86.903
    41    H    12.513    -67.034    -87.648
    42    O    12.197    -67.051    -85.613
    43    C    13.289    -67.629    -84.922
    44    H    13.988    -66.795    -84.694
    45    N    12.858    -68.251    -83.675
    46    C    13.519    -68.227    -82.477
    47    N    16.169    -67.142    -80.548
    48    H    16.353    -66.912    -79.605
    49    H    16.578    -66.585    -81.279
    50    N    14.703    -67.632    -82.220
    51    C    15.041    -67.701    -80.953
    52    N    14.291    -68.351    -79.997
    53    H    14.545    -68.305    -79.037
    54    C    13.093    -69.016    -80.250
    55    O    12.536    -69.599    -79.328
    56    C    12.719    -68.937    -81.609
    57    N    11.597    -69.418    -82.248
    58    C    11.711    -68.985    -83.478
    59    H    10.996    -69.158    -84.284
    60    C    13.982    -68.612    -85.842
    61    H    14.373    -69.508    -85.312
    62    O    15.044    -67.974    -86.522
    63    H    15.137    -68.502    -87.328
    64    C    12.866    -68.994    -86.810
    65    H    12.213    -69.771    -86.342
    66    O    13.340    -69.354    -88.126
    67    P    13.225    -70.817    -88.699
    68    O    13.189    -70.761    -90.178
    69    O    12.197    -71.595    -87.991
    70    O    14.634    -71.399    -88.276
    71    C    15.835    -70.801    -88.804
    72    H    15.761    -69.691    -88.892
    73    H    16.024    -71.208    -89.822
    74    C    17.020    -71.124    -87.897
    75    H    17.953    -70.672    -88.287
    76    O    16.794    -70.550    -86.582
    77    C    17.141    -71.472    -85.577
    78    H    17.884    -70.936    -84.944
    79    N    15.984    -71.856    -84.748
    80    C    15.873    -71.674    -83.387
    81    N    17.061    -70.423    -80.388
    82    H    18.007    -70.271    -80.661
    83    H    16.930    -70.791    -79.469
    84    N    16.794    -71.100    -82.573
    85    C    16.333    -70.987    -81.330
    86    N    15.162    -71.541    -80.893
    87    H    14.893    -71.442    -79.933
    88    C    14.254    -72.224    -81.680
    89    O    13.262    -72.719    -81.151
    90    C    14.664    -72.249    -83.040
    91    N    14.020    -72.755    -84.153
    92    C    14.814    -72.478    -85.153
    93    H    14.574    -72.686    -86.200
    94    C    17.808    -72.669    -86.238
    95    H    17.548    -73.631    -85.746
    96    O    19.216    -72.506    -86.245
    97    H    19.446    -72.174    -87.125
    98    C    17.226    -72.626    -87.655
    99    H    16.228    -73.117    -87.691
    100    O    18.095    -73.178    -88.661
    101    H    18.114    -74.137    -88.577
    102    H    17.032    -63.922    -85.896
    103    O    16.960    -63.573    -85.000
    104    C    15.628    -63.876    -84.553
    105    H    15.353    -64.901    -84.890
    106    H    14.916    -63.176    -85.048
    107    C    15.408    -63.809    -83.024
    108    H    14.382    -64.191    -82.804
    109    O    16.396    -64.593    -82.267
    110    C    17.189    -63.707    -81.486
    111    H    16.737    -63.723    -80.469
    112    N    18.581    -64.151    -81.450
    113    C    19.255    -64.653    -80.367
    114    N    19.405    -65.309    -76.973
    115    H    20.076    -65.549    -76.281
    116    H    18.526    -64.927    -76.707
    117    N    18.760    -64.828    -79.121
    118    C    19.701    -65.172    -78.254
    119    N    20.990    -65.477    -78.613
    120    H    21.659    -65.720    -77.913
    121    C    21.500    -65.391    -79.903
    122    O    22.664    -65.719    -80.106
    123    C    20.521    -64.950    -80.831
    124    N    20.624    -64.687    -82.189
    125    C    19.449    -64.207    -82.516
    126    H    19.148    -63.885    -83.517
    127    C    17.018    -62.332    -82.078
    128    H    17.636    -62.210    -82.996
    129    O    17.305    -61.289    -81.170
    130    H    16.489    -61.063    -80.685
    131    C    15.542    -62.392    -82.441
    132    H    15.347    -61.672    -83.271
    133    O    14.652    -62.229    -81.310
    134    P    13.873    -60.874    -81.121
    135    O    13.527    -60.320    -82.441
    136    O    14.699    -60.062    -80.205
    137    O    12.559    -61.370    -80.384
    138    C    11.456    -61.883    -81.180
    139    H    11.675    -62.919    -81.529
    140    H    11.265    -61.262    -82.092
    141    C    10.141    -61.895    -80.387
    142    H    9.328    -62.352    -80.995
    143    O    10.272    -62.690    -79.173
    144    C    9.613    -62.033    -78.098
    145    H    8.911    -62.780    -77.659
    146    N    10.578    -61.601    -77.065
    147    C    10.315    -61.016    -75.845
    148    N    8.066    -59.749    -73.524
    149    H    8.052    -59.509    -72.560
    150    H    7.216    -60.023    -73.966
    151    N    9.103    -60.688    -75.358
    152    C    9.168    -60.143    -74.146
    153    N    10.347    -59.968    -73.461
    154    H    10.333    -59.580    -72.540
    155    C    11.613    -60.293    -73.941
    156    O    12.617    -60.089    -73.263
    157    C    11.551    -60.858    -75.243
    158    N    12.568    -61.314    -76.068
    159    C    11.949    -61.728    -77.143
    160    H    12.433    -62.120    -78.040
    161    C    8.831    -60.878    -78.684
    162    H    8.754    -60.024    -77.979
    163    O    7.527    -61.302    -79.052
    164    H    7.609    -61.960    -79.753
    165    C    9.687    -60.512    -79.893
    166    H    10.592    -59.943    -79.582
    167    O    8.975    -59.817    -80.929
    168    H    8.633    -58.991    -80.577
    169    H    18.794    -58.761    -80.327
    170    O    18.862    -58.532    -79.391
    171    C    17.536    -58.650    -78.856
    172    H    16.838    -58.945    -79.670
    173    H    17.218    -57.647    -78.494
    174    C    17.416    -59.663    -77.705
    175    H    16.384    -59.675    -77.287
    176    O    17.700    -61.009    -78.197
    177    C    18.729    -61.612    -77.435
    178    H    18.376    -62.646    -77.234
    179    N    20.012    -61.687    -78.184
    180    C    21.247    -62.144    -77.762
    181    N    23.340    -63.331    -75.262
    182    H    24.300    -63.538    -75.120
    183    H    22.710    -63.329    -74.490
    184    N    21.556    -62.627    -76.538
    185    C    22.848    -62.918    -76.422
    186    N    23.744    -62.823    -77.458
    187    H    24.696    -63.093    -77.327
    188    C    23.449    -62.377    -78.740
    189    O    24.332    -62.324    -79.592
    190    C    22.080    -62.021    -78.861
    191    N    21.389    -61.536    -79.950
    192    C    20.171    -61.359    -79.514
    193    H    19.342    -60.980    -80.111
    194    C    18.824    -60.838    -76.139
    195    H    19.847    -60.849    -75.711
    196    O    17.905    -61.366    -75.193
    197    H    17.078    -60.866    -75.271
    198    C    18.451    -59.424    -76.588
    199    H    19.340    -58.920    -77.028
    200    O    17.874    -58.606    -75.557
    201    H    18.500    -58.495    -74.836
    202    H    4.710    -61.607    -67.147
    203    O    4.970    -60.739    -67.500
    204    C    3.963    -60.393    -68.463
    205    H    3.959    -59.291    -68.613
    206    H    2.979    -60.688    -68.037
    207    C    4.122    -61.095    -69.822
    208    H    3.270    -60.864    -70.500
    209    O    5.333    -60.670    -70.495
    210    C    5.893    -61.776    -71.190
    211    H    5.812    -61.516    -72.269
    212    N    7.301    -61.958    -70.837
    213    C    8.261    -62.522    -71.631
    214    N    9.161    -64.013    -74.616
    215    H    9.952    -64.367    -75.119
    216    H    8.270    -64.023    -75.059
    217    N    8.074    -63.015    -72.865
    218    C    9.194    -63.469    -73.412
    219    N    10.423    -63.349    -72.809
    220    H    11.234    -63.712    -73.267
    221    C    10.645    -62.835    -71.529
    222    O    11.778    -62.774    -71.057
    223    C    9.436    -62.406    -70.919
    224    N    9.210    -61.813    -69.684
    225    C    7.921    -61.575    -69.670
    226    H    7.366    -61.107    -68.852
    227    C    5.062    -63.017    -70.930
    228    H    5.678    -63.915    -70.697
    229    O    4.236    -63.297    -72.040
    230    H    3.803    -64.136    -71.831
    231    C    4.261    -62.605    -69.704
    232    H    4.907    -62.786    -68.812
    233    O    2.945    -63.183    -69.599
    234    P    2.724    -64.378    -68.604
    235    O    1.271    -64.620    -68.499
    236    O    3.494    -64.070    -67.378
    237    O    3.428    -65.538    -69.416
    238    C    2.726    -66.121    -70.542
    239    H    2.476    -65.348    -71.306
    240    H    1.771    -66.588    -70.203
    241    C    3.569    -67.208    -71.215
    242    H    3.034    -67.652    -72.083
    243    O    4.807    -66.620    -71.712
    244    C    5.878    -67.504    -71.470
    245    H    6.326    -67.693    -72.473
    246    N    6.875    -66.886    -70.577
    247    C    8.763    -66.056    -69.798
    248    N    7.815    -65.866    -68.802
    249    C    6.704    -66.356    -69.313
    250    H    5.729    -66.335    -68.815
    251    N    10.782    -66.028    -71.051
    252    C    10.085    -66.583    -72.034
    253    H    10.644    -66.782    -72.954
    254    N    8.821    -67.002    -72.045
    255    C    8.196    -66.667    -70.898
    256    C    10.142    -65.748    -69.877
    257    N    10.825    -65.200    -68.853
    258    H    10.350    -64.943    -68.017
    259    H    11.787    -64.967    -68.971
    260    C    5.310    -68.816    -70.941
    261    H    5.958    -69.304    -70.179
    262    O    5.056    -69.703    -72.030
    263    H    5.864    -70.168    -72.309
    264    C    4.016    -68.342    -70.283
    265    H    4.237    -67.863    -69.299
    266    O    2.981    -69.346    -70.197
    267    P    2.732    -70.110    -68.839
    268    O    1.708    -71.153    -69.049
    269    O    2.532    -69.142    -67.749
    270    O    4.123    -70.813    -68.568
    271    C    4.486    -72.030    -69.234
    272    H    4.668    -71.826    -70.313
    273    H    3.669    -72.787    -69.148
    274    C    5.756    -72.626    -68.613
    275    H    6.084    -73.514    -69.187
    276    O    6.854    -71.658    -68.637
    277    C    7.501    -71.655    -67.373
    278    H    8.593    -71.747    -67.591
    279    N    7.278    -70.386    -66.652
    280    C    7.545    -68.628    -65.353
    281    N    6.534    -68.306    -66.233
    282    C    6.411    -69.365    -66.986
    283    H    5.718    -69.444    -67.821
    284    N    9.258    -68.445    -63.734
    285    C    9.586    -69.701    -64.058
    286    H    10.432    -70.121    -63.503
    287    N    9.007    -70.533    -64.936
    288    C    8.009    -69.910    -65.587
    289    C    8.221    -67.861    -64.386
    290    N    7.911    -66.572    -64.144
    291    H    7.243    -66.106    -64.728
    292    H    8.463    -66.052    -63.505
    293    C    7.036    -72.875    -66.608
    294    H    7.035    -72.718    -65.508
    295    O    7.864    -73.981    -66.941
    296    H    8.776    -73.788    -66.687
    297    C    5.608    -73.033    -67.139
    298    H    4.916    -72.307    -66.656
    299    O    5.081    -74.369    -67.049
    300    H    5.077    -74.642    -66.128
    301    H    17.248    -67.674    -60.221
    302    O    16.353    -67.976    -60.021
    303    C    16.211    -69.242    -60.679
    304    H    15.302    -69.751    -60.285
    305    H    17.095    -69.867    -60.424
    306    C    16.086    -69.145    -62.209
    307    H    16.105    -70.156    -62.675
    308    O    14.808    -68.526    -62.541
    309    C    15.003    -67.586    -63.564
    310    H    14.976    -68.171    -64.518
    311    N    13.963    -66.533    -63.523
    312    C    14.115    -65.450    -62.685
    313    H    14.885    -65.526    -61.914
    314    C    12.845    -66.650    -64.303
    315    O    12.636    -67.642    -65.032
    316    N    11.967    -65.611    -64.252
    317    H    11.161    -65.696    -64.835
    318    C    12.104    -64.450    -63.514
    319    O    11.254    -63.570    -63.582
    320    C    13.270    -64.415    -62.685
    321    H    13.429    -63.553    -62.044
    322    C    16.393    -67.037    -63.379
    323    H    16.474    -66.277    -62.573
    324    O    16.863    -66.479    -64.585
    325    H    17.724    -66.890    -64.791
    326    C    17.165    -68.263    -62.872
    327    H    17.785    -67.901    -62.023
    328    O    17.957    -69.013    -63.826
    329    P    19.502    -68.666    -63.944
    330    O    20.201    -69.672    -64.766
    331    O    20.022    -68.380    -62.588
    332    O    19.389    -67.316    -64.727
    333    C    20.449    -66.431    -65.086
    334    H    21.358    -66.565    -64.454
    335    H    20.089    -65.396    -64.900
    336    C    20.816    -66.551    -66.575
    337    H    21.474    -67.435    -66.715
    338    O    19.656    -66.764    -67.427
    339    C    19.901    -66.245    -68.717
    340    H    19.922    -67.117    -69.407
    341    N    18.832    -65.324    -69.139
    342    C    18.346    -65.177    -70.411
    343    N    18.263    -66.227    -73.699
    344    H    17.721    -66.137    -74.520
    345    H    18.936    -66.962    -73.599
    346    N    18.755    -65.851    -71.503
    347    C    18.029    -65.581    -72.567
    348    N    17.002    -64.666    -72.578
    349    H    16.529    -64.442    -73.426
    350    C    16.592    -63.917    -71.479
    351    O    15.669    -63.123    -71.618
    352    C    17.362    -64.213    -70.322
    353    N    17.257    -63.732    -69.026
    354    C    18.128    -64.439    -68.351
    355    H    18.293    -64.371    -67.274
    356    C    21.269    -65.574    -68.685
    357    H    21.279    -64.619    -69.250
    358    O    22.273    -66.424    -69.215
    359    H    22.363    -67.196    -68.644
    360    C    21.465    -65.311    -67.190
    361    H    20.881    -64.425    -66.857
    362    O    22.833    -65.212    -66.769
    363    H    23.295    -64.594    -67.342
    364    H    21.408    -71.708    -70.262
    365    O    21.568    -70.839    -70.652
    366    C    20.430    -70.038    -70.296
    367    H    20.779    -69.035    -69.973
    368    H    19.922    -70.513    -69.426
    369    C    19.391    -69.892    -71.418
    370    H    18.498    -69.341    -71.058
    371    O    19.925    -69.141    -72.537
    372    C    19.445    -69.673    -73.749
    373    H    18.709    -68.927    -74.118
    374    N    20.546    -69.790    -74.711
    375    C    20.533    -69.422    -76.035
    376    N    18.821    -68.253    -78.791
    377    H    18.954    -67.984    -79.739
    378    H    17.930    -68.155    -78.357
    379    N    19.488    -68.899    -76.709
    380    C    19.768    -68.699    -77.986
    381    N    21.016    -68.868    -78.532
    382    H    21.174    -68.685    -79.502
    383    C    22.128    -69.346    -77.846
    384    O    23.199    -69.444    -78.436
    385    C    21.816    -69.655    -76.492
    386    N    22.614    -70.163    -75.480
    387    C    21.824    -70.227    -74.438
    388    H    22.114    -70.575    -73.441
    389    C    18.711    -70.982    -73.479
    390    H    19.137    -71.825    -74.062
    391    O    17.336    -70.853    -73.777
    392    H    16.941    -71.702    -73.493
    393    C    18.961    -71.238    -71.986
    394    H    19.825    -71.934    -71.897
    395    O    17.857    -71.716    -71.211
    396    P    17.346    -73.188    -71.247
    397    O    18.402    -74.064    -70.700
    398    O    16.871    -73.443    -72.626
    399    O    16.107    -73.153    -70.253
    400    C    16.192    -72.320    -69.069
    401    H    16.418    -71.256    -69.320
    402    H    17.009    -72.682    -68.407
    403    C    14.883    -72.329    -68.276
    404    H    15.013    -71.830    -67.291
    405    O    13.882    -71.569    -68.995
    406    C    12.647    -72.241    -68.941
    407    H    11.891    -71.508    -68.573
    408    N    12.276    -72.720    -70.268
    409    C    11.088    -73.508    -71.933
    410    N    12.362    -73.289    -72.438
    411    C    13.035    -72.825    -71.411
    412    H    14.086    -72.520    -71.430
    413    N    8.799    -74.071    -71.703
    414    C    8.903    -73.650    -70.443
    415    H    7.994    -73.709    -69.841
    416    N    9.964    -73.181    -69.795
    417    C    11.030    -73.151    -70.600
    418    C    9.895    -73.998    -72.512
    419    N    9.804    -74.379    -73.800
    420    H    10.542    -74.185    -74.446
    421    H    8.918    -74.673    -74.175
    422    C    12.767    -73.361    -67.935
    423    H    12.129    -74.232    -68.197
    424    O    12.405    -72.889    -66.646
    425    H    13.078    -72.272    -66.340
    426    C    14.247    -73.713    -68.073
    427    H    14.399    -74.322    -68.993
    428    O    14.824    -74.363    -66.932
    429    H    15.753    -74.546    -67.116
    430    H    20.251    -75.656    -74.881
    431    O    19.758    -75.358    -75.655
    432    C    18.404    -75.121    -75.235
    433    H    18.390    -74.821    -74.162
    434    H    17.837    -76.074    -75.321
    435    C    17.681    -74.036    -76.053
    436    H    16.706    -73.769    -75.581
    437    O    18.489    -72.824    -76.112
    438    C    18.607    -72.357    -77.439
    439    H    18.349    -71.275    -77.391
    440    N    19.990    -72.487    -77.951
    441    C    20.476    -72.179    -79.208
    442    N    19.947    -71.232    -82.509
    443    H    20.456    -71.181    -83.360
    444    H    18.943    -71.232    -82.564
    445    N    19.766    -71.699    -80.252
    446    C    20.506    -71.569    -81.353
    447    N    21.862    -71.778    -81.377
    448    H    22.381    -71.600    -82.212
    449    C    22.631    -72.217    -80.304
    450    O    23.840    -72.387    -80.445
    451    C    21.831    -72.449    -79.152
    452    N    22.191    -72.912    -77.902
    453    C    21.079    -72.911    -77.216
    454    H    20.985    -73.219    -76.172
    455    C    17.581    -73.100    -78.263
    456    H    17.912    -73.281    -79.308
    457    O    16.366    -72.364    -78.258
    458    H    15.812    -72.724    -77.546
    459    C    17.465    -74.433    -77.520
    460    H    18.290    -75.123    -77.815
    461    O    16.189    -75.075    -77.666
    462    H    16.007    -75.254    -78.595
    463    H    2.046    -80.279    -75.850
    464    O    1.180    -79.990    -76.157
    465    C    0.278    -80.366    -75.107
    466    H    0.352    -81.466    -74.973
    467    H    -0.769    -80.128    -75.404
    468    C    0.588    -79.690    -73.767
    469    H    0.032    -80.174    -72.934
    470    O    2.006    -79.778    -73.466
    471    C    2.408    -78.586    -72.796
    472    H    2.774    -78.897    -71.792
    473    N    3.486    -77.918    -73.534
    474    C    4.535    -77.233    -72.990
    475    N    6.157    -75.954    -70.219
    476    H    7.008    -75.504    -69.977
    477    H    5.473    -76.134    -69.517
    478    N    4.753    -77.030    -71.679
    479    C    5.835    -76.302    -71.456
    480    N    6.705    -75.926    -72.449
    481    H    7.479    -75.319    -72.222
    482    C    6.531    -76.152    -73.808
    483    O    7.379    -75.773    -74.618
    484    C    5.316    -76.845    -74.064
    485    N    4.735    -77.232    -75.265
    486    C    3.648    -77.863    -74.900
    487    H    2.928    -78.318    -75.580
    488    C    1.190    -77.699    -72.611
    489    H    1.418    -76.616    -72.729
    490    O    0.600    -77.928    -71.348
    491    H    -0.296    -77.571    -71.419
    492    C    0.285    -78.196    -73.725
    493    H    0.648    -77.780    -74.693
    494    O    -1.123    -78.005    -73.473
    495    P    -1.993    -77.030    -74.349
    496    O    -1.605    -75.655    -73.980
    497    O    -3.415    -77.411    -74.230
    498    O    -1.487    -77.354    -75.816
    499    C    -2.151    -76.757    -76.953
    500    H    -2.995    -76.083    -76.663
    501    H    -2.603    -77.565    -77.568
    502    C    -1.196    -75.936    -77.835
    503    H    -1.801    -75.356    -78.567
    504    O    -0.425    -74.981    -77.056
    505    C    0.945    -75.127    -77.349
    506    H    1.150    -74.428    -78.195
    507    N    1.780    -74.797    -76.189
    508    C    3.439    -74.113    -74.924
    509    N    2.428    -74.484    -74.059
    510    C    1.456    -74.862    -74.857
    511    H    0.473    -75.201    -74.536
    512    N    5.411    -73.155    -75.795
    513    C    4.925    -73.450    -77.005
    514    H    5.563    -73.157    -77.844
    515    N    3.774    -74.051    -77.336
    516    C    3.058    -74.315    -76.238
    517    C    4.682    -73.486    -74.707
    518    N    5.135    -73.135    -73.489
    519    H    4.517    -73.138    -72.706
    520    H    5.961    -72.566    -73.468
    521    C    1.129    -76.547    -77.814
    522    H    1.135    -77.264    -76.961
    523    O    2.295    -76.699    -78.614
    524    H    3.050    -76.273    -78.179
    525    C    -0.154    -76.741    -78.626
    526    H    -0.459    -77.811    -78.634
    527    O    -0.025    -76.273    -79.977
    528    H    0.880    -76.491    -80.238
    529    H    -3.343    -72.559    -78.793
    530    O    -3.951    -71.809    -78.835
    531    C    -4.909    -72.075    -77.806
    532    H    -5.441    -73.011    -78.081
    533    H    -5.650    -71.245    -77.776
    534    C    -4.280    -72.253    -76.416
    535    H    -4.976    -72.772    -75.720
    536    O    -3.069    -73.049    -76.505
    537    C    -2.084    -72.529    -75.611
    538    H    -1.798    -73.368    -74.933
    539    N    -0.883    -72.061    -76.338
    540    C    0.290    -71.570    -75.811
    541    N    2.288    -70.789    -73.070
    542    H    3.169    -70.369    -72.845
    543    H    1.670    -70.967    -72.308
    544    N    0.575    -71.409    -74.506
    545    C    1.823    -70.979    -74.300
    546    N    2.685    -70.678    -75.329
    547    H    3.616    -70.383    -75.112
    548    C    2.404    -70.797    -76.687
    549    O    3.238    -70.486    -77.537
    550    C    1.090    -71.287    -76.906
    551    N    0.437    -71.589    -78.091
    552    C    -0.719    -72.055    -77.705
    553    H    -1.484    -72.447    -78.371
    554    C    -2.728    -71.403    -74.818
    555    H    -2.017    -70.572    -74.611
    556    O    -3.276    -71.883    -73.600
    557    H    -2.566    -72.293    -73.084
    558    C    -3.826    -70.942    -75.771
    559    H    -3.416    -70.280    -76.564
    560    O    -4.922    -70.317    -75.093
    561    H    -4.890    -70.688    -74.197
 $END
