!*** FMO 5.3 (Gamess) INPUT generated by Facio 22.1.1.32 ***
 $CONTRL RUNTYP=ENERGY NPRINT=-5 ISPHER=1 MAXIT=200 $END
 $SYSTEM MWORDS=63 MEMDDI=63 $END
 $GDDI NGROUP=1 $END
 $SCF DIRSCF=.TRUE. NPUNCH=0 $END
!*** NumCPU : 2  MemPerNode : 512MB
 $PCM SOLVNT=WATER IEF=-10 ICOMP=2 ICAV=1 IDISP=1 IFMO=-1 $END
 $PCMCAV RADII=SUAHF $END
 $TESCAV NTSALL=60 $END
 $FMOPRP
    NAODIR=200
    NGRFMO(1)=1, 1, 0, 0, 0,   0, 0, 0, 0, 0
    IPIEDA=1
    NPRINT=9
 $END
 $FMO
      SCFTYP(1)=RHF
      MODGRD=10
      MODMUL=0
      MAXCAO=5
      MAXBND=14
      NLAYER=1
      MPLEVL(1)=2
      NFRAG=12
      ICHARG(1)=-1, -1, -1, -1, -1, 0, -1, -1, -1, -1, -1, 0
      FRGNAM(1)=F1, F2, F3, F4, F5, F6, F7, F8, F9, F10, F11, F12
      indat(1)=0
               1   -35   0
               36   -69   0
               70   -99   0
               100   -133   0
               134   -167   0
               168   -197   0
               198   -231   0
               232   -262   0
               263   -295   0
               296   -325   0
               326   -356   0
               357   -383   0
 $END

 $FMOBND
   -36   35       6-31G*    MINI
   -70   69       6-31G*    MINI
   -100   99       6-31G*    MINI
   -134   133       6-31G*    MINI
   -168   167       6-31G*    MINI
   -198   197       6-31G*    MINI
   -232   231       6-31G*    MINI
   -263   262       6-31G*    MINI
   -296   295       6-31G*    MINI
   -326   325       6-31G*    MINI
   -357   356       6-31G*    MINI
 $END
 $FMOHYB
 6-31G*      15   5
   1 0  -0.065034   0.288264   0.000000   0.000000   0.604412
         0.290129   0.000000   0.000000   0.319045  -0.017106
        -0.017106   0.057934   0.000000   0.000000   0.000000
   0 1  -0.065040   0.288293   0.569832   0.000000  -0.201456
         0.290147   0.300783   0.000000  -0.106342   0.049598
        -0.017106  -0.008771   0.000000  -0.027223   0.000000
   0 1  -0.065039   0.288293  -0.284916  -0.493490  -0.201455
         0.290145  -0.150392  -0.260486  -0.106340  -0.000427
         0.032923  -0.008771   0.033353   0.013612   0.023576
   0 1  -0.065039   0.288293  -0.284916   0.493490  -0.201455
         0.290145  -0.150392   0.260486  -0.106340  -0.000427
         0.032923  -0.008771  -0.033353   0.013612  -0.023576
   0 1   1.010938  -0.011975   0.000000   0.000000   0.000000
        -0.054085   0.000000   0.000000  -0.000000  -0.003174
        -0.003174  -0.003174   0.000000   0.000000   0.000000
 MINI         5   5
   1 0  -0.104883   0.308874   0.000000   0.000000   0.521806
   0 1  -0.104883   0.308874   0.491961   0.000000  -0.173934
   0 1  -0.104883   0.308876  -0.245980  -0.426050  -0.173933
   0 1  -0.104883   0.308876  -0.245980   0.426050  -0.173933
   0 1   0.988209   0.063992   0.000000   0.000000   0.000000
 $END
 
 $DATA
 FMO calculation
 C1 
 H.1-1    1
      N31 6
   
 O.1-1    8
      N31 6
      d 1
      1 0.800 1.0
   
 C.1-1    6
      N31 6
      d 1
      1 0.800 1.0
   
 N.1-1    7
      N31 6
      d 1
      1 0.800 1.0
   
 P.1-1   15
      N31 6
      d 1
      1 0.550 1.0
   
 $END
 $FMOXYZ
    1    H    6.058    9.093    2.300
    2    O    5.365    9.221    1.624
    3    C    4.900    10.573    1.755
    4    H    5.773    11.260    1.720
    5    H    4.413    10.696    2.750
    6    C    3.910    10.969    0.657
    7    H    3.530    11.999    0.813
    8    O    4.570    10.943    -0.644
    9    C    3.661    10.446    -1.614
    10    H    3.591    11.219    -2.413
    11    N    4.137    9.191    -2.202
    12    C    4.475    7.490    -3.554
    13    N    5.358    7.323    -2.495
    14    C    5.111    8.350    -1.716
    15    H    5.616    8.558    -0.770
    16    N    3.290    7.184    -5.581
    17    C    2.627    8.305    -5.273
    18    H    1.868    8.618    -5.999
    19    N    2.765    9.101    -4.207
    20    C    3.716    8.634    -3.382
    21    C    4.241    6.734    -4.721
    22    N    4.930    5.617    -5.030
    23    H    5.697    5.300    -4.461
    24    H    4.728    5.109    -5.871
    25    C    2.313    10.303    -0.942
    26    H    1.708    9.479    -1.369
    27    O    1.602    11.518    -1.040
    28    H    0.777    11.382    -0.558
    29    C    2.708    10.022    0.504
    30    H    3.095    8.982    0.604
    31    O    1.698    10.340    1.496
    32    P    0.652    9.230    1.896
    33    O    1.381    7.999    2.264
    34    O    -0.255    9.794    2.919
    35    O    -0.158    8.987    0.568
    36    C    -1.140    9.972    0.153
    37    H    -0.690    10.989    0.059
    38    H    -1.967    10.041    0.904
    39    C    -1.761    9.601    -1.201
    40    H    -2.435    10.408    -1.563
    41    O    -0.723    9.403    -2.202
    42    C    -1.091    8.327    -3.053
    43    H    -1.092    8.728    -4.091
    44    N    -0.128    7.217    -2.981
    45    C    0.001    6.207    -3.897
    46    N    -1.069    4.593    -6.774
    47    H    -1.837    5.161    -7.069
    48    H    -0.857    3.756    -7.285
    49    N    -0.751    6.041    -5.002
    50    C    -0.408    4.953    -5.688
    51    N    0.619    4.127    -5.313
    52    H    0.832    3.337    -5.901
    53    C    1.428    4.289    -4.197
    54    O    2.336    3.492    -3.951
    55    C    1.041    5.422    -3.435
    56    N    1.551    5.919    -2.241
    57    C    0.819    6.984    -2.006
    58    H    0.915    7.645    -1.143
    59    C    -2.495    7.903    -2.674
    60    H    -2.674    6.815    -2.819
    61    O    -3.438    8.647    -3.426
    62    H    -4.316    8.380    -3.110
    63    C    -2.539    8.282    -1.197
    64    H    -1.943    7.564    -0.588
    65    O    -3.855    8.500    -0.653
    66    P    -4.759    7.267    -0.294
    67    O    -3.921    6.273    0.411
    68    O    -5.949    7.767    0.424
    69    O    -5.223    6.698    -1.691
    70    C    -5.808    5.372    -1.751
    71    H    -6.789    5.351    -1.220
    72    H    -5.139    4.616    -1.274
    73    C    -6.047    4.929    -3.203
    74    H    -6.762    5.610    -3.709
    75    O    -4.797    4.982    -3.952
    76    C    -4.749    3.914    -4.884
    77    H    -4.634    4.393    -5.886
    78    N    -3.590    3.003    -4.630
    79    C    -2.863    3.069    -3.458
    80    H    -3.217    3.795    -2.721
    81    C    -3.250    2.103    -5.612
    82    O    -3.880    1.995    -6.658
    83    N    -2.151    1.329    -5.345
    84    H    -1.875    0.719    -6.092
    85    C    -1.350    1.374    -4.226
    86    O    -0.372    0.633    -4.150
    87    C    -1.782    2.307    -3.229
    88    H    -1.218    2.379    -2.301
    89    C    -6.092    3.201    -4.823
    90    H    -5.985    2.112    -4.995
    91    O    -6.990    3.745    -5.775
    92    H    -7.859    3.360    -5.583
    93    C    -6.546    3.489    -3.395
    94    H    -5.960    2.852    -2.692
    95    O    -7.981    3.408    -3.209
    96    P    -8.612    2.616    -2.005
    97    O    -7.602    2.493    -0.931
    98    O    -9.903    3.229    -1.629
    99    O    -8.884    1.184    -2.597
    100    C    -9.771    0.916    -3.701
    101    H    -10.056    1.845    -4.248
    102    H    -10.709    0.461    -3.315
    103    C    -9.147    -0.066    -4.704
    104    H    -9.778    -0.161    -5.614
    105    O    -7.841    0.435    -5.114
    106    C    -6.926    -0.649    -5.199
    107    H    -6.454    -0.593    -6.207
    108    N    -5.866    -0.563    -4.177
    109    C    -4.652    -1.174    -4.248
    110    N    -2.466    -3.272    -5.884
    111    H    -1.474    -3.279    -5.982
    112    H    -2.999    -3.451    -6.710
    113    N    -4.234    -1.970    -5.244
    114    C    -3.015    -2.436    -5.029
    115    N    -2.237    -2.046    -3.969
    116    H    -1.366    -2.533    -3.821
    117    C    -2.644    -1.248    -2.911
    118    O    -1.886    -0.976    -1.975
    119    C    -3.966    -0.781    -3.111
    120    N    -4.746    0.041    -2.323
    121    C    -5.870    0.130    -2.989
    122    H    -6.727    0.702    -2.663
    123    C    -7.733    -1.916    -5.095
    124    H    -7.147    -2.761    -4.681
    125    O    -8.233    -2.268    -6.372
    126    H    -8.851    -2.999    -6.241
    127    C    -8.854    -1.480    -4.165
    128    H    -8.480    -1.344    -3.126
    129    O    -10.038    -2.306    -4.228
    130    P    -10.137    -3.574    -3.298
    131    O    -9.860    -3.151    -1.906
    132    O    -11.445    -4.221    -3.542
    133    O    -8.975    -4.524    -3.789
    134    C    -9.128    -5.334    -4.976
    135    H    -9.132    -4.701    -5.889
    136    H    -10.081    -5.904    -4.953
    137    C    -7.986    -6.344    -5.135
    138    H    -8.129    -6.959    -6.051
    139    O    -6.727    -5.627    -5.294
    140    C    -5.702    -6.315    -4.596
    141    H    -4.879    -6.496    -5.324
    142    N    -5.188    -5.506    -3.477
    143    C    -4.020    -5.703    -2.792
    144    N    -1.165    -7.563    -2.174
    145    H    -1.216    -8.282    -2.866
    146    H    -0.388    -7.554    -1.540
    147    N    -3.136    -6.696    -3.002
    148    C    -2.114    -6.646    -2.149
    149    N    -1.961    -5.658    -1.215
    150    H    -1.134    -5.675    -0.639
    151    C    -2.824    -4.593    -1.012
    152    O    -2.592    -3.739    -0.152
    153    C    -3.954    -4.675    -1.868
    154    N    -5.077    -3.865    -1.947
    155    C    -5.780    -4.396    -2.917
    156    H    -6.747    -4.037    -3.268
    157    C    -6.279    -7.644    -4.142
    158    H    -5.817    -8.013    -3.204
    159    O    -6.118    -8.613    -5.160
    160    H    -6.651    -9.377    -4.905
    161    C    -7.751    -7.288    -3.947
    162    H    -7.875    -6.670    -3.028
    163    O    -8.666    -8.410    -4.015
    164    P    -9.242    -9.025    -2.682
    165    O    -9.624    -7.942    -1.750
    166    O    -10.287    -10.020    -3.017
    167    O    -7.992    -9.770    -2.086
    168    C    -7.472    -10.949    -2.739
    169    H    -7.196    -10.739    -3.797
    170    H    -8.234    -11.761    -2.735
    171    C    -6.224    -11.481    -2.028
    172    H    -5.866    -12.422    -2.501
    173    O    -5.147    -10.511    -2.141
    174    C    -4.419    -10.483    -0.921
    175    H    -3.362    -10.694    -1.197
    176    N    -4.481    -9.151    -0.252
    177    C    -5.480    -8.260    -0.568
    178    H    -6.195    -8.591    -1.320
    179    C    -5.548    -7.049    -0.001
    180    H    -6.317    -6.325    -0.263
    181    C    -3.544    -8.814    0.719
    182    O    -2.677    -9.641    1.034
    183    N    -3.593    -7.594    1.303
    184    C    -4.559    -6.720    0.968
    185    N    -4.577    -5.525    1.554
    186    H    -3.863    -5.289    2.217
    187    H    -5.264    -4.833    1.333
    188    C    -4.934    -11.619    -0.045
    189    H    -4.888    -11.368    1.036
    190    O    -4.191    -12.802    -0.306
    191    H    -4.606    -13.551    0.160
    192    C    -6.381    -11.725    -0.520
    193    H    -6.987    -10.898    -0.092
    194    O    -7.009    -12.999    -0.278
    195    H    -7.138    -13.137    0.680
    196    H    3.507    -2.574    8.546
    197    O    3.343    -3.366    7.997
    198    C    4.164    -4.424    8.510
    199    H    3.875    -4.621    9.567
    200    H    5.232    -4.102    8.507
    201    C    4.022    -5.727    7.718
    202    H    4.711    -6.503    8.117
    203    O    2.664    -6.245    7.852
    204    C    2.266    -6.816    6.614
    205    H    1.950    -7.863    6.828
    206    N    1.138    -6.087    6.019
    207    C    0.292    -6.564    5.055
    208    N    -0.663    -9.071    2.873
    209    H    -0.012    -9.798    3.072
    210    H    -1.393    -9.240    2.205
    211    N    0.356    -7.778    4.481
    212    C    -0.599    -7.955    3.572
    213    N    -1.560    -7.016    3.298
    214    H    -2.272    -7.249    2.623
    215    C    -1.670    -5.768    3.897
    216    O    -2.574    -4.981    3.592
    217    C    -0.628    -5.555    4.837
    218    N    -0.352    -4.452    5.636
    219    C    0.716    -4.810    6.314
    220    H    1.231    -4.203    7.062
    221    C    3.472    -6.834    5.705
    222    H    3.201    -6.729    4.635
    223    O    4.197    -8.033    5.891
    224    H    4.972    -7.982    5.318
    225    C    4.247    -5.619    6.204
    226    H    3.747    -4.678    5.874
    227    O    5.663    -5.632    5.921
    228    P    6.181    -4.995    4.579
    229    O    5.559    -3.666    4.397
    230    O    7.659    -5.035    4.587
    231    O    5.629    -5.957    3.470
    232    C    6.184    -7.272    3.260
    233    H    6.121    -7.888    4.183
    234    H    7.261    -7.202    2.975
    235    C    5.440    -8.014    2.137
    236    H    5.864    -9.032    1.996
    237    O    4.026    -8.188    2.473
    238    C    3.242    -8.051    1.284
    239    H    2.657    -8.996    1.186
    240    N    2.295    -6.890    1.331
    241    C    2.536    -5.852    2.200
    242    H    3.417    -5.957    2.831
    243    C    1.718    -4.796    2.282
    244    H    1.884    -3.986    2.990
    245    C    1.220    -6.801    0.446
    246    O    1.049    -7.696    -0.395
    247    N    0.378    -5.741    0.515
    248    C    0.600    -4.755    1.404
    249    N    -0.246    -3.730    1.469
    250    H    -1.050    -3.707    0.869
    251    H    -0.129    -2.983    2.128
    252    C    4.209    -7.949    0.117
    253    H    3.814    -7.313    -0.699
    254    O    4.531    -9.223    -0.401
    255    H    5.188    -9.064    -1.092
    256    C    5.420    -7.308    0.775
    257    H    5.211    -6.236    0.991
    258    O    6.664    -7.535    0.075
    259    P    7.419    -6.355    -0.635
    260    O    7.004    -5.062    -0.055
    261    O    8.866    -6.650    -0.635
    262    O    6.899    -6.398    -2.115
    263    C    7.121    -7.503    -3.012
    264    H    7.263    -8.467    -2.467
    265    H    8.035    -7.317    -3.623
    266    C    5.933    -7.696    -3.964
    267    H    6.038    -8.643    -4.536
    268    O    4.701    -7.787    -3.184
    269    C    3.671    -7.104    -3.870
    270    H    2.829    -7.826    -3.970
    271    N    3.202    -5.927    -3.134
    272    C    1.925    -4.293    -2.414
    273    N    3.096    -4.216    -1.681
    274    C    3.825    -5.201    -2.147
    275    H    4.815    -5.469    -1.780
    276    N    -0.212    -3.854    -3.303
    277    C    -0.001    -4.877    -4.133
    278    H    -0.815    -5.097    -4.832
    279    N    1.053    -5.681    -4.215
    280    C    1.988    -5.334    -3.321
    281    C    0.747    -3.522    -2.402
    282    N    0.556    -2.487    -1.560
    283    H    1.236    -2.226    -0.871
    284    H    -0.308    -1.973    -1.581
    285    C    4.188    -6.752    -5.244
    286    H    3.740    -5.820    -5.645
    287    O    3.948    -7.830    -6.133
    288    H    4.416    -7.612    -6.947
    289    C    5.677    -6.566    -4.978
    290    H    5.867    -5.610    -4.435
    291    O    6.518    -6.731    -6.147
    292    P    6.863    -5.461    -7.019
    293    O    7.321    -4.385    -6.114
    294    O    7.784    -5.852    -8.110
    295    O    5.483    -5.011    -7.628
    296    C    4.787    -5.754    -8.651
    297    H    4.685    -6.824    -8.370
    298    H    5.356    -5.715    -9.607
    299    C    3.370    -5.200    -8.913
    300    H    2.813    -5.878    -9.593
    301    O    2.607    -5.114    -7.674
    302    C    1.761    -3.976    -7.708
    303    H    0.727    -4.377    -7.581
    304    N    2.077    -3.009    -6.607
    305    C    3.331    -2.961    -6.043
    306    H    4.068    -3.627    -6.488
    307    C    1.085    -2.165    -6.164
    308    O    -0.033    -2.150    -6.663
    309    N    1.426    -1.350    -5.113
    310    H    0.715    -0.723    -4.760
    311    C    2.633    -1.305    -4.456
    312    O    2.787    -0.561    -3.492
    313    C    3.634    -2.164    -5.007
    314    H    4.624    -2.152    -4.560
    315    C    1.887    -3.373    -9.098
    316    H    1.775    -2.273    -9.089
    317    O    0.928    -3.942    -9.973
    318    H    1.156    -3.623    -10.854
    319    C    3.302    -3.783    -9.496
    320    H    4.059    -3.183    -8.944
    321    O    3.545    -3.823    -10.920
    322    P    4.175    -2.584    -11.650
    323    O    5.257    -2.028    -10.808
    324    O    4.519    -2.979    -13.036
    325    O    3.011    -1.533    -11.679
    326    C    1.855    -1.671    -12.532
    327    H    1.384    -2.677    -12.422
    328    H    2.158    -1.547    -13.595
    329    C    0.780    -0.609    -12.223
    330    H    -0.095    -0.731    -12.898
    331    O    0.298    -0.772    -10.857
    332    C    0.052    0.511    -10.286
    333    H    -1.015    0.498    -9.968
    334    N    0.914    0.792    -9.103
    335    C    2.167    0.234    -9.018
    336    H    2.443    -0.432    -9.832
    337    C    2.962    0.448    -7.963
    338    H    3.935    -0.031    -7.863
    339    C    0.492    1.676    -8.115
    340    O    -0.607    2.237    -8.231
    341    N    1.280    1.909    -7.042
    342    C    2.481    1.314    -6.941
    343    N    3.221    1.536    -5.859
    344    H    2.873    2.148    -5.144
    345    H    4.125    1.126    -5.723
    346    C    0.214    1.542    -11.385
    347    H    0.592    2.511    -11.005
    348    O    -1.014    1.750    -12.054
    349    H    -0.822    2.320    -12.810
    350    C    1.232    0.858    -12.289
    351    H    2.234    0.896    -11.810
    352    O    1.231    1.317    -13.659
    353    P    2.326    2.345    -14.125
    354    O    3.626    1.983    -13.522
    355    O    2.283    2.463    -15.601
    356    O    1.852    3.710    -13.488
    357    C    0.609    4.302    -13.937
    358    H    -0.234    3.575    -13.884
    359    H    0.703    4.629    -14.998
    360    C    0.222    5.535    -13.104
    361    H    -0.691    6.015    -13.517
    362    O    -0.080    5.143    -11.733
    363    C    0.413    6.134    -10.838
    364    H    -0.462    6.468    -10.233
    365    N    1.470    5.585    -9.937
    366    C    2.172    4.450    -10.274
    367    H    1.910    4.011    -11.235
    368    C    1.719    6.236    -8.749
    369    O    1.124    7.254    -8.414
    370    N    2.675    5.651    -7.960
    371    H    2.914    6.164    -7.119
    372    C    3.423    4.528    -8.238
    373    O    4.285    4.151    -7.447
    374    C    3.093    3.892    -9.476
    375    H    3.623    2.987    -9.763
    376    C    0.907    7.303    -11.682
    377    H    1.782    7.814    -11.223
    378    O    -0.143    8.237    -11.886
    379    H    0.136    8.867    -12.572
    380    C    1.314    6.603    -12.974
    381    H    2.291    6.090    -12.842
    382    O    1.341    7.463    -14.129
    383    H    2.080    8.090    -14.049
 $END
