!*** FMO 5.3 (Gamess) INPUT generated by Facio 22.1.1.32 ***
 $CONTRL RUNTYP=ENERGY NPRINT=-5 ISPHER=1 MAXIT=200 $END
 $SYSTEM MWORDS=63 MEMDDI=63 $END
 $GDDI NGROUP=1 $END
 $SCF DIRSCF=.TRUE. NPUNCH=0 $END
!*** NumCPU : 2  MemPerNode : 512MB
 $PCM SOLVNT=WATER IEF=-10 ICOMP=2 ICAV=1 IDISP=1 IFMO=-1 $END
 $PCMCAV RADII=SUAHF $END
 $TESCAV NTSALL=60 $END
 $FMOPRP
    NAODIR=200
    NGRFMO(1)=1, 1, 0, 0, 0,   0, 0, 0, 0, 0
    IPIEDA=1
    NPRINT=9
 $END
 $FMO
      SCFTYP(1)=RHF
      MODGRD=10
      MODMUL=0
      MAXCAO=5
      MAXBND=14
      NLAYER=1
      MPLEVL(1)=2
      NFRAG=12
      ICHARG(1)=-1, -1, -1, -1, -1, 0, -1, -1, -1, -1, -1, 0
      FRGNAM(1)=F1, F2, F3, F4, F5, F6, F7, F8, F9, F10, F11, F12
      indat(1)=0
               1   -35   0
               36   -69   0
               70   -99   0
               100   -133   0
               134   -167   0
               168   -197   0
               198   -231   0
               232   -262   0
               263   -295   0
               296   -325   0
               326   -356   0
               357   -383   0
 $END

 $FMOBND
   -36   35       6-31G*    MINI
   -70   69       6-31G*    MINI
   -100   99       6-31G*    MINI
   -134   133       6-31G*    MINI
   -168   167       6-31G*    MINI
   -198   197       6-31G*    MINI
   -232   231       6-31G*    MINI
   -263   262       6-31G*    MINI
   -296   295       6-31G*    MINI
   -326   325       6-31G*    MINI
   -357   356       6-31G*    MINI
 $END
 $FMOHYB
 6-31G*      15   5
   1 0  -0.065034   0.288264   0.000000   0.000000   0.604412
         0.290129   0.000000   0.000000   0.319045  -0.017106
        -0.017106   0.057934   0.000000   0.000000   0.000000
   0 1  -0.065040   0.288293   0.569832   0.000000  -0.201456
         0.290147   0.300783   0.000000  -0.106342   0.049598
        -0.017106  -0.008771   0.000000  -0.027223   0.000000
   0 1  -0.065039   0.288293  -0.284916  -0.493490  -0.201455
         0.290145  -0.150392  -0.260486  -0.106340  -0.000427
         0.032923  -0.008771   0.033353   0.013612   0.023576
   0 1  -0.065039   0.288293  -0.284916   0.493490  -0.201455
         0.290145  -0.150392   0.260486  -0.106340  -0.000427
         0.032923  -0.008771  -0.033353   0.013612  -0.023576
   0 1   1.010938  -0.011975   0.000000   0.000000   0.000000
        -0.054085   0.000000   0.000000  -0.000000  -0.003174
        -0.003174  -0.003174   0.000000   0.000000   0.000000
 MINI         5   5
   1 0  -0.104883   0.308874   0.000000   0.000000   0.521806
   0 1  -0.104883   0.308874   0.491961   0.000000  -0.173934
   0 1  -0.104883   0.308876  -0.245980  -0.426050  -0.173933
   0 1  -0.104883   0.308876  -0.245980   0.426050  -0.173933
   0 1   0.988209   0.063992   0.000000   0.000000   0.000000
 $END
 
 $DATA
 FMO calculation
 C1 
 H.1-1    1
      N31 6
   
 O.1-1    8
      N31 6
      d 1
      1 0.800 1.0
   
 C.1-1    6
      N31 6
      d 1
      1 0.800 1.0
   
 N.1-1    7
      N31 6
      d 1
      1 0.800 1.0
   
 P.1-1   15
      N31 6
      d 1
      1 0.550 1.0
   
 $END
 $FMOXYZ
    1    H    5.166    8.550    3.008
    2    O    4.752    8.797    2.159
    3    C    4.297    10.150    2.307
    4    H    5.182    10.815    2.445
    5    H    3.663    10.230    3.219
    6    C    3.491    10.643    1.102
    7    H    3.162    11.693    1.250
    8    O    4.312    10.614    -0.110
    9    C    3.503    10.209    -1.204
    10    H    3.591    11.004    -1.981
    11    N    3.965    8.935    -1.767
    12    C    4.336    7.240    -3.120
    13    N    5.071    6.985    -1.967
    14    C    4.810    8.013    -1.193
    15    H    5.216    8.167    -0.189
    16    N    3.373    7.067    -5.281
    17    C    2.752    8.220    -5.011
    18    H    2.113    8.609    -5.812
    19    N    2.843    8.994    -3.923
    20    C    3.649    8.436    -3.005
    21    C    4.192    6.534    -4.336
    22    N    4.839    5.385    -4.612
    23    H    5.486    4.975    -3.961
    24    H    4.695    4.914    -5.485
    25    C    2.073    10.143    -0.714
    26    H    1.478    9.371    -1.240
    27    O    1.459    11.405    -0.871
    28    H    0.575    11.326    -0.493
    29    C    2.260    9.796    0.759
    30    H    2.561    8.729    0.874
    31    O    1.159    10.161    1.624
    32    P    -0.001    9.127    1.878
    33    O    0.594    7.838    2.289
    34    O    -0.982    9.727    2.808
    35    O    -0.653    8.968    0.452
    36    C    -1.486    10.032    -0.069
    37    H    -0.956    11.014    -0.066
    38    H    -2.403    10.152    0.559
    39    C    -1.944    9.733    -1.502
    40    H    -2.496    10.605    -1.924
    41    O    -0.800    9.475    -2.365
    42    C    -1.133    8.444    -3.286
    43    H    -0.964    8.860    -4.304
    44    N    -0.283    7.259    -3.124
    45    C    -0.129    6.250    -4.036
    46    N    -0.987    4.746    -7.039
    47    H    -1.673    5.370    -7.410
    48    H    -0.794    3.889    -7.524
    49    N    -0.749    6.162    -5.226
    50    C    -0.434    5.043    -5.877
    51    N    0.465    4.127    -5.400
    52    H    0.665    3.322    -5.973
    53    C    1.149    4.208    -4.195
    54    O    1.941    3.321    -3.861
    55    C    0.781    5.376    -3.471
    56    N    1.185    5.825    -2.219
    57    C    0.519    6.943    -2.053
    58    H    0.565    7.585    -1.172
    59    C    -2.602    8.133    -3.108
    60    H    -2.848    7.066    -3.301
    61    O    -3.366    8.974    -3.951
    62    H    -4.281    8.890    -3.659
    63    C    -2.823    8.485    -1.644
    64    H    -2.377    7.707    -0.988
    65    O    -4.186    8.801    -1.293
    66    P    -5.186    7.663    -0.869
    67    O    -4.642    6.962    0.316
    68    O    -6.528    8.271    -0.725
    69    O    -5.202    6.645    -2.071
    70    C    -5.946    6.894    -3.285
    71    H    -5.528    7.759    -3.846
    72    H    -7.010    7.135    -3.066
    73    C    -5.910    5.681    -4.226
    74    H    -6.484    5.909    -5.154
    75    O    -4.540    5.418    -4.641
    76    C    -4.362    4.024    -4.818
    77    H    -4.057    3.901    -5.883
    78    N    -3.315    3.482    -3.914
    79    C    -3.096    4.051    -2.683
    80    H    -3.748    4.888    -2.435
    81    C    -2.566    2.410    -4.344
    82    O    -2.727    1.886    -5.438
    83    N    -1.600    1.987    -3.466
    84    H    -1.062    1.195    -3.757
    85    C    -1.281    2.551    -2.248
    86    O    -0.341    2.113    -1.594
    87    C    -2.118    3.646    -1.863
    88    H    -1.928    4.139    -0.913
    89    C    -5.706    3.359    -4.606
    90    H    -5.612    2.363    -4.125
    91    O    -6.395    3.219    -5.837
    92    H    -7.166    2.666    -5.614
    93    C    -6.423    4.342    -3.676
    94    H    -6.048    4.246    -2.633
    95    O    -7.865    4.316    -3.729
    96    P    -8.673    3.056    -3.251
    97    O    -8.225    2.715    -1.877
    98    O    -10.114    3.340    -3.429
    99    O    -8.303    1.922    -4.286
    100    C    -8.352    0.528    -3.901
    101    H    -9.409    0.203    -3.767
    102    H    -7.826    0.357    -2.934
    103    C    -7.707    -0.397    -4.957
    104    H    -8.305    -0.382    -5.893
    105    O    -6.373    0.067    -5.341
    106    C    -5.511    -1.060    -5.483
    107    H    -5.027    -0.953    -6.479
    108    N    -4.455    -1.118    -4.447
    109    C    -4.389    -0.510    -3.205
    110    N    -5.706    1.690    -0.892
    111    H    -5.526    1.996    0.045
    112    H    -6.572    1.953    -1.330
    113    N    -5.312    0.292    -2.653
    114    C    -4.945    0.794    -1.494
    115    N    -3.789    0.429    -0.855
    116    H    -3.630    0.770    0.080
    117    C    -2.845    -0.464    -1.355
    118    O    -1.827    -0.749    -0.718
    119    C    -3.189    -0.903    -2.662
    120    N    -2.499    -1.704    -3.545
    121    C    -3.289    -1.831    -4.576
    122    H    -3.067    -2.432    -5.460
    123    C    -6.384    -2.296    -5.469
    124    H    -5.863    -3.191    -5.069
    125    O    -6.862    -2.572    -6.775
    126    H    -7.586    -3.208    -6.683
    127    C    -7.500    -1.856    -4.537
    128    H    -7.115    -1.823    -3.490
    129    O    -8.724    -2.605    -4.697
    130    P    -9.296    -3.465    -3.516
    131    O    -8.886    -2.861    -2.234
    132    O    -10.746    -3.655    -3.727
    133    O    -8.571    -4.846    -3.686
    134    C    -8.785    -5.653    -4.867
    135    H    -8.807    -5.036    -5.794
    136    H    -9.757    -6.190    -4.794
    137    C    -7.661    -6.688    -5.032
    138    H    -7.819    -7.308    -5.942
    139    O    -6.390    -5.988    -5.193
    140    C    -5.382    -6.672    -4.465
    141    H    -4.547    -6.869    -5.175
    142    N    -4.871    -5.858    -3.346
    143    C    -3.725    -6.073    -2.621
    144    N    -0.936    -7.993    -1.886
    145    H    -1.002    -8.734    -2.552
    146    H    -0.165    -7.980    -1.244
    147    N    -2.857    -7.093    -2.787
    148    C    -1.854    -7.044    -1.914
    149    N    -1.714    -6.047    -0.985
    150    H    -0.904    -6.068    -0.387
    151    C    -2.560    -4.957    -0.823
    152    O    -2.342    -4.105    0.044
    153    C    -3.667    -5.031    -1.710
    154    N    -4.767    -4.193    -1.841
    155    C    -5.446    -4.718    -2.828
    156    H    -6.373    -4.315    -3.233
    157    C    -5.967    -7.991    -4.008
    158    H    -5.513    -8.354    -3.066
    159    O    -5.801    -8.967    -5.018
    160    H    -6.328    -9.733    -4.756
    161    C    -7.436    -7.625    -3.831
    162    H    -7.561    -6.999    -2.917
    163    O    -8.356    -8.746    -3.891
    164    P    -8.884    -9.375    -2.544
    165    O    -9.221    -8.280    -1.610
    166    O    -9.956    -10.353    -2.850
    167    O    -7.613    -10.127    -1.991
    168    C    -7.076    -11.277    -2.683
    169    H    -6.845    -11.046    -3.747
    170    H    -7.810    -12.112    -2.672
    171    C    -5.800    -11.798    -2.015
    172    H    -5.431    -12.716    -2.517
    173    O    -4.746    -10.804    -2.117
    174    C    -3.991    -10.802    -0.913
    175    H    -2.936    -10.981    -1.216
    176    N    -4.073    -9.500    -0.193
    177    C    -5.098    -8.621    -0.458
    178    H    -5.817    -8.939    -1.209
    179    C    -5.178    -7.431    0.149
    180    H    -5.962    -6.714    -0.087
    181    C    -3.125    -9.175    0.770
    182    O    -2.225    -9.988    1.027
    183    N    -3.196    -7.985    1.409
    184    C    -4.185    -7.120    1.120
    185    N    -4.218    -5.950    1.752
    186    H    -3.491    -5.719    2.402
    187    H    -4.905    -5.254    1.543
    188    C    -4.467    -11.977    -0.069
    189    H    -4.405    -11.761    1.020
    190    O    -3.716    -13.144    -0.377
    191    H    -4.107    -13.908    0.085
    192    C    -5.922    -12.089    -0.514
    193    H    -6.528    -11.282    -0.050
    194    O    -6.532    -13.376    -0.296
    195    H    -6.594    -13.565    0.659
    196    H    3.885    -3.056    8.685
    197    O    3.780    -3.812    8.077
    198    C    4.609    -4.870    8.576
    199    H    4.324    -5.088    9.630
    200    H    5.672    -4.535    8.577
    201    C    4.489    -6.149    7.748
    202    H    5.207    -6.922    8.100
    203    O    3.148    -6.707    7.892
    204    C    2.735    -7.236    6.642
    205    H    2.451    -8.298    6.813
    206    N    1.578    -6.514    6.095
    207    C    0.723    -6.984    5.133
    208    N    -0.214    -9.432    2.876
    209    H    0.455    -10.154    3.036
    210    H    -0.939    -9.584    2.199
    211    N    0.799    -8.183    4.525
    212    C    -0.164    -8.347    3.620
    213    N    -1.153    -7.425    3.399
    214    H    -1.856    -7.639    2.709
    215    C    -1.278    -6.197    4.036
    216    O    -2.205    -5.424    3.774
    217    C    -0.216    -5.984    4.954
    218    N    0.058    -4.894    5.769
    219    C    1.139    -5.250    6.427
    220    H    1.652    -4.650    7.183
    221    C    3.924    -7.182    5.708
    222    H    3.625    -7.052    4.650
    223    O    4.696    -8.358    5.838
    224    H    5.433    -8.269    5.221
    225    C    4.669    -5.959    6.234
    226    H    4.128    -5.028    5.947
    227    O    6.076    -5.900    5.922
    228    P    6.574    -5.225    4.591
    229    O    5.955    -3.889    4.437
    230    O    8.050    -5.265    4.576
    231    O    6.017    -6.158    3.460
    232    C    6.597    -7.454    3.199
    233    H    6.585    -8.090    4.111
    234    H    7.661    -7.357    2.876
    235    C    5.824    -8.190    2.093
    236    H    6.256    -9.196    1.915
    237    O    4.436    -8.388    2.495
    238    C    3.595    -8.252    1.349
    239    H    3.032    -9.213    1.270
    240    N    2.621    -7.128    1.455
    241    C    2.866    -6.086    2.315
    242    H    3.781    -6.159    2.900
    243    C    2.009    -5.066    2.443
    244    H    2.171    -4.255    3.149
    245    C    1.498    -7.085    0.629
    246    O    1.316    -7.990    -0.199
    247    N    0.622    -6.062    0.743
    248    C    0.851    -5.068    1.618
    249    N    -0.035    -4.081    1.719
    250    H    -0.838    -4.080    1.117
    251    H    0.046    -3.357    2.407
    252    C    4.495    -8.114    0.139
    253    H    4.056    -7.474    -0.654
    254    O    4.797    -9.388    -0.393
    255    H    5.451    -9.237    -1.087
    256    C    5.731    -7.463    0.744
    257    H    5.537    -6.392    0.981
    258    O    6.942    -7.670    -0.014
    259    P    7.417    -6.578    -1.037
    260    O    7.202    -5.245    -0.435
    261    O    8.790    -6.906    -1.467
    262    O    6.450    -6.742    -2.269
    263    C    6.466    -7.954    -3.066
    264    H    6.414    -8.869    -2.433
    265    H    7.405    -8.023    -3.663
    266    C    5.281    -7.991    -4.038
    267    H    5.290    -8.910    -4.658
    268    O    4.034    -7.997    -3.289
    269    C    3.084    -7.205    -3.975
    270    H    2.181    -7.839    -4.142
    271    N    2.716    -6.035    -3.188
    272    C    1.580    -4.343    -2.392
    273    N    2.770    -4.370    -1.680
    274    C    3.409    -5.393    -2.190
    275    H    4.389    -5.742    -1.868
    276    N    -0.558    -3.790    -3.185
    277    C    -0.433    -4.769    -4.068
    278    H    -1.284    -4.898    -4.745
    279    N    0.581    -5.617    -4.219
    280    C    1.550    -5.356    -3.333
    281    C    0.442    -3.520    -2.317
    282    N    0.301    -2.500    -1.455
    283    H    0.999    -2.255    -0.782
    284    H    -0.595    -2.043    -1.405
    285    C    3.680    -6.814    -5.306
    286    H    3.325    -5.825    -5.666
    287    O    3.383    -7.804    -6.270
    288    H    3.811    -7.517    -7.086
    289    C    5.167    -6.778    -4.974
    290    H    5.409    -5.874    -4.370
    291    O    6.057    -6.946    -6.098
    292    P    6.498    -5.687    -6.933
    293    O    6.902    -4.597    -6.015
    294    O    7.491    -6.111    -7.942
    295    O    5.193    -5.218    -7.655
    296    C    4.575    -5.903    -8.756
    297    H    4.405    -6.976    -8.517
    298    H    5.233    -5.861    -9.653
    299    C    3.222    -5.256    -9.113
    300    H    2.691    -5.859    -9.880
    301    O    2.357    -5.181    -7.938
    302    C    1.587    -3.988    -7.984
    303    H    0.523    -4.322    -7.985
    304    N    1.856    -3.104    -6.804
    305    C    3.093    -3.084    -6.205
    306    H    3.834    -3.742    -6.652
    307    C    0.829    -2.330    -6.309
    308    O    -0.284    -2.308    -6.821
    309    N    1.141    -1.573    -5.205
    310    H    0.364    -1.143    -4.743
    311    C    2.340    -1.551    -4.524
    312    O    2.469    -0.867    -3.512
    313    C    3.366    -2.359    -5.111
    314    H    4.342    -2.396    -4.632
    315    C    1.892    -3.308    -9.310
    316    H    1.873    -2.203    -9.228
    317    O    0.977    -3.722    -10.308
    318    H    1.256    -3.289    -11.125
    319    C    3.304    -3.810    -9.612
    320    H    4.048    -3.303    -8.957
    321    O    3.676    -3.795    -11.009
    322    P    4.413    -2.535    -11.595
    323    O    5.440    -2.088    -10.632
    324    O    4.867    -2.850    -12.965
    325    O    3.289    -1.442    -11.663
    326    C    2.249    -1.478    -12.661
    327    H    1.712    -2.454    -12.649
    328    H    2.685    -1.341    -13.678
    329    C    1.223    -0.357    -12.434
    330    H    0.429    -0.385    -13.210
    331    O    0.564    -0.536    -11.144
    332    C    0.335    0.745    -10.561
    333    H    -0.763    0.799    -10.379
    334    N    1.056    0.924    -9.266
    335    C    2.280    0.331    -9.072
    336    H    2.633    -0.298    -9.885
    337    C    2.953    0.464    -7.922
    338    H    3.905    -0.035    -7.741
    339    C    0.561    1.790    -8.299
    340    O    -0.468    2.438    -8.540
    341    N    1.191    1.894    -7.103
    342    C    2.363    1.266    -6.903
    343    N    2.984    1.407    -5.734
    344    H    2.598    2.022    -5.042
    345    H    3.884    1.010    -5.551
    346    C    0.706    1.796    -11.592
    347    H    1.092    2.724    -11.128
    348    O    -0.410    2.108    -12.405
    349    H    -0.100    2.701    -13.102
    350    C    1.789    1.068    -12.380
    351    H    2.727    1.012    -11.783
    352    O    1.999    1.556    -13.719
    353    P    3.175    2.556    -14.006
    354    O    4.375    2.163    -13.238
    355    O    3.335    2.690    -15.470
    356    O    2.666    3.918    -13.415
    357    C    1.561    4.623    -14.018
    358    H    0.659    3.975    -14.113
    359    H    1.842    4.975    -15.040
    360    C    1.175    5.855    -13.186
    361    H    0.361    6.427    -13.681
    362    O    0.684    5.447    -11.874
    363    C    1.139    6.373    -10.892
    364    H    0.220    6.764    -10.394
    365    N    2.023    5.721    -9.883
    366    C    2.682    4.546    -10.169
    367    H    2.503    4.146    -11.164
    368    C    2.195    6.342    -8.666
    369    O    1.670    7.415    -8.391
    370    N    3.003    5.671    -7.784
    371    H    3.157    6.138    -6.897
    372    C    3.664    4.479    -7.989
    373    O    4.336    3.983    -7.087
    374    C    3.473    3.916    -9.290
    375    H    3.957    2.973    -9.535
    376    C    1.830    7.517    -11.628
    377    H    2.677    7.933    -11.043
    378    O    0.891    8.542    -11.921
    379    H    1.294    9.158    -12.558
    380    C    2.332    6.815    -12.887
    381    H    3.236    6.214    -12.662
    382    O    2.554    7.690    -14.005
    383    H    3.307    8.281    -13.824
 $END
