!*** FMO 5.3 (Gamess) INPUT generated by Facio 22.1.1.32 ***
 $CONTRL RUNTYP=ENERGY NPRINT=-5 ISPHER=1 MAXIT=200 $END
 $SYSTEM MWORDS=63 MEMDDI=63 $END
 $GDDI NGROUP=1 $END
 $SCF DIRSCF=.TRUE. NPUNCH=0 $END
!*** NumCPU : 2  MemPerNode : 512MB
 $PCM SOLVNT=WATER IEF=-10 ICOMP=2 ICAV=1 IDISP=1 IFMO=-1 $END
 $PCMCAV RADII=SUAHF $END
 $TESCAV NTSALL=60 $END
 $FMOPRP
    NAODIR=200
    NGRFMO(1)=1, 1, 0, 0, 0,   0, 0, 0, 0, 0
    IPIEDA=1
    NPRINT=9
 $END
 $FMO
      SCFTYP(1)=RHF
      MODGRD=10
      MODMUL=0
      MAXCAO=5
      MAXBND=14
      NLAYER=1
      MPLEVL(1)=2
      NFRAG=12
      ICHARG(1)=-1, -1, -1, -1, -1, 0, -1, -1, -1, -1, -1, 0
      FRGNAM(1)=F1, F2, F3, F4, F5, F6, F7, F8, F9, F10, F11, F12
      indat(1)=0
               1   -35   0
               36   -69   0
               70   -99   0
               100   -133   0
               134   -167   0
               168   -197   0
               198   -231   0
               232   -262   0
               263   -295   0
               296   -325   0
               326   -356   0
               357   -383   0
 $END

 $FMOBND
   -36   35       6-31G*    MINI
   -70   69       6-31G*    MINI
   -100   99       6-31G*    MINI
   -134   133       6-31G*    MINI
   -168   167       6-31G*    MINI
   -198   197       6-31G*    MINI
   -232   231       6-31G*    MINI
   -263   262       6-31G*    MINI
   -296   295       6-31G*    MINI
   -326   325       6-31G*    MINI
   -357   356       6-31G*    MINI
 $END
 $FMOHYB
 6-31G*      15   5
   1 0  -0.065034   0.288264   0.000000   0.000000   0.604412
         0.290129   0.000000   0.000000   0.319045  -0.017106
        -0.017106   0.057934   0.000000   0.000000   0.000000
   0 1  -0.065040   0.288293   0.569832   0.000000  -0.201456
         0.290147   0.300783   0.000000  -0.106342   0.049598
        -0.017106  -0.008771   0.000000  -0.027223   0.000000
   0 1  -0.065039   0.288293  -0.284916  -0.493490  -0.201455
         0.290145  -0.150392  -0.260486  -0.106340  -0.000427
         0.032923  -0.008771   0.033353   0.013612   0.023576
   0 1  -0.065039   0.288293  -0.284916   0.493490  -0.201455
         0.290145  -0.150392   0.260486  -0.106340  -0.000427
         0.032923  -0.008771  -0.033353   0.013612  -0.023576
   0 1   1.010938  -0.011975   0.000000   0.000000   0.000000
        -0.054085   0.000000   0.000000  -0.000000  -0.003174
        -0.003174  -0.003174   0.000000   0.000000   0.000000
 MINI         5   5
   1 0  -0.104883   0.308874   0.000000   0.000000   0.521806
   0 1  -0.104883   0.308874   0.491961   0.000000  -0.173934
   0 1  -0.104883   0.308876  -0.245980  -0.426050  -0.173933
   0 1  -0.104883   0.308876  -0.245980   0.426050  -0.173933
   0 1   0.988209   0.063992   0.000000   0.000000   0.000000
 $END
 
 $DATA
 FMO calculation
 C1 
 H.1-1    1
      N31 6
   
 O.1-1    8
      N31 6
      d 1
      1 0.800 1.0
   
 C.1-1    6
      N31 6
      d 1
      1 0.800 1.0
   
 N.1-1    7
      N31 6
      d 1
      1 0.800 1.0
   
 P.1-1   15
      N31 6
      d 1
      1 0.550 1.0
   
 $END
 $FMOXYZ
    1    H    2.075    13.909    1.517
    2    O    1.743    13.606    0.652
    3    C    0.814    14.599    0.191
    4    H    1.323    15.588    0.143
    5    H    -0.019    14.692    0.927
    6    C    0.222    14.300    -1.191
    7    H    -0.419    15.154    -1.508
    8    O    1.266    14.127    -2.195
    9    C    0.804    13.223    -3.187
    10    H    0.778    13.795    -4.143
    11    N    1.700    12.082    -3.361
    12    C    2.669    10.284    -4.168
    13    N    3.431    10.677    -3.072
    14    C    2.815    11.749    -2.627
    15    H    3.126    12.352    -1.770
    16    N    1.850    9.111    -6.057
    17    C    0.855    10.001    -6.087
    18    H    0.117    9.862    -6.887
    19    N    0.663    11.066    -5.309
    20    C    1.602    11.141    -4.353
    21    C    2.801    9.227    -5.093
    22    N    3.832    8.362    -5.090
    23    H    4.532    8.379    -4.370
    24    H    3.792    7.556    -5.688
    25    C    -0.603    12.806    -2.810
    26    H    -0.837    11.750    -3.062
    27    O    -1.509    13.673    -3.465
    28    H    -1.449    14.550    -3.064
    29    C    -0.600    13.016    -1.295
    30    H    -0.016    12.216    -0.782
    31    O    -1.893    13.230    -0.701
    32    P    -2.756    11.997    -0.239
    33    O    -4.050    12.520    0.246
    34    O    -1.949    11.214    0.726
    35    O    -2.982    11.152    -1.543
    36    C    -3.875    11.665    -2.565
    37    H    -3.546    12.652    -2.947
    38    H    -4.898    11.817    -2.149
    39    C    -3.978    10.706    -3.753
    40    H    -4.565    11.147    -4.589
    41    O    -2.668    10.366    -4.278
    42    C    -2.705    9.062    -4.823
    43    H    -2.644    9.198    -5.926
    44    N    -1.557    8.245    -4.397
    45    C    -1.117    7.088    -4.989
    46    N    -1.440    4.702    -7.461
    47    H    -2.247    5.017    -7.954
    48    H    -0.952    3.882    -7.777
    49    N    -1.681    6.485    -6.044
    50    C    -1.034    5.386    -6.409
    51    N    0.078    4.912    -5.758
    52    H    0.511    4.063    -6.089
    53    C    0.678    5.508    -4.652
    54    O    1.676    5.013    -4.117
    55    C    -0.002    6.702    -4.272
    56    N    0.257    7.604    -3.245
    57    C    -0.698    8.499    -3.355
    58    H    -0.842    9.370    -2.709
    59    C    -4.046    8.441    -4.474
    60    H    -3.911    7.415    -4.086
    61    O    -4.897    8.399    -5.602
    62    H    -5.772    8.138    -5.270
    63    C    -4.591    9.366    -3.383
    64    H    -4.132    9.079    -2.411
    65    O    -6.035    9.461    -3.344
    66    P    -6.809    9.505    -1.977
    67    O    -7.801    10.607    -2.028
    68    O    -5.866    9.518    -0.844
    69    O    -7.616    8.150    -1.962
    70    C    -7.194    7.007    -1.184
    71    H    -8.036    6.679    -0.534
    72    H    -6.346    7.227    -0.492
    73    C    -6.784    5.826    -2.066
    74    H    -7.610    5.501    -2.732
    75    O    -5.658    6.208    -2.896
    76    C    -4.658    5.207    -2.846
    77    H    -4.394    4.982    -3.908
    78    N    -3.452    5.668    -2.089
    79    C    -3.475    6.801    -1.296
    80    H    -4.418    7.352    -1.276
    81    C    -2.291    4.946    -2.242
    82    O    -2.213    3.975    -2.988
    83    N    -1.225    5.395    -1.506
    84    H    -0.374    4.849    -1.584
    85    C    -1.169    6.523    -0.711
    86    O    -0.122    6.829    -0.143
    87    C    -2.399    7.253    -0.638
    88    H    -2.425    8.177    -0.063
    89    C    -5.297    3.989    -2.214
    90    H    -4.559    3.357    -1.676
    91    O    -5.978    3.206    -3.174
    92    H    -6.510    2.579    -2.660
    93    C    -6.274    4.637    -1.246
    94    H    -5.726    5.063    -0.375
    95    O    -7.385    3.818    -0.840
    96    P    -7.178    2.687    0.229
    97    O    -8.500    2.381    0.821
    98    O    -6.083    3.060    1.156
    99    O    -6.682    1.468    -0.637
    100    C    -6.856    0.119    -0.124
    101    H    -7.504    0.076    0.787
    102    H    -5.865    -0.296    0.178
    103    C    -7.500    -0.846    -1.140
    104    H    -8.250    -1.463    -0.602
    105    O    -8.239    -0.129    -2.154
    106    C    -8.211    -0.863    -3.344
    107    H    -9.029    -1.612    -3.261
    108    N    -8.445    0.004    -4.485
    109    C    -9.502    -0.059    -5.347
    110    N    -12.441    -1.554    -6.394
    111    H    -13.078    -1.501    -7.166
    112    H    -12.523    -2.310    -5.743
    113    N    -10.512    -0.948    -5.301
    114    C    -11.393    -0.759    -6.280
    115    N    -11.291    0.250    -7.204
    116    H    -11.988    0.302    -7.931
    117    C    -10.265    1.187    -7.265
    118    O    -10.232    2.068    -8.133
    119    C    -9.308    0.979    -6.237
    120    N    -8.141    1.672    -5.942
    121    C    -7.663    1.058    -4.886
    122    H    -6.738    1.317    -4.370
    123    C    -6.872    -1.546    -3.418
    124    H    -6.097    -0.902    -3.894
    125    O    -6.987    -2.768    -4.117
    126    H    -7.457    -3.372    -3.521
    127    C    -6.509    -1.734    -1.928
    128    H    -5.508    -1.269    -1.785
    129    O    -6.440    -3.083    -1.437
    130    P    -7.653    -4.039    -1.191
    131    O    -8.847    -3.509    -1.882
    132    O    -7.760    -4.287    0.259
    133    O    -7.211    -5.319    -1.973
    134    C    -7.992    -5.789    -3.099
    135    H    -8.252    -4.975    -3.814
    136    H    -8.946    -6.229    -2.732
    137    C    -7.246    -6.870    -3.880
    138    H    -7.918    -7.363    -4.614
    139    O    -6.163    -6.245    -4.632
    140    C    -4.940    -6.895    -4.327
    141    H    -4.373    -6.993    -5.281
    142    N    -4.143    -6.092    -3.373
    143    C    -3.004    -6.460    -2.710
    144    N    -0.659    -8.857    -1.929
    145    H    -0.911    -9.625    -2.516
    146    H    0.137    -8.920    -1.320
    147    N    -2.392    -7.649    -2.797
    148    C    -1.356    -7.741    -1.981
    149    N    -0.938    -6.718    -1.170
    150    H    -0.120    -6.852    -0.594
    151    C    -1.528    -5.467    -1.078
    152    O    -1.102    -4.591    -0.322
    153    C    -2.642    -5.366    -1.947
    154    N    -3.510    -4.314    -2.153
    155    C    -4.382    -4.782    -3.010
    156    H    -5.250    -4.233    -3.380
    157    C    -5.318    -8.275    -3.810
    158    H    -4.558    -8.745    -3.157
    159    O    -5.604    -9.131    -4.905
    160    H    -6.368    -8.771    -5.381
    161    C    -6.561    -7.933    -2.994
    162    H    -6.214    -7.448    -2.051
    163    O    -7.456    -9.039    -2.761
    164    P    -8.175    -9.209    -1.364
    165    O    -9.435    -9.946    -1.613
    166    O    -8.305    -7.908    -0.689
    167    O    -7.191    -10.104    -0.519
    168    C    -6.936    -11.474    -0.906
    169    H    -6.964    -11.616    -2.014
    170    H    -7.699    -12.140    -0.442
    171    C    -5.549    -11.938    -0.444
    172    H    -5.314    -12.946    -0.844
    173    O    -4.522    -11.029    -0.933
    174    C    -3.532    -10.864    0.071
    175    H    -2.569    -11.153    -0.414
    176    N    -3.434    -9.461    0.559
    177    C    -4.358    -8.505    0.186
    178    H    -5.148    -8.835    -0.493
    179    C    -4.262    -7.237    0.611
    180    H    -4.966    -6.464    0.307
    181    C    -2.382    -9.109    1.397
    182    O    -1.551    -9.968    1.726
    183    N    -2.285    -7.845    1.847
    184    C    -3.179    -6.915    1.478
    185    N    -3.020    -5.684    1.949
    186    H    -2.196    -5.526    2.499
    187    H    -3.582    -4.910    1.661
    188    C    -3.840    -11.855    1.188
    189    H    -3.565    -11.462    2.192
    190    O    -3.169    -13.085    0.952
    191    H    -3.494    -13.743    1.589
    192    C    -5.352    -11.979    1.072
    193    H    -5.848    -11.080    1.494
    194    O    -5.902    -13.188    1.631
    195    H    -5.715    -13.223    2.587
    196    H    5.768    -3.155    7.109
    197    O    5.490    -4.014    6.745
    198    C    6.637    -4.875    6.779
    199    H    7.124    -4.768    7.772
    200    H    7.357    -4.513    6.010
    201    C    6.351    -6.379    6.545
    202    H    7.157    -6.999    6.990
    203    O    5.091    -6.799    7.161
    204    C    4.367    -7.618    6.250
    205    H    4.032    -8.528    6.800
    206    N    3.186    -6.904    5.721
    207    C    2.181    -7.430    4.954
    208    N    0.703    -10.114    3.347
    209    H    1.334    -10.864    3.518
    210    H    -0.096    -10.251    2.756
    211    N    2.091    -8.703    4.536
    212    C    0.991    -8.915    3.811
    213    N    0.082    -7.932    3.522
    214    H    -0.702    -8.152    2.927
    215    C    0.149    -6.612    3.943
    216    O    -0.716    -5.774    3.665
    217    C    1.304    -6.383    4.725
    218    N    1.743    -5.222    5.335
    219    C    2.857    -5.578    5.922
    220    H    3.470    -4.925    6.538
    221    C    5.341    -8.019    5.155
    222    H    4.834    -8.235    4.193
    223    O    6.102    -9.147    5.555
    224    H    6.826    -9.256    4.919
    225    C    6.217    -6.777    5.062
    226    H    5.668    -5.945    4.562
    227    O    7.525    -7.015    4.499
    228    P    7.804    -6.788    2.971
    229    O    9.178    -7.238    2.666
    230    O    7.482    -5.378    2.662
    231    O    6.784    -7.709    2.227
    232    C    7.087    -9.032    1.732
    233    H    7.402    -9.705    2.563
    234    H    7.916    -8.989    0.989
    235    C    5.872    -9.670    1.024
    236    H    6.016    -10.762    0.875
    237    O    4.656    -9.501    1.810
    238    C    3.581    -9.157    0.949
    239    H    2.769    -9.892    1.156
    240    N    3.061    -7.779    1.183
    241    C    3.731    -6.879    1.975
    242    H    4.637    -7.249    2.440
    243    C    3.274    -5.636    2.174
    244    H    3.788    -4.916    2.809
    245    C    1.871    -7.399    0.586
    246    O    1.275    -8.224    -0.120
    247    N    1.377    -6.162    0.790
    248    C    2.043    -5.282    1.553
    249    N    1.531    -4.069    1.734
    250    H    0.628    -3.893    1.349
    251    H    1.949    -3.399    2.346
    252    C    4.063    -9.350    -0.476
    253    H    3.587    -8.646    -1.190
    254    O    3.834    -10.678    -0.899
    255    H    4.255    -10.758    -1.766
    256    C    5.555    -9.056    -0.349
    257    H    5.724    -7.959    -0.250
    258    O    6.400    -9.654    -1.368
    259    P    6.517    -8.935    -2.770
    260    O    7.342    -9.811    -3.627
    261    O    7.022    -7.571    -2.509
    262    O    5.030    -8.872    -3.301
    263    C    4.437    -9.956    -4.052
    264    H    3.934    -10.685    -3.374
    265    H    5.195    -10.522    -4.641
    266    C    3.380    -9.433    -5.032
    267    H    3.088    -10.227    -5.753
    268    O    2.172    -9.070    -4.293
    269    C    1.541    -7.974    -4.939
    270    H    0.513    -8.299    -5.224
    271    N    1.457    -6.795    -4.063
    272    C    0.991    -4.844    -3.155
    273    N    1.891    -5.468    -2.308
    274    C    2.132    -6.616    -2.883
    275    H    2.800    -7.388    -2.498
    276    N    -0.452    -3.243    -4.123
    277    C    -0.591    -4.097    -5.141
    278    H    -1.233    -3.742    -5.955
    279    N    -0.075    -5.324    -5.295
    280    C    0.722    -5.640    -4.255
    281    C    0.345    -3.592    -3.086
    282    N    0.512    -2.742    -2.055
    283    H    0.929    -3.072    -1.209
    284    H    -0.075    -1.933    -1.997
    285    C    2.332    -7.676    -6.191
    286    H    2.311    -6.595    -6.396
    287    O    1.803    -8.363    -7.307
    288    H    2.438    -8.236    -8.034
    289    C    3.732    -8.167    -5.826
    290    H    4.219    -7.441    -5.136
    291    O    4.542    -8.490    -6.973
    292    P    6.084    -8.198    -7.053
    293    O    6.749    -9.443    -7.496
    294    O    6.604    -7.566    -5.826
    295    O    6.232    -7.174    -8.242
    296    C    6.276    -5.746    -8.001
    297    H    7.119    -5.316    -8.579
    298    H    6.465    -5.465    -6.932
    299    C    4.969    -5.106    -8.456
    300    H    4.632    -5.530    -9.429
    301    O    3.962    -5.413    -7.469
    302    C    3.178    -4.277    -7.175
    303    H    2.112    -4.605    -7.237
    304    N    3.439    -3.743    -5.805
    305    C    4.288    -4.407    -4.940
    306    H    4.776    -5.302    -5.336
    307    C    2.698    -2.663    -5.366
    308    O    1.844    -2.114    -6.054
    309    N    2.978    -2.249    -4.090
    310    H    2.393    -1.511    -3.732
    311    C    3.805    -2.865    -3.173
    312    O    3.912    -2.418    -2.033
    313    C    4.487    -4.017    -3.676
    314    H    5.143    -4.567    -3.008
    315    C    3.470    -3.305    -8.279
    316    H    3.307    -2.257    -7.982
    317    O    2.646    -3.647    -9.378
    318    H    2.880    -4.537    -9.671
    319    C    4.949    -3.583    -8.553
    320    H    5.582    -3.218    -7.712
    321    O    5.413    -3.158    -9.855
    322    P    5.789    -1.635    -10.023
    323    O    6.690    -1.548    -11.195
    324    O    6.323    -1.139    -8.736
    325    O    4.466    -0.857    -10.345
    326    C    3.551    -1.353    -11.352
    327    H    3.372    -2.445    -11.268
    328    H    3.972    -1.180    -12.366
    329    C    2.197    -0.637    -11.289
    330    H    1.535    -0.994    -12.109
    331    O    1.506    -0.870    -10.025
    332    C    0.941    0.358    -9.564
    333    H    -0.130    0.146    -9.327
    334    N    1.612    0.896    -8.341
    335    C    2.765    0.321    -7.864
    336    H    3.156    -0.497    -8.464
    337    C    3.365    0.757    -6.749
    338    H    4.270    0.289    -6.356
    339    C    1.056    1.971    -7.657
    340    O    0.008    2.474    -8.085
    341    N    1.658    2.456    -6.548
    342    C    2.780    1.874    -6.085
    343    N    3.350    2.374    -4.991
    344    H    2.927    3.166    -4.553
    345    H    4.190    1.991    -4.605
    346    C    1.010    1.315    -10.738
    347    H    1.044    2.381    -10.438
    348    O    -0.094    1.081    -11.597
    349    H    -0.016    0.185    -11.953
    350    C    2.327    0.879    -11.369
    351    H    3.175    1.162    -10.707
    352    O    2.542    1.258    -12.738
    353    P    3.293    2.596    -13.073
    354    O    3.526    2.648    -14.532
    355    O    4.484    2.743    -12.205
    356    O    2.259    3.720    -12.683
    357    C    0.980    3.731    -13.366
    358    H    0.429    2.784    -13.205
    359    H    1.122    3.851    -14.466
    360    C    0.085    4.877    -12.886
    361    H    -0.839    4.930    -13.500
    362    O    -0.327    4.680    -11.500
    363    C    -0.302    5.931    -10.824
    364    H    -1.315    6.049    -10.367
    365    N    0.746    5.976    -9.764
    366    C    1.759    5.040    -9.710
    367    H    1.725    4.277    -10.487
    368    C    0.684    6.994    -8.842
    369    O    -0.172    7.871    -8.873
    370    N    1.658    6.960    -7.882
    371    H    1.648    7.723    -7.212
    372    C    2.680    6.048    -7.747
    373    O    3.476    6.147    -6.817
    374    C    2.696    5.033    -8.751
    375    H    3.468    4.270    -8.701
    376    C    -0.100    7.002    -11.883
    377    H    0.441    7.891    -11.491
    378    O    -1.352    7.404    -12.422
    379    H    -1.760    6.641    -12.862
    380    C    0.762    6.247    -12.884
    381    H    1.795    6.125    -12.487
    382    O    0.779    6.809    -14.207
    383    H    1.194    7.692    -14.179
 $END
