!*** FMO 5.3 (Gamess) INPUT generated by Facio 22.1.1.32 ***
 $CONTRL RUNTYP=ENERGY NPRINT=-5 ISPHER=1 MAXIT=200 $END
 $SYSTEM MWORDS=63 MEMDDI=63 $END
 $GDDI NGROUP=1 $END
 $SCF DIRSCF=.TRUE. NPUNCH=0 $END
!*** NumCPU : 2  MemPerNode : 512MB
 $PCM SOLVNT=WATER IEF=-10 ICOMP=2 ICAV=1 IDISP=1 IFMO=-1 $END
 $PCMCAV RADII=SUAHF $END
 $TESCAV NTSALL=60 $END
 $FMOPRP
    NAODIR=200
    NGRFMO(1)=1, 1, 0, 0, 0,   0, 0, 0, 0, 0
    IPIEDA=1
    NPRINT=9
 $END
 $FMO
      SCFTYP(1)=RHF
      MODGRD=10
      MODMUL=0
      MAXCAO=5
      MAXBND=18
      NLAYER=1
      MPLEVL(1)=2
      NFRAG=16
      ICHARG(1)=-1, -1, -1, -1, -1, -1, -1, 0, -1, -1, -1, -1, -1, -1,
-1, 0
      FRGNAM(1)=F1, F2, F3, F4, F5, F6, F7, F8, F9, F10, F11, F12, F13,
F14, F15, F16
      indat(1)=0
               1   -36   0
               37   -66   0
               67   -97   0
               98   -130   0
               131   -164   0
               165   -198   0
               199   -228   0
               229   -258   0
               259   -292   0
               293   -325   0
               326   -358   0
               359   -392   0
               393   -423   0
               424   -456   0
               457   -490   0
               491   -518   0
 $END

 $FMOBND
   -37   36       6-31G*    MINI
   -67   66       6-31G*    MINI
   -98   97       6-31G*    MINI
   -131   130       6-31G*    MINI
   -165   164       6-31G*    MINI
   -199   198       6-31G*    MINI
   -229   228       6-31G*    MINI
   -259   258       6-31G*    MINI
   -293   292       6-31G*    MINI
   -326   325       6-31G*    MINI
   -359   358       6-31G*    MINI
   -393   392       6-31G*    MINI
   -424   423       6-31G*    MINI
   -457   456       6-31G*    MINI
   -491   490       6-31G*    MINI
 $END
 $FMOHYB
 6-31G*      15   5
   1 0  -0.065034   0.288264   0.000000   0.000000   0.604412
         0.290129   0.000000   0.000000   0.319045  -0.017106
        -0.017106   0.057934   0.000000   0.000000   0.000000
   0 1  -0.065040   0.288293   0.569832   0.000000  -0.201456
         0.290147   0.300783   0.000000  -0.106342   0.049598
        -0.017106  -0.008771   0.000000  -0.027223   0.000000
   0 1  -0.065039   0.288293  -0.284916  -0.493490  -0.201455
         0.290145  -0.150392  -0.260486  -0.106340  -0.000427
         0.032923  -0.008771   0.033353   0.013612   0.023576
   0 1  -0.065039   0.288293  -0.284916   0.493490  -0.201455
         0.290145  -0.150392   0.260486  -0.106340  -0.000427
         0.032923  -0.008771  -0.033353   0.013612  -0.023576
   0 1   1.010938  -0.011975   0.000000   0.000000   0.000000
        -0.054085   0.000000   0.000000  -0.000000  -0.003174
        -0.003174  -0.003174   0.000000   0.000000   0.000000
 MINI         5   5
   1 0  -0.104883   0.308874   0.000000   0.000000   0.521806
   0 1  -0.104883   0.308874   0.491961   0.000000  -0.173934
   0 1  -0.104883   0.308876  -0.245980  -0.426050  -0.173933
   0 1  -0.104883   0.308876  -0.245980   0.426050  -0.173933
   0 1   0.988209   0.063992   0.000000   0.000000   0.000000
 $END
 
 $DATA
 FMO calculation
 C1 
 H.1-1    1
      N31 6
   
 O.1-1    8
      N31 6
      d 1
      1 0.800 1.0
   
 C.1-1    6
      N31 6
      d 1
      1 0.800 1.0
   
 N.1-1    7
      N31 6
      d 1
      1 0.800 1.0
   
 P.1-1   15
      N31 6
      d 1
      1 0.550 1.0
   
 $END
 $FMOXYZ
    1    H    4.265    -52.476    39.798
    2    O    4.955    -52.745    39.162
    3    C    6.027    -53.310    39.930
    4    H    5.627    -54.145    40.551
    5    H    6.434    -52.544    40.630
    6    C    7.164    -53.855    39.060
    7    H    7.992    -54.239    39.694
    8    O    6.673    -54.972    38.267
    9    C    7.277    -54.939    36.987
    10    H    7.766    -55.929    36.832
    11    N    6.276    -54.728    35.932
    12    C    6.453    -54.967    34.596
    13    N    8.459    -56.006    31.978
    14    H    9.323    -56.214    32.433
    15    H    8.392    -56.128    30.985
    16    N    7.581    -55.411    34.017
    17    C    7.448    -55.574    32.706
    18    N    6.284    -55.315    32.031
    19    H    6.257    -55.499    31.041
    20    C    5.099    -54.868    32.603
    21    O    4.085    -54.679    31.923
    22    C    5.239    -54.678    34.003
    23    N    4.318    -54.243    34.946
    24    C    4.977    -54.289    36.082
    25    H    4.571    -54.021    37.062
    26    C    8.333    -53.855    37.013
    27    H    8.470    -53.371    36.024
    28    O    9.561    -54.395    37.465
    29    H    10.161    -53.647    37.570
    30    C    7.753    -52.879    38.028
    31    H    6.898    -52.325    37.580
    32    O    8.722    -52.012    38.660
    33    P    9.002    -50.567    38.093
    34    O    7.704    -49.896    37.878
    35    O    9.966    -49.903    38.998
    36    O    9.677    -50.803    36.694
    37    C    10.986    -51.389    36.529
    38    H    11.075    -52.353    37.075
    39    H    11.767    -50.708    36.935
    40    C    11.294    -51.655    35.044
    41    H    12.311    -52.090    34.927
    42    O    10.339    -52.613    34.495
    43    C    10.001    -52.250    33.163
    44    H    10.253    -53.133    32.529
    45    N    8.547    -51.922    33.018
    46    C    7.805    -51.546    34.115
    47    H    8.349    -51.527    35.055
    48    C    7.963    -51.990    31.770
    49    O    8.590    -52.289    30.758
    50    N    6.617    -51.711    31.741
    51    H    6.148    -51.780    30.849
    52    C    5.811    -51.384    32.807
    53    O    4.610    -51.206    32.639
    54    C    6.493    -51.284    34.059
    55    H    5.919    -51.033    34.949
    56    C    10.905    -51.093    32.780
    57    H    10.393    -50.393    32.099
    58    O    12.095    -51.571    32.180
    59    H    12.680    -50.803    32.078
    60    C    11.183    -50.432    34.124
    61    H    10.291    -49.857    34.461
    62    O    12.403    -49.662    34.177
    63    P    12.402    -48.140    33.777
    64    O    11.141    -47.540    34.259
    65    O    13.663    -47.531    34.258
    66    O    12.420    -48.143    32.199
    67    C    11.797    -47.063    31.451
    68    H    12.573    -46.359    31.081
    69    H    11.079    -46.462    32.063
    70    C    11.020    -47.596    30.240
    71    H    11.703    -48.074    29.503
    72    O    10.086    -48.608    30.683
    73    C    8.855    -48.473    30.021
    74    H    8.673    -49.466    29.547
    75    N    7.733    -48.179    30.960
    76    C    7.970    -47.843    32.284
    77    H    9.020    -47.763    32.589
    78    C    6.956    -47.620    33.136
    79    H    7.112    -47.358    34.182
    80    C    6.423    -48.304    30.506
    81    O    6.226    -48.644    29.329
    82    N    5.400    -48.054    31.343
    83    C    5.628    -47.736    32.626
    84    N    4.581    -47.564    33.427
    85    H    3.671    -47.727    33.013
    86    H    4.669    -47.406    34.410
    87    C    9.048    -47.423    28.933
    88    H    8.130    -46.828    28.742
    89    O    9.490    -48.032    27.732
    90    H    9.931    -47.343    27.214
    91    C    10.151    -46.556    29.524
    92    H    9.735    -45.903    30.328
    93    O    10.940    -45.837    28.537
    94    P    10.510    -44.358    28.199
    95    O    9.074    -44.231    28.497
    96    O    11.426    -43.427    28.892
    97    O    10.667    -44.211    26.652
    98    C    11.917    -44.402    25.967
    99    H    12.463    -45.295    26.354
    100    H    12.568    -43.509    26.099
    101    C    11.675    -44.606    24.468
    102    H    12.631    -44.790    23.933
    103    O    10.839    -45.785    24.279
    104    C    9.938    -45.559    23.210
    105    H    10.123    -46.379    22.475
    106    N    8.543    -45.618    23.665
    107    C    6.355    -45.815    23.727
    108    N    6.773    -45.698    25.043
    109    C    8.071    -45.567    24.957
    110    H    8.746    -45.438    25.806
    111    N    5.014    -46.069    21.792
    112    C    6.147    -46.014    21.091
    113    H    6.032    -46.085    20.005
    114    N    7.406    -45.874    21.524
    115    C    7.437    -45.772    22.867
    116    C    5.082    -45.980    23.143
    117    N    3.935    -46.050    23.836
    118    H    3.901    -45.883    24.831
    119    H    3.071    -46.087    23.337
    120    C    10.290    -44.236    22.571
    121    H    9.400    -43.696    22.195
    122    O    11.213    -44.439    21.516
    123    H    11.610    -43.580    21.305
    124    C    10.924    -43.481    23.731
    125    H    10.131    -43.129    24.436
    126    O    11.837    -42.434    23.305
    127    P    11.384    -40.931    23.453
    128    O    11.091    -40.671    24.878
    129    O    12.364    -40.028    22.803
    130    O    10.020    -40.843    22.672
    131    C    9.963    -40.900    21.231
    132    H    10.463    -41.820    20.850
    133    H    10.480    -40.025    20.780
    134    C    8.513    -40.912    20.731
    135    H    8.481    -40.966    19.623
    136    O    7.859    -42.114    21.231
    137    C    6.520    -41.822    21.579
    138    H    5.882    -42.538    21.012
    139    N    6.275    -42.020    23.010
    140    C    5.056    -42.212    23.595
    141    N    1.613    -42.523    23.356
    142    H    0.842    -42.743    23.952
    143    H    1.456    -42.428    22.376
    144    N    3.868    -42.229    22.959
    145    C    2.859    -42.459    23.797
    146    N    3.015    -42.564    25.152
    147    H    2.226    -42.883    25.684
    148    C    4.230    -42.586    25.823
    149    O    4.270    -42.723    27.045
    150    C    5.318    -42.369    24.942
    151    N    6.683    -42.281    25.197
    152    C    7.207    -42.060    24.020
    153    H    8.268    -41.910    23.823
    154    C    6.229    -40.408    21.131
    155    H    5.520    -39.898    21.810
    156    O    5.703    -40.427    19.815
    157    H    5.719    -39.519    19.478
    158    C    7.604    -39.753    21.182
    159    H    7.885    -39.522    22.236
    160    O    7.740    -38.620    20.292
    161    P    7.694    -37.142    20.835
    162    O    8.717    -37.002    21.888
    163    O    7.788    -36.207    19.692
    164    O    6.279    -36.995    21.500
    165    C    5.052    -36.925    20.740
    166    H    4.992    -37.747    19.991
    167    H    4.993    -35.964    20.181
    168    C    3.813    -37.026    21.652
    169    H    2.880    -36.917    21.058
    170    O    3.775    -38.353    22.260
    171    C    3.398    -38.243    23.624
    172    H    2.554    -38.958    23.773
    173    N    4.498    -38.607    24.537
    174    C    4.368    -39.000    25.839
    175    N    2.369    -39.673    28.575
    176    H    1.458    -39.457    28.226
    177    H    2.450    -40.113    29.462
    178    N    3.214    -39.113    26.512
    179    C    3.396    -39.539    27.757
    180    N    4.623    -39.837    28.279
    181    H    4.690    -40.148    29.237
    182    C    5.830    -39.733    27.611
    183    O    6.889    -40.007    28.182
    184    C    5.651    -39.252    26.285
    185    N    6.581    -39.001    25.283
    186    C    5.844    -38.638    24.264
    187    H    6.228    -38.372    23.283
    188    C    2.905    -36.834    23.837
    189    H    3.064    -36.481    24.878
    190    O    1.531    -36.762    23.505
    191    H    1.301    -35.827    23.483
    192    C    3.751    -36.047    22.841
    193    H    4.794    -35.928    23.219
    194    O    3.164    -34.794    22.423
    195    P    3.475    -33.475    23.231
    196    O    4.938    -33.290    23.241
    197    O    2.665    -32.383    22.650
    198    O    3.006    -33.750    24.703
    199    C    1.603    -33.742    25.055
    200    H    1.025    -34.487    24.464
    201    H    1.157    -32.739    24.852
    202    C    1.398    -34.056    26.546
    203    H    0.319    -34.055    26.802
    204    O    1.916    -35.374    26.886
    205    C    2.452    -35.350    28.204
    206    H    1.872    -36.103    28.788
    207    N    3.903    -35.706    28.218
    208    C    4.663    -35.585    27.074
    209    H    4.142    -35.171    26.209
    210    C    4.465    -36.168    29.390
    211    O    3.831    -36.276    30.434
    212    N    5.793    -36.505    29.296
    213    H    6.232    -36.804    30.161
    214    C    6.609    -36.421    28.189
    215    O    7.792    -36.744    28.268
    216    C    5.958    -35.925    27.016
    217    H    6.538    -35.817    26.102
    218    C    2.174    -33.963    28.772
    219    H    2.976    -33.625    29.454
    220    O    0.938    -33.943    29.459
    221    H    0.763    -33.020    29.681
    222    C    2.119    -33.114    27.507
    223    H    3.144    -32.969    27.094
    224    O    1.366    -31.889    27.629
    225    P    2.134    -30.531    27.795
    226    O    3.314    -30.514    26.909
    227    O    1.168    -29.422    27.647
    228    O    2.627    -30.573    29.292
    229    C    1.646    -30.479    30.355
    230    H    0.831    -31.234    30.240
    231    H    1.172    -29.469    30.346
    232    C    2.294    -30.678    31.730
    233    H    1.550    -30.540    32.547
    234    O    2.820    -32.031    31.839
    235    C    4.060    -31.994    32.537
    236    H    3.929    -32.680    33.407
    237    N    5.201    -32.476    31.707
    238    C    5.102    -32.479    30.337
    239    H    4.161    -32.118    29.929
    240    C    6.088    -32.948    29.562
    241    H    6.001    -32.995    28.478
    242    C    6.383    -32.895    32.309
    243    O    6.481    -32.850    33.544
    244    N    7.402    -33.350    31.544
    245    C    7.275    -33.397    30.207
    246    N    8.282    -33.872    29.478
    247    H    9.113    -34.197    29.935
    248    H    8.243    -33.918    28.482
    249    C    4.261    -30.577    33.055
    250    H    5.333    -30.285    33.075
    251    O    3.697    -30.450    34.352
    252    H    3.673    -29.506    34.589
    253    C    3.496    -29.768    32.013
    254    H    4.095    -29.679    31.081
    255    O    3.058    -28.475    32.470
    256    H    3.830    -27.893    32.610
    257    H    17.326    -37.967    34.409
    258    O    16.476    -37.626    34.733
    259    C    16.676    -37.245    36.103
    260    H    17.483    -36.478    36.159
    261    H    17.020    -38.132    36.680
    262    C    15.411    -36.687    36.763
    263    H    15.581    -36.482    37.841
    264    O    15.053    -35.419    36.138
    265    C    13.638    -35.334    36.043
    266    H    13.329    -34.389    36.550
    267    N    13.183    -35.301    34.647
    268    C    11.948    -34.894    34.215
    269    N    8.775    -33.682    34.881
    270    H    8.780    -33.574    35.871
    271    H    7.962    -33.395    34.366
    272    N    10.940    -34.454    34.995
    273    C    9.870    -34.108    34.285
    274    N    9.818    -34.184    32.917
    275    H    8.977    -33.876    32.455
    276    C    10.846    -34.616    32.087
    277    O    10.716    -34.639    30.859
    278    C    11.984    -35.010    32.838
    279    N    13.213    -35.499    32.412
    280    C    13.894    -35.663    33.524
    281    H    14.919    -36.036    33.596
    282    C    13.059    -36.511    36.791
    283    H    12.098    -36.856    36.362
    284    O    12.874    -36.176    38.152
    285    H    12.498    -36.961    38.568
    286    C    14.152    -37.557    36.614
    287    H    14.152    -37.943    35.569
    288    O    14.155    -38.613    37.603
    289    P    13.320    -39.922    37.321
    290    O    13.601    -40.376    35.941
    291    O    13.569    -40.894    38.407
    292    O    11.829    -39.439    37.400
    293    C    11.231    -39.081    38.668
    294    H    11.835    -38.312    39.202
    295    H    11.158    -39.968    39.341
    296    C    9.816    -38.523    38.455
    297    H    9.386    -38.163    39.410
    298    O    9.856    -37.381    37.543
    299    C    8.712    -37.410    36.697
    300    H    8.191    -36.434    36.812
    301    N    9.081    -37.594    35.283
    302    C    9.034    -37.651    33.082
    303    N    10.303    -38.070    33.455
    304    C    10.276    -38.036    34.765
    305    H    11.108    -38.316    35.414
    306    N    7.138    -37.041    31.804
    307    C    6.526    -36.802    32.968
    308    H    5.486    -36.464    32.888
    309    N    6.994    -36.939    34.214
    310    C    8.269    -37.361    34.198
    311    C    8.424    -37.475    31.822
    312    N    9.051    -37.700    30.652
    313    H    10.024    -37.940    30.601
    314    H    8.579    -37.459    29.800
    315    C    7.811    -38.521    37.187
    316    H    7.250    -38.994    36.359
    317    O    6.892    -38.049    38.152
    318    H    6.418    -38.830    38.479
    319    C    8.819    -39.483    37.792
    320    H    9.391    -39.975    36.973
    321    O    8.255    -40.399    38.759
    322    P    8.290    -41.956    38.505
    323    O    9.097    -42.266    37.307
    324    O    8.664    -42.639    39.760
    325    O    6.792    -42.294    38.164
    326    C    5.695    -41.988    39.053
    327    H    5.954    -41.192    39.792
    328    H    5.424    -42.899    39.632
    329    C    4.453    -41.520    38.280
    330    H    3.642    -41.203    38.974
    331    O    4.824    -40.370    37.455
    332    C    4.187    -40.468    36.192
    333    H    3.621    -39.518    36.048
    334    N    5.160    -40.618    35.094
    335    C    6.101    -40.615    33.105
    336    N    7.101    -40.968    33.998
    337    C    6.485    -40.981    35.156
    338    H    6.962    -41.205    36.107
    339    N    4.920    -40.095    31.126
    340    C    3.845    -39.936    31.902
    341    H    2.919    -39.658    31.388
    342    N    3.734    -40.047    33.225
    343    C    4.904    -40.398    33.769
    344    C    6.101    -40.442    31.707
    345    N    7.211    -40.593    30.950
    346    H    8.113    -40.781    31.347
    347    H    7.155    -40.400    29.964
    348    C    3.213    -41.619    36.260
    349    H    3.114    -42.128    35.288
    350    O    1.947    -41.162    36.697
    351    H    1.419    -41.942    36.919
    352    C    3.865    -42.541    37.281
    353    H    4.730    -43.078    36.828
    354    O    2.934    -43.430    37.938
    355    P    2.779    -44.942    37.520
    356    O    4.092    -45.604    37.670
    357    O    1.637    -45.522    38.262
    358    O    2.407    -44.905    35.996
    359    C    1.111    -44.500    35.511
    360    H    0.810    -43.525    35.956
    361    H    0.334    -45.251    35.781
    362    C    1.115    -44.319    33.983
    363    H    0.133    -43.940    33.620
    364    O    2.110    -43.321    33.632
    365    C    2.839    -43.738    32.499
    366    H    2.798    -42.891    31.779
    367    N    4.250    -43.998    32.818
    368    C    5.275    -43.905    31.929
    369    N    6.465    -43.322    28.735
    370    H    5.639    -43.159    28.192
    371    H    7.338    -43.511    28.277
    372    N    5.158    -43.574    30.635
    373    C    6.341    -43.585    30.017
    374    N    7.516    -43.901    30.644
    375    H    8.334    -43.948    30.053
    376    C    7.668    -44.234    31.974
    377    O    8.774    -44.503    32.446
    378    C    6.420    -44.219    32.645
    379    N    6.116    -44.493    33.967
    380    C    4.819    -44.343    34.024
    381    H    4.231    -44.461    34.923
    382    C    2.121    -44.936    31.917
    383    H    2.809    -45.643    31.403
    384    O    1.130    -44.457    31.025
    385    H    0.599    -45.197    30.676
    386    C    1.496    -45.561    33.167
    387    H    2.274    -46.085    33.766
    388    O    0.323    -46.389    32.934
    389    P    0.571    -47.859    32.411
    390    O    2.033    -48.076    32.355
    391    O    -0.198    -48.819    33.232
    392    O    0.006    -47.860    30.941
    393    C    -1.357    -47.540    30.579
    394    H    -1.852    -46.923    31.366
    395    H    -1.945    -48.478    30.472
    396    C    -1.474    -46.751    29.255
    397    H    -2.468    -46.252    29.189
    398    O    -0.465    -45.713    29.219
    399    C    0.054    -45.588    27.904
    400    H    -0.100    -44.514    27.643
    401    N    1.513    -45.881    27.821
    402    C    2.159    -46.588    28.804
    403    H    1.549    -46.927    29.633
    404    C    3.476    -46.813    28.753
    405    H    3.994    -47.377    29.519
    406    C    2.226    -45.458    26.709
    407    O    1.618    -44.881    25.796
    408    N    3.560    -45.671    26.645
    409    C    4.194    -46.307    27.643
    410    N    5.505    -46.500    27.572
    411    H    5.955    -47.136    28.199
    412    H    5.986    -46.157    26.759
    413    C    -0.790    -46.447    26.985
    414    H    -0.209    -46.884    26.144
    415    O    -1.870    -45.677    26.480
    416    H    -2.485    -46.280    26.031
    417    C    -1.269    -47.534    27.945
    418    H    -0.446    -48.260    28.142
    419    O    -2.506    -48.161    27.546
    420    P    -2.503    -49.589    26.898
    421    O    -1.997    -50.541    27.914
    422    O    -3.850    -49.855    26.350
    423    O    -1.487    -49.449    25.701
    424    C    -0.725    -50.602    25.271
    425    H    -1.390    -51.471    25.062
    426    H    -0.015    -50.905    26.073
    427    C    0.090    -50.315    23.997
    428    H    -0.578    -50.078    23.141
    429    O    0.937    -49.149    24.216
    430    C    2.204    -49.352    23.616
    431    H    2.380    -48.490    22.933
    432    N    3.256    -49.386    24.636
    433    C    5.191    -49.417    25.665
    434    N    4.222    -49.420    26.670
    435    C    3.099    -49.386    26.004
    436    H    2.105    -49.373    26.458
    437    N    7.269    -49.386    24.526
    438    C    6.562    -49.370    23.393
    439    H    7.156    -49.358    22.469
    440    N    5.236    -49.378    23.230
    441    C    4.606    -49.390    24.414
    442    C    6.597    -49.422    25.707
    443    N    7.254    -49.472    26.873
    444    H    6.731    -49.313    27.719
    445    H    8.218    -49.191    26.898
    446    C    2.131    -50.637    22.810
    447    H    3.097    -51.183    22.797
    448    O    1.720    -50.358    21.485
    449    H    1.493    -51.198    21.058
    450    C    1.072    -51.425    23.575
    451    H    1.506    -51.825    24.521
    452    O    0.400    -52.435    22.789
    453    P    0.715    -53.968    22.992
    454    O    0.322    -54.341    24.367
    455    O    0.067    -54.723    21.897
    456    O    2.278    -54.083    22.862
    457    C    2.936    -54.081    21.574
    458    H    2.654    -53.176    20.989
    459    H    2.652    -54.978    20.983
    460    C    4.466    -54.082    21.719
    461    H    4.963    -54.074    20.728
    462    O    4.859    -52.864    22.407
    463    C    5.886    -53.148    23.339
    464    H    6.717    -52.440    23.114
    465    N    5.451    -52.928    24.725
    466    C    6.261    -52.793    25.823
    467    N    9.413    -52.694    27.247
    468    H    9.835    -52.529    28.137
    469    H    9.997    -52.856    26.457
    470    N    7.605    -52.865    25.832
    471    C    8.113    -52.670    27.048
    472    N    7.347    -52.424    28.154
    473    H    7.808    -52.287    29.036
    474    C    5.966    -52.319    28.165
    475    O    5.384    -52.090    29.226
    476    C    5.404    -52.568    26.884
    477    N    4.075    -52.607    26.469
    478    C    4.158    -52.819    25.179
    479    H    3.315    -52.886    24.493
    480    C    6.347    -54.565    23.092
    481    H    6.705    -55.066    24.014
    482    O    7.381    -54.557    22.127
    483    H    7.485    -55.463    21.803
    484    C    5.078    -55.224    22.553
    485    H    4.359    -55.418    23.386
    486    O    5.316    -56.392    21.719
    487    P    5.208    -57.823    22.391
    488    O    3.867    -57.953    23.006
    489    O    5.555    -58.864    21.399
    490    O    6.306    -57.805    23.522
    491    C    7.712    -57.859    23.171
    492    H    8.018    -56.961    22.592
    493    H    7.930    -58.752    22.541
    494    C    8.604    -57.939    24.420
    495    H    9.662    -58.131    24.141
    496    O    8.575    -56.661    25.119
    497    C    8.575    -56.893    26.524
    498    H    9.453    -56.334    26.922
    499    N    7.334    -56.396    27.187
    500    C    6.181    -56.218    26.457
    501    H    6.254    -56.435    25.392
    502    C    5.052    -55.775    27.027
    503    H    4.145    -55.586    26.454
    504    C    7.321    -56.162    28.558
    505    O    8.352    -56.368    29.216
    506    N    6.194    -55.710    29.151
    507    C    5.077    -55.516    28.427
    508    N    3.990    -55.058    29.041
    509    H    4.032    -54.842    30.019
    510    H    3.174    -54.785    28.531
    511    C    8.795    -58.383    26.748
    512    H    8.262    -58.754    27.650
    513    O    10.183    -58.663    26.856
    514    H    10.323    -59.627    26.807
    515    C    8.175    -58.963    25.482
    516    H    7.067    -58.943    25.560
    517    O    8.639    -60.278    25.138
    518    H    8.287    -60.928    25.773
 $END
