!*** FMO 5.3 (Gamess) INPUT generated by Facio 22.1.1.32 ***
 $CONTRL RUNTYP=ENERGY NPRINT=-5 ISPHER=1 MAXIT=200 $END
 $SYSTEM MWORDS=63 MEMDDI=63 $END
 $GDDI NGROUP=1 $END
 $SCF DIRSCF=.TRUE. NPUNCH=0 $END
!*** NumCPU : 2  MemPerNode : 512MB
 $PCM SOLVNT=WATER IEF=-10 ICOMP=2 ICAV=1 IDISP=1 IFMO=-1 $END
 $PCMCAV RADII=SUAHF $END
 $TESCAV NTSALL=60 $END
 $FMOPRP
    NAODIR=200
    NGRFMO(1)=1, 1, 0, 0, 0,   0, 0, 0, 0, 0
    IPIEDA=1
    NPRINT=9
 $END
 $FMO
      SCFTYP(1)=RHF
      MODGRD=10
      MODMUL=0
      MAXCAO=5
      MAXBND=18
      NLAYER=1
      MPLEVL(1)=2
      NFRAG=16
      ICHARG(1)=-1, -1, -1, -1, -1, -1, -1, 0, -1, -1, -1, -1, -1, -1,
-1, 0
      FRGNAM(1)=F1, F2, F3, F4, F5, F6, F7, F8, F9, F10, F11, F12, F13,
F14, F15, F16
      indat(1)=0
               1   -36   0
               37   -66   0
               67   -97   0
               98   -130   0
               131   -164   0
               165   -198   0
               199   -228   0
               229   -258   0
               259   -292   0
               293   -325   0
               326   -358   0
               359   -392   0
               393   -423   0
               424   -456   0
               457   -490   0
               491   -518   0
 $END

 $FMOBND
   -37   36       6-31G*    MINI
   -67   66       6-31G*    MINI
   -98   97       6-31G*    MINI
   -131   130       6-31G*    MINI
   -165   164       6-31G*    MINI
   -199   198       6-31G*    MINI
   -229   228       6-31G*    MINI
   -259   258       6-31G*    MINI
   -293   292       6-31G*    MINI
   -326   325       6-31G*    MINI
   -359   358       6-31G*    MINI
   -393   392       6-31G*    MINI
   -424   423       6-31G*    MINI
   -457   456       6-31G*    MINI
   -491   490       6-31G*    MINI
 $END
 $FMOHYB
 6-31G*      15   5
   1 0  -0.065034   0.288264   0.000000   0.000000   0.604412
         0.290129   0.000000   0.000000   0.319045  -0.017106
        -0.017106   0.057934   0.000000   0.000000   0.000000
   0 1  -0.065040   0.288293   0.569832   0.000000  -0.201456
         0.290147   0.300783   0.000000  -0.106342   0.049598
        -0.017106  -0.008771   0.000000  -0.027223   0.000000
   0 1  -0.065039   0.288293  -0.284916  -0.493490  -0.201455
         0.290145  -0.150392  -0.260486  -0.106340  -0.000427
         0.032923  -0.008771   0.033353   0.013612   0.023576
   0 1  -0.065039   0.288293  -0.284916   0.493490  -0.201455
         0.290145  -0.150392   0.260486  -0.106340  -0.000427
         0.032923  -0.008771  -0.033353   0.013612  -0.023576
   0 1   1.010938  -0.011975   0.000000   0.000000   0.000000
        -0.054085   0.000000   0.000000  -0.000000  -0.003174
        -0.003174  -0.003174   0.000000   0.000000   0.000000
 MINI         5   5
   1 0  -0.104883   0.308874   0.000000   0.000000   0.521806
   0 1  -0.104883   0.308874   0.491961   0.000000  -0.173934
   0 1  -0.104883   0.308876  -0.245980  -0.426050  -0.173933
   0 1  -0.104883   0.308876  -0.245980   0.426050  -0.173933
   0 1   0.988209   0.063992   0.000000   0.000000   0.000000
 $END
 
 $DATA
 FMO calculation
 C1 
 H.1-1    1
      N31 6
   
 O.1-1    8
      N31 6
      d 1
      1 0.800 1.0
   
 C.1-1    6
      N31 6
      d 1
      1 0.800 1.0
   
 N.1-1    7
      N31 6
      d 1
      1 0.800 1.0
   
 P.1-1   15
      N31 6
      d 1
      1 0.550 1.0
   
 $END
 $FMOXYZ
    1    H    4.583    -51.897    39.750
    2    O    5.191    -52.249    39.072
    3    C    6.215    -52.969    39.773
    4    H    5.739    -53.753    40.406
    5    H    6.762    -52.273    40.448
    6    C    7.218    -53.637    38.829
    7    H    8.018    -54.140    39.416
    8    O    6.551    -54.663    38.038
    9    C    7.094    -54.665    36.728
    10    H    7.442    -55.703    36.525
    11    N    6.084    -54.302    35.728
    12    C    6.175    -54.515    34.380
    13    N    7.907    -55.739    31.649
    14    H    8.759    -56.065    32.054
    15    H    7.769    -55.848    30.660
    16    N    7.214    -55.074    33.739
    17    C    6.998    -55.198    32.433
    18    N    5.846    -54.781    31.821
    19    H    5.757    -54.919    30.827
    20    C    4.760    -54.191    32.454
    21    O    3.765    -53.849    31.810
    22    C    4.982    -54.062    33.852
    23    N    4.162    -53.557    34.851
    24    C    4.857    -53.720    35.953
    25    H    4.532    -53.436    36.958
    26    C    8.284    -53.731    36.722
    27    H    8.439    -53.236    35.741
    28    O    9.446    -54.452    37.088
    29    H    10.155    -53.806    37.186
    30    C    7.894    -52.721    37.794
    31    H    7.103    -52.033    37.413
    32    O    9.014    -52.028    38.394
    33    P    9.421    -50.600    37.871
    34    O    8.201    -49.775    37.765
    35    O    10.498    -50.083    38.744
    36    O    9.993    -50.827    36.429
    37    C    11.192    -51.590    36.170
    38    H    11.156    -52.586    36.660
    39    H    12.081    -51.052    36.580
    40    C    11.392    -51.808    34.657
    41    H    12.340    -52.352    34.457
    42    O    10.303    -52.625    34.129
    43    C    9.922    -52.149    32.842
    44    H    10.037    -53.023    32.160
    45    N    8.506    -51.667    32.798
    46    C    7.869    -51.274    33.949
    47    H    8.468    -51.341    34.853
    48    C    7.849    -51.629    31.584
    49    O    8.385    -51.951    30.531
    50    N    6.538    -51.212    31.643
    51    H    6.006    -51.190    30.781
    52    C    5.827    -50.859    32.768
    53    O    4.644    -50.557    32.679
    54    C    6.586    -50.891    33.982
    55    H    6.087    -50.635    34.914
    56    C    10.931    -51.085    32.442
    57    H    10.461    -50.293    31.833
    58    O    12.016    -51.663    31.736
    59    H    12.684    -50.966    31.632
    60    C    11.371    -50.537    33.793
    61    H    10.570    -49.885    34.207
    62    O    12.674    -49.906    33.804
    63    P    12.776    -48.363    33.466
    64    O    11.635    -47.656    34.086
    65    O    14.132    -47.903    33.835
    66    O    12.646    -48.293    31.897
    67    C    12.140    -47.099    31.246
    68    H    12.988    -46.493    30.856
    69    H    11.558    -46.445    31.938
    70    C    11.216    -47.450    30.071
    71    H    11.796    -47.922    29.252
    72    O    10.223    -48.422    30.489
    73    C    8.990    -48.144    29.875
    74    H    8.719    -49.074    29.326
    75    N    7.920    -47.849    30.869
    76    C    8.210    -47.571    32.192
    77    H    9.269    -47.588    32.471
    78    C    7.232    -47.330    33.079
    79    H    7.434    -47.124    34.128
    80    C    6.602    -47.850    30.436
    81    O    6.364    -48.069    29.240
    82    N    5.611    -47.603    31.321
    83    C    5.883    -47.376    32.615
    84    N    4.870    -47.239    33.472
    85    H    3.960    -47.503    33.122
    86    H    4.998    -47.101    34.452
    87    C    9.225    -47.021    28.869
    88    H    8.343    -46.353    28.757
    89    O    9.591    -47.540    27.604
    90    H    9.911    -46.778    27.103
    91    C    10.411    -46.284    29.482
    92    H    10.076    -45.656    30.339
    93    O    11.229    -45.561    28.521
    94    P    10.800    -44.095    28.144
    95    O    9.374    -43.933    28.456
    96    O    11.730    -43.157    28.812
    97    O    10.921    -43.996    26.592
    98    C    12.098    -44.315    25.839
    99    H    12.634    -45.196    26.266
    100    H    12.789    -43.439    25.835
    101    C    11.720    -44.645    24.388
    102    H    12.609    -44.978    23.813
    103    O    10.749    -45.736    24.369
    104    C    9.811    -45.520    23.322
    105    H    9.838    -46.423    22.672
    106    N    8.449    -45.348    23.851
    107    C    6.262    -45.213    24.019
    108    N    6.754    -45.111    25.312
    109    C    8.052    -45.181    25.160
    110    H    8.780    -45.114    25.971
    111    N    4.797    -45.328    22.157
    112    C    5.901    -45.449    21.413
    113    H    5.725    -45.548    20.337
    114    N    7.187    -45.491    21.779
    115    C    7.295    -45.362    23.112
    116    C    4.949    -45.204    23.499
    117    N    3.857    -45.080    24.276
    118    H    3.918    -45.028    25.273
    119    H    2.951    -45.102    23.854
    120    C    10.281    -44.314    22.531
    121    H    9.442    -43.722    22.111
    122    O    11.144    -44.728    21.488
    123    H    11.597    -43.941    21.151
    124    C    11.027    -43.524    23.593
    125    H    10.304    -43.041    24.290
    126    O    11.995    -42.610    23.045
    127    P    11.869    -41.056    23.226
    128    O    11.657    -40.739    24.651
    129    O    13.035    -40.433    22.561
    130    O    10.545    -40.688    22.458
    131    C    10.469    -40.722    21.019
    132    H    10.916    -41.661    20.617
    133    H    11.019    -39.856    20.580
    134    C    9.011    -40.652    20.547
    135    H    8.959    -40.672    19.437
    136    O    8.287    -41.824    21.026
    137    C    6.964    -41.452    21.380
    138    H    6.271    -42.116    20.812
    139    N    6.720    -41.623    22.819
    140    C    5.498    -41.703    23.425
    141    N    2.043    -41.784    23.217
    142    H    1.254    -41.883    23.826
    143    H    1.883    -41.651    22.241
    144    N    4.308    -41.634    22.805
    145    C    3.291    -41.794    23.650
    146    N    3.451    -41.968    25.000
    147    H    2.630    -42.154    25.552
    148    C    4.670    -42.054    25.660
    149    O    4.700    -42.227    26.880
    150    C    5.764    -41.878    24.770
    151    N    7.136    -41.881    25.008
    152    C    7.660    -41.726    23.817
    153    H    8.725    -41.693    23.587
    154    C    6.767    -40.019    20.943
    155    H    6.075    -39.476    21.614
    156    O    6.281    -39.983    19.616
    157    H    6.361    -39.072    19.297
    158    C    8.178    -39.458    21.040
    159    H    8.458    -39.288    22.106
    160    O    8.402    -38.306    20.204
    161    P    8.581    -36.868    20.812
    162    O    9.569    -36.934    21.909
    163    O    8.867    -35.945    19.690
    164    O    7.173    -36.531    21.426
    165    C    6.007    -36.319    20.595
    166    H    5.926    -37.093    19.794
    167    H    6.065    -35.325    20.098
    168    C    4.712    -36.378    21.422
    169    H    3.824    -36.201    20.774
    170    O    4.580    -37.713    21.989
    171    C    4.081    -37.630    23.311
    172    H    3.198    -38.308    23.367
    173    N    5.086    -38.061    24.298
    174    C    4.848    -38.449    25.589
    175    N    2.654    -38.995    28.200
    176    H    2.664    -39.408    29.104
    177    H    1.776    -38.738    27.795
    178    N    3.647    -38.503    26.185
    179    C    3.730    -38.921    27.445
    180    N    4.907    -39.292    28.042
    181    H    4.890    -39.585    29.009
    182    C    6.161    -39.257    27.450
    183    O    7.199    -39.580    28.044
    184    C    6.083    -38.772    26.116
    185    N    7.083    -38.571    25.178
    186    C    6.445    -38.159    24.114
    187    H    6.907    -37.935    23.156
    188    C    3.646    -36.203    23.528
    189    H    3.726    -35.887    24.589
    190    O    2.314    -36.049    23.077
    191    H    2.146    -35.100    22.998
    192    C    4.618    -35.438    22.639
    193    H    5.633    -35.404    23.094
    194    O    4.141    -34.134    22.236
    195    P    4.516    -32.870    23.105
    196    O    5.989    -32.805    23.213
    197    O    3.847    -31.691    22.514
    198    O    3.911    -33.139    24.535
    199    C    2.481    -33.082    24.755
    200    H    1.930    -33.782    24.090
    201    H    2.095    -32.057    24.543
    202    C    2.121    -33.427    26.207
    203    H    1.022    -33.384    26.355
    204    O    2.539    -34.779    26.538
    205    C    2.966    -34.827    27.893
    206    H    2.310    -35.582    28.389
    207    N    4.398    -35.238    28.006
    208    C    5.254    -35.110    26.933
    209    H    4.813    -34.687    26.030
    210    C    4.845    -35.741    29.210
    211    O    4.128    -35.837    30.195
    212    N    6.162    -36.134    29.213
    213    H    6.518    -36.474    30.101
    214    C    7.063    -36.071    28.173
    215    O    8.212    -36.476    28.327
    216    C    6.534    -35.509    26.969
    217    H    7.182    -35.435    26.098
    218    C    2.695    -33.456    28.496
    219    H    3.447    -33.177    29.258
    220    O    1.406    -33.416    29.078
    221    H    1.233    -32.492    29.302
    222    C    2.779    -32.554    27.272
    223    H    3.843    -32.434    26.958
    224    O    2.058    -31.307    27.389
    225    P    2.869    -29.979    27.621
    226    O    4.101    -29.999    26.807
    227    O    1.961    -28.828    27.422
    228    O    3.250    -30.080    29.145
    229    C    2.215    -29.935    30.146
    230    H    1.379    -30.657    29.983
    231    H    1.790    -28.901    30.117
    232    C    2.778    -30.168    31.553
    233    H    1.996    -29.981    32.323
    234    O    3.209    -31.552    31.697
    235    C    4.401    -31.590    32.472
    236    H    4.178    -32.272    33.328
    237    N    5.563    -32.129    31.706
    238    C    5.547    -32.132    30.331
    239    H    4.653    -31.721    29.866
    240    C    6.559    -32.640    29.617
    241    H    6.544    -32.678    28.528
    242    C    6.684    -32.604    32.378
    243    O    6.708    -32.557    33.617
    244    N    7.721    -33.116    31.677
    245    C    7.678    -33.151    30.334
    246    N    8.703    -33.676    29.668
    247    H    9.488    -34.043    30.173
    248    H    8.727    -33.716    28.672
    249    C    4.649    -30.187    33.010
    250    H    5.733    -29.955    33.104
    251    O    4.003    -30.024    34.264
    252    H    4.022    -29.080    34.502
    253    C    4.011    -29.335    31.918
    254    H    4.676    -29.289    31.029
    255    O    3.623    -28.017    32.341
    256    H    4.416    -27.471    32.497
    257    H    17.194    -38.273    35.111
    258    O    16.360    -37.840    35.369
    259    C    16.478    -37.516    36.763
    260    H    17.321    -36.802    36.903
    261    H    16.715    -38.441    37.334
    262    C    15.206    -36.893    37.345
    263    H    15.316    -36.716    38.436
    264    O    14.951    -35.600    36.717
    265    C    13.548    -35.449    36.536
    266    H    13.256    -34.491    37.024
    267    N    13.182    -35.392    35.116
    268    C    12.004    -34.916    34.604
    269    N    8.876    -33.524    35.069
    270    H    8.819    -33.435    36.059
    271    H    8.112    -33.191    34.508
    272    N    10.976    -34.423    35.318
    273    C    9.981    -34.004    34.540
    274    N    10.021    -34.059    33.171
    275    H    9.226    -33.707    32.659
    276    C    11.070    -34.555    32.408
    277    O    11.025    -34.560    31.172
    278    C    12.129    -35.025    33.230
    279    N    13.355    -35.586    32.887
    280    C    13.942    -35.796    34.043
    281    H    14.933    -36.235    34.185
    282    C    12.874    -36.597    37.245
    283    H    11.911    -36.886    36.775
    284    O    12.664    -36.263    38.603
    285    H    12.268    -37.044    39.009
    286    C    13.917    -37.697    37.107
    287    H    13.952    -38.077    36.061
    288    O    13.814    -38.758    38.078
    289    P    12.892    -40.002    37.793
    290    O    13.263    -40.578    36.484
    291    O    12.969    -40.888    38.976
    292    O    11.445    -39.386    37.696
    293    C    10.743    -39.023    38.911
    294    H    11.320    -38.280    39.508
    295    H    10.588    -39.918    39.557
    296    C    9.362    -38.417    38.615
    297    H    8.873    -38.057    39.545
    298    O    9.492    -37.271    37.722
    299    C    8.424    -37.275    36.787
    300    H    7.920    -36.283    36.865
    301    N    8.905    -37.470    35.409
    302    C    9.025    -37.499    33.212
    303    N    10.240    -37.984    33.672
    304    C    10.116    -37.961    34.978
    305    H    10.885    -38.275    35.686
    306    N    7.268    -36.763    31.809
    307    C    6.579    -36.521    32.927
    308    H    5.567    -36.128    32.775
    309    N    6.940    -36.708    34.201
    310    C    8.192    -37.191    34.272
    311    C    8.526    -37.264    31.914
    312    N    9.237    -37.504    30.795
    313    H    10.193    -37.807    30.832
    314    H    8.869    -37.216    29.907
    315    C    7.457    -38.361    37.203
    316    H    6.947    -38.819    36.334
    317    O    6.485    -37.859    38.097
    318    H    5.989    -38.629    38.417
    319    C    8.393    -39.351    37.880
    320    H    9.010    -39.862    37.105
    321    O    7.743    -40.246    38.812
    322    P    7.712    -41.798    38.546
    323    O    8.643    -42.140    37.453
    324    O    7.887    -42.515    39.826
    325    O    6.248    -42.033    38.028
    326    C    5.083    -41.724    38.827
    327    H    5.280    -40.910    39.566
    328    H    4.774    -42.626    39.400
    329    C    3.904    -41.277    37.950
    330    H    3.038    -40.971    38.576
    331    O    4.310    -40.116    37.163
    332    C    3.756    -40.210    35.861
    333    H    3.188    -39.265    35.686
    334    N    4.807    -40.346    34.839
    335    C    5.905    -40.284    32.935
    336    N    6.826    -40.673    33.894
    337    C    6.121    -40.721    34.998
    338    H    6.517    -40.991    35.977
    339    N    4.908    -39.627    30.893
    340    C    3.772    -39.508    31.582
    341    H    2.893    -39.193    31.009
    342    N    3.530    -39.737    32.873
    343    C    4.656    -40.096    33.503
    344    C    6.026    -40.033    31.553
    345    N    7.185    -40.179    30.879
    346    H    8.048    -40.423    31.330
    347    H    7.209    -39.963    29.898
    348    C    2.800    -41.378    35.851
    349    H    2.772    -41.880    34.870
    350    O    1.498    -40.949    36.198
    351    H    0.985    -41.739    36.427
    352    C    3.401    -42.295    36.908
    353    H    4.309    -42.805    36.507
    354    O    2.448    -43.210    37.495
    355    P    2.450    -44.740    37.115
    356    O    3.764    -45.318    37.456
    357    O    1.263    -45.377    37.725
    358    O    2.304    -44.755    35.548
    359    C    1.059    -44.422    34.894
    360    H    0.653    -43.460    35.283
    361    H    0.301    -45.218    35.077
    362    C    1.234    -44.268    33.371
    363    H    0.283    -43.964    32.882
    364    O    2.197    -43.215    33.103
    365    C    3.042    -43.587    32.034
    366    H    2.993    -42.761    31.288
    367    N    4.430    -43.749    32.474
    368    C    5.510    -43.595    31.665
    369    N    6.853    -42.910    28.556
    370    H    6.073    -42.696    27.963
    371    H    7.749    -43.101    28.145
    372    N    5.467    -43.272    30.367
    373    C    6.679    -43.193    29.831
    374    N    7.829    -43.388    30.555
    375    H    8.687    -43.407    30.023
    376    C    7.906    -43.732    31.895
    377    O    8.989    -43.907    32.462
    378    C    6.612    -43.826    32.467
    379    N    6.224    -44.122    33.765
    380    C    4.916    -44.068    33.721
    381    H    4.255    -44.245    34.566
    382    C    2.486    -44.848    31.428
    383    H    3.282    -45.520    31.040
    384    O    1.560    -44.535    30.399
    385    H    1.088    -45.352    30.181
    386    C    1.803    -45.478    32.626
    387    H    2.583    -45.891    33.307
    388    O    0.759    -46.413    32.266
    389    P    0.859    -47.886    32.817
    390    O    2.268    -48.189    33.143
    391    O    -0.128    -48.021    33.907
    392    O    0.407    -48.766    31.589
    393    C    0.190    -50.183    31.783
    394    H    -0.900    -50.379    31.907
    395    H    0.707    -50.580    32.692
    396    C    0.708    -50.999    30.595
    397    H    1.814    -50.902    30.503
    398    O    0.385    -52.396    30.856
    399    C    0.021    -53.046    29.639
    400    H    0.731    -53.901    29.536
    401    N    -1.361    -53.576    29.643
    402    C    -2.304    -53.023    30.475
    403    H    -1.955    -52.224    31.133
    404    C    -3.558    -53.486    30.505
    405    H    -4.298    -53.094    31.199
    406    C    -1.718    -54.601    28.769
    407    O    -0.859    -55.071    28.007
    408    N    -2.985    -55.078    28.776
    409    C    -3.894    -54.554    29.621
    410    N    -5.123    -55.061    29.643
    411    H    -5.344    -55.820    29.027
    412    H    -5.807    -54.745    30.300
    413    C    0.241    -52.069    28.509
    414    H    -0.492    -52.169    27.679
    415    O    1.540    -52.282    27.997
    416    H    2.203    -51.657    28.325
    417    C    0.056    -50.731    29.231
    418    H    -1.025    -50.586    29.466
    419    O    0.657    -49.590    28.583
    420    P    -0.243    -48.654    27.680
    421    O    -1.689    -48.869    28.005
    422    O    0.208    -47.258    27.680
    423    O    -0.031    -49.245    26.241
    424    C    -0.835    -48.794    25.121
    425    H    -1.280    -47.787    25.285
    426    H    -1.673    -49.503    24.953
    427    C    0.005    -48.723    23.834
    428    H    -0.625    -48.452    22.960
    429    O    1.005    -47.670    23.977
    430    C    2.236    -48.101    23.409
    431    H    2.552    -47.316    22.683
    432    N    3.280    -48.245    24.419
    433    C    5.212    -48.480    25.435
    434    N    4.274    -48.261    26.423
    435    C    3.145    -48.140    25.778
    436    H    2.171    -47.985    26.245
    437    N    7.265    -48.763    24.294
    438    C    6.554    -48.723    23.166
    439    H    7.135    -48.819    22.240
    440    N    5.234    -48.589    23.005
    441    C    4.618    -48.457    24.190
    442    C    6.606    -48.671    25.479
    443    N    7.271    -48.787    26.640
    444    H    6.794    -48.580    27.501
    445    H    8.260    -48.631    26.658
    446    C    1.972    -49.391    22.677
    447    H    2.844    -50.071    22.690
    448    O    1.592    -49.122    21.340
    449    H    1.208    -49.936    20.985
    450    C    0.824    -49.979    23.480
    451    H    1.201    -50.390    24.447
    452    O    0.028    -50.919    22.725
    453    P    0.073    -52.456    23.057
    454    O    -0.337    -52.649    24.464
    455    O    -0.731    -53.173    22.043
    456    O    1.602    -52.817    22.876
    457    C    2.223    -52.855    21.568
    458    H    2.014    -51.924    20.991
    459    H    1.842    -53.718    20.978
    460    C    3.749    -53.015    21.663
    461    H    4.213    -53.040    20.655
    462    O    4.310    -51.875    22.368
    463    C    5.345    -52.297    23.235
    464    H    6.240    -51.692    22.972
    465    N    5.006    -52.045    24.648
    466    C    5.866    -52.018    25.718
    467    N    9.032    -52.382    27.041
    468    H    9.515    -52.210    27.896
    469    H    9.562    -52.543    26.212
    470    N    7.184    -52.256    25.679
    471    C    7.742    -52.156    26.885
    472    N    7.050    -51.830    28.023
    473    H    7.555    -51.778    28.890
    474    C    5.689    -51.570    28.092
    475    O    5.149    -51.304    29.172
    476    C    5.085    -51.706    26.817
    477    N    3.769    -51.580    26.450
    478    C    3.759    -51.779    25.160
    479    H    2.872    -51.753    24.524
    480    C    5.608    -53.757    22.939
    481    H    5.939    -54.320    23.834
    482    O    6.588    -53.863    21.926
    483    H    6.567    -54.773    21.600
    484    C    4.238    -54.237    22.450
    485    H    3.540    -54.354    23.309
    486    O    4.264    -55.397    21.583
    487    P    4.023    -56.829    22.195
    488    O    2.740    -56.843    22.927
    489    O    4.185    -57.847    21.132
    490    O    5.187    -56.968    23.246
    491    C    6.548    -57.217    22.834
    492    H    6.958    -56.358    22.259
    493    H    6.608    -58.115    22.176
    494    C    7.454    -57.466    24.050
    495    H    8.463    -57.803    23.720
    496    O    7.656    -56.217    24.776
    497    C    7.666    -56.487    26.176
    498    H    8.632    -56.078    26.556
    499    N    6.535    -55.830    26.896
    500    C    5.379    -55.487    26.227
    501    H    5.376    -55.686    25.156
    502    C    4.348    -54.903    26.855
    503    H    3.438    -54.591    26.335
    504    C    6.605    -55.649    28.274
    505    O    7.607    -56.047    28.887
    506    N    5.587    -55.047    28.924
    507    C    4.477    -54.682    28.257
    508    N    3.491    -54.108    28.934
    509    H    3.607    -53.912    29.912
    510    H    2.748    -53.629    28.454
    511    C    7.669    -58.000    26.359
    512    H    7.115    -58.309    27.273
    513    O    9.000    -58.498    26.417
    514    H    8.974    -59.465    26.323
    515    C    6.923    -58.449    25.106
    516    H    5.833    -58.274    25.232
    517    O    7.178    -59.809    24.712
    518    H    6.781    -60.424    25.355
 $END
