!*** FMO 5.3 (Gamess) INPUT generated by Facio 22.1.1.32 ***
 $CONTRL RUNTYP=ENERGY NPRINT=-5 ISPHER=1 MAXIT=200 $END
 $SYSTEM MWORDS=63 MEMDDI=63 $END
 $GDDI NGROUP=1 $END
 $SCF DIRSCF=.TRUE. NPUNCH=0 $END
!*** NumCPU : 2  MemPerNode : 512MB
 $PCM SOLVNT=WATER IEF=-10 ICOMP=2 ICAV=1 IDISP=1 IFMO=-1 $END
 $PCMCAV RADII=SUAHF $END
 $TESCAV NTSALL=60 $END
 $FMOPRP
    NAODIR=200
    NGRFMO(1)=1, 1, 0, 0, 0,   0, 0, 0, 0, 0
    IPIEDA=1
    NPRINT=9
 $END
 $FMO
      SCFTYP(1)=RHF
      MODGRD=10
      MODMUL=0
      MAXCAO=5
      MAXBND=18
      NLAYER=1
      MPLEVL(1)=2
      NFRAG=16
      ICHARG(1)=-1, -1, -1, -1, -1, -1, -1, 0, -1, -1, -1, -1, -1, -1,
-1, 0
      FRGNAM(1)=F1, F2, F3, F4, F5, F6, F7, F8, F9, F10, F11, F12, F13,
F14, F15, F16
      indat(1)=0
               1   -36   0
               37   -66   0
               67   -97   0
               98   -130   0
               131   -164   0
               165   -198   0
               199   -228   0
               229   -258   0
               259   -292   0
               293   -325   0
               326   -358   0
               359   -392   0
               393   -423   0
               424   -456   0
               457   -490   0
               491   -518   0
 $END

 $FMOBND
   -37   36       6-31G*    MINI
   -67   66       6-31G*    MINI
   -98   97       6-31G*    MINI
   -131   130       6-31G*    MINI
   -165   164       6-31G*    MINI
   -199   198       6-31G*    MINI
   -229   228       6-31G*    MINI
   -259   258       6-31G*    MINI
   -293   292       6-31G*    MINI
   -326   325       6-31G*    MINI
   -359   358       6-31G*    MINI
   -393   392       6-31G*    MINI
   -424   423       6-31G*    MINI
   -457   456       6-31G*    MINI
   -491   490       6-31G*    MINI
 $END
 $FMOHYB
 6-31G*      15   5
   1 0  -0.065034   0.288264   0.000000   0.000000   0.604412
         0.290129   0.000000   0.000000   0.319045  -0.017106
        -0.017106   0.057934   0.000000   0.000000   0.000000
   0 1  -0.065040   0.288293   0.569832   0.000000  -0.201456
         0.290147   0.300783   0.000000  -0.106342   0.049598
        -0.017106  -0.008771   0.000000  -0.027223   0.000000
   0 1  -0.065039   0.288293  -0.284916  -0.493490  -0.201455
         0.290145  -0.150392  -0.260486  -0.106340  -0.000427
         0.032923  -0.008771   0.033353   0.013612   0.023576
   0 1  -0.065039   0.288293  -0.284916   0.493490  -0.201455
         0.290145  -0.150392   0.260486  -0.106340  -0.000427
         0.032923  -0.008771  -0.033353   0.013612  -0.023576
   0 1   1.010938  -0.011975   0.000000   0.000000   0.000000
        -0.054085   0.000000   0.000000  -0.000000  -0.003174
        -0.003174  -0.003174   0.000000   0.000000   0.000000
 MINI         5   5
   1 0  -0.104883   0.308874   0.000000   0.000000   0.521806
   0 1  -0.104883   0.308874   0.491961   0.000000  -0.173934
   0 1  -0.104883   0.308876  -0.245980  -0.426050  -0.173933
   0 1  -0.104883   0.308876  -0.245980   0.426050  -0.173933
   0 1   0.988209   0.063992   0.000000   0.000000   0.000000
 $END
 
 $DATA
 FMO calculation
 C1 
 H.1-1    1
      N31 6
   
 O.1-1    8
      N31 6
      d 1
      1 0.800 1.0
   
 C.1-1    6
      N31 6
      d 1
      1 0.800 1.0
   
 N.1-1    7
      N31 6
      d 1
      1 0.800 1.0
   
 P.1-1   15
      N31 6
      d 1
      1 0.550 1.0
   
 $END
 $FMOXYZ
    1    H    3.645    -53.954    39.681
    2    O    4.399    -54.112    39.082
    3    C    5.461    -54.644    39.888
    4    H    5.088    -55.539    40.437
    5    H    5.765    -53.885    40.644
    6    C    6.689    -55.050    39.068
    7    H    7.486    -55.462    39.722
    8    O    6.321    -56.097    38.122
    9    C    7.014    -55.893    36.903
    10    H    7.575    -56.832    36.689
    11    N    6.085    -55.631    35.792
    12    C    6.380    -55.715    34.457
    13    N    8.638    -56.367    31.918
    14    H    9.478    -56.577    32.417
    15    H    8.650    -56.396    30.915
    16    N    7.575    -56.031    33.932
    17    C    7.552    -56.068    32.604
    18    N    6.425    -55.815    31.865
    19    H    6.489    -55.886    30.861
    20    C    5.174    -55.495    32.378
    21    O    4.208    -55.292    31.635
    22    C    5.200    -55.430    33.797
    23    N    4.184    -55.150    34.701
    24    C    4.753    -55.282    35.878
    25    H    4.260    -55.143    36.844
    26    C    7.995    -54.762    37.120
    27    H    8.168    -54.170    36.200
    28    O    9.222    -55.280    37.592
    29    H    9.752    -54.522    37.872
    30    C    7.297    -53.938    38.197
    31    H    6.443    -53.370    37.755
    32    O    8.180    -53.112    38.996
    33    P    8.451    -51.625    38.553
    34    O    7.141    -50.972    38.371
    35    O    9.401    -50.984    39.487
    36    O    9.135    -51.757    37.146
    37    C    10.503    -52.187    36.972
    38    H    10.668    -53.199    37.405
    39    H    11.208    -51.488    37.483
    40    C    10.878    -52.243    35.481
    41    H    11.925    -52.594    35.350
    42    O    10.017    -53.184    34.771
    43    C    9.706    -52.672    33.481
    44    H    10.061    -53.447    32.758
    45    N    8.236    -52.445    33.303
    46    C    7.413    -52.300    34.396
    47    H    7.911    -52.359    35.361
    48    C    7.718    -52.401    32.025
    49    O    8.409    -52.516    31.020
    50    N    6.355    -52.233    31.959
    51    H    5.941    -52.212    31.040
    52    C    5.475    -52.115    33.008
    53    O    4.275    -51.996    32.788
    54    C    6.085    -52.151    34.301
    55    H    5.453    -52.076    35.184
    56    C    10.531    -51.408    33.295
    57    H    10.000    -50.653    32.681
    58    O    11.778    -51.721    32.704
    59    H    12.302    -50.904    32.706
    60    C    10.712    -50.918    34.729
    61    H    9.767    -50.459    35.098
    62    O    11.869    -50.073    34.959
    63    P    11.748    -48.540    34.598
    64    O    10.467    -48.032    35.137
    65    O    12.979    -47.859    35.043
    66    O    11.697    -48.498    33.026
    67    C    11.184    -47.308    32.370
    68    H    12.003    -46.574    32.221
    69    H    10.395    -46.796    32.977
    70    C    10.562    -47.628    31.001
    71    H    11.339    -47.868    30.246
    72    O    9.697    -48.795    31.117
    73    C    8.498    -48.586    30.405
    74    H    8.420    -49.448    29.705
    75    N    7.293    -48.582    31.290
    76    C    7.408    -48.668    32.666
    77    H    8.425    -48.713    33.068
    78    C    6.320    -48.694    33.453
    79    H    6.387    -48.771    34.535
    80    C    6.030    -48.531    30.710
    81    O    5.941    -48.469    29.478
    82    N    4.934    -48.551    31.486
    83    C    5.043    -48.638    32.819
    84    N    3.930    -48.704    33.538
    85    H    3.062    -48.723    33.016
    86    H    3.921    -48.757    34.534
    87    C    8.673    -47.298    29.607
    88    H    7.725    -46.734    29.480
    89    O    9.242    -47.567    28.340
    90    H    9.590    -46.724    28.017
    91    C    9.649    -46.514    30.469
    92    H    9.120    -46.090    31.357
    93    O    10.425    -45.522    29.737
    94    P    9.767    -44.093    29.566
    95    O    8.321    -44.239    29.833
    96    O    10.520    -43.129    30.393
    97    O    9.971    -43.714    28.042
    98    C    11.277    -43.525    27.455
    99    H    12.048    -44.157    27.955
    100    H    11.592    -42.464    27.580
    101    C    11.314    -43.867    25.946
    102    H    12.359    -44.005    25.599
    103    O    10.581    -45.103    25.680
    104    C    9.842    -44.970    24.474
    105    H    10.163    -45.810    23.817
    106    N    8.401    -45.086    24.711
    107    C    6.250    -45.428    24.434
    108    N    6.430    -45.151    25.779
    109    C    7.718    -44.951    25.895
    110    H    8.229    -44.695    26.825
    111    N    5.266    -45.911    22.326
    112    C    6.498    -45.829    21.821
    113    H    6.577    -46.002    20.741
    114    N    7.657    -45.616    22.459
    115    C    7.455    -45.385    23.766
    116    C    5.106    -45.728    23.664
    117    N    3.883    -45.857    24.193
    118    H    3.740    -45.590    25.156
    119    H    3.090    -45.915    23.589
    120    C    10.221    -43.655    23.828
    121    H    9.366    -43.167    23.304
    122    O    11.293    -43.859    22.924
    123    H    11.590    -42.984    22.627
    124    C    10.651    -42.822    25.032
    125    H    9.765    -42.481    25.603
    126    O    11.570    -41.743    24.728
    127    P    10.998    -40.351    24.260
    128    O    10.021    -39.934    25.291
    129    O    12.154    -39.458    24.000
    130    O    10.250    -40.638    22.897
    131    C    9.097    -39.841    22.515
    132    H    9.402    -38.803    22.268
    133    H    8.356    -39.779    23.347
    134    C    8.374    -40.435    21.284
    135    H    9.073    -40.505    20.426
    136    O    7.915    -41.789    21.574
    137    C    6.590    -41.986    21.092
    138    H    6.633    -42.922    20.492
    139    N    5.574    -42.168    22.156
    140    C    5.714    -42.055    23.521
    141    N    7.688    -41.336    26.253
    142    H    7.532    -41.092    27.206
    143    H    8.449    -40.897    25.761
    144    N    6.847    -41.760    24.183
    145    C    6.685    -41.706    25.486
    146    N    5.475    -41.904    26.096
    147    H    5.456    -42.017    27.100
    148    C    4.290    -42.228    25.449
    149    O    3.233    -42.385    26.060
    150    C    4.460    -42.294    24.044
    151    N    3.544    -42.593    23.040
    152    C    4.252    -42.513    21.936
    153    H    3.865    -42.712    20.930
    154    C    6.262    -40.812    20.201
    155    H    5.187    -40.530    20.218
    156    O    6.657    -41.105    18.874
    157    H    7.624    -41.181    18.856
    158    C    7.099    -39.701    20.827
    159    H    6.586    -39.366    21.754
    160    O    7.404    -38.633    19.906
    161    P    7.192    -37.119    20.264
    162    O    8.247    -36.751    21.228
    163    O    7.162    -36.341    19.008
    164    O    5.792    -37.006    20.983
    165    C    4.545    -37.211    20.287
    166    H    4.586    -38.122    19.643
    167    H    4.325    -36.334    19.636
    168    C    3.384    -37.368    21.284
    169    H    2.417    -37.490    20.752
    170    O    3.603    -38.574    22.079
    171    C    3.255    -38.315    23.433
    172    H    2.527    -39.105    23.730
    173    N    4.419    -38.379    24.326
    174    C    4.408    -38.598    25.679
    175    N    2.673    -39.160    28.616
    176    H    2.874    -39.483    29.532
    177    H    1.730    -39.198    28.281
    178    N    3.322    -38.798    26.441
    179    C    3.630    -39.010    27.717
    180    N    4.920    -39.059    28.178
    181    H    5.084    -39.242    29.158
    182    C    6.058    -38.856    27.415
    183    O    7.185    -38.914    27.912
    184    C    5.733    -38.581    26.066
    185    N    6.556    -38.322    24.988
    186    C    5.735    -38.217    23.979
    187    H    6.035    -38.015    22.956
    188    C    2.579    -36.965    23.493
    189    H    2.782    -36.441    24.454
    190    O    1.181    -37.095    23.310
    191    H    0.818    -36.197    23.256
    192    C    3.231    -36.230    22.323
    193    H    4.256    -35.898    22.597
    194    O    2.453    -35.147    21.769
    195    P    2.331    -33.762    22.518
    196    O    3.637    -33.074    22.459
    197    O    1.167    -33.047    21.947
    198    O    1.984    -34.099    24.016
    199    C    2.376    -33.184    25.070
    200    H    1.913    -32.181    24.916
    201    H    3.485    -33.040    25.078
    202    C    1.932    -33.706    26.451
    203    H    0.826    -33.776    26.507
    204    O    2.454    -35.049    26.673
    205    C    2.910    -35.182    28.014
    206    H    2.403    -36.087    28.422
    207    N    4.394    -35.357    28.078
    208    C    5.173    -35.172    26.952
    209    H    4.643    -34.876    26.043
    210    C    4.967    -35.753    29.268
    211    O    4.303    -35.958    30.286
    212    N    6.330    -35.908    29.236
    213    H    6.765    -36.206    30.103
    214    C    7.162    -35.756    28.143
    215    O    8.370    -35.950    28.248
    216    C    6.497    -35.352    26.947
    217    H    7.091    -35.213    26.046
    218    C    2.426    -33.951    28.763
    219    H    3.097    -33.662    29.597
    220    O    1.117    -34.168    29.259
    221    H    0.765    -33.310    29.539
    222    C    2.438    -32.904    27.660
    223    H    3.494    -32.627    27.425
    224    O    1.577    -31.769    27.913
    225    P    2.213    -30.363    28.214
    226    O    3.368    -30.154    27.315
    227    O    1.148    -29.337    28.180
    228    O    2.735    -30.520    29.694
    229    C    1.772    -30.629    30.771
    230    H    1.059    -31.468    30.594
    231    H    1.183    -29.686    30.856
    232    C    2.457    -30.874    32.121
    233    H    1.720    -30.891    32.950
    234    O    3.112    -32.173    32.104
    235    C    4.354    -32.079    32.788
    236    H    4.312    -32.850    33.590
    237    N    5.518    -32.368    31.906
    238    C    5.382    -32.306    30.537
    239    H    4.392    -32.042    30.166
    240    C    6.404    -32.583    29.718
    241    H    6.308    -32.555    28.633
    242    C    6.750    -32.700    32.462
    243    O    6.866    -32.746    33.696
    244    N    7.800    -32.962    31.651
    245    C    7.653    -32.919    30.316
    246    N    8.702    -33.202    29.546
    247    H    9.560    -33.497    29.973
    248    H    8.641    -33.216    28.551
    249    C    4.424    -30.704    33.438
    250    H    5.463    -30.312    33.479
    251    O    3.870    -30.759    34.747
    252    H    3.789    -29.852    35.091
    253    C    3.569    -29.878    32.482
    254    H    4.146    -29.638    31.559
    255    O    3.013    -28.683    33.060
    256    H    3.729    -28.045    33.248
    257    H    18.190    -36.768    33.966
    258    O    17.309    -36.591    34.343
    259    C    17.491    -36.339    35.745
    260    H    18.216    -35.506    35.882
    261    H    17.914    -37.249    36.225
    262    C    16.189    -35.974    36.468
    263    H    16.361    -35.863    37.561
    264    O    15.694    -34.690    35.981
    265    C    14.275    -34.745    35.901
    266    H    13.883    -33.886    36.491
    267    N    13.798    -34.629    34.516
    268    C    12.520    -34.323    34.126
    269    N    9.262    -33.477    34.913
    270    H    9.275    -33.472    35.909
    271    H    8.417    -33.217    34.436
    272    N    11.478    -34.087    34.943
    273    C    10.375    -33.768    34.272
    274    N    10.317    -33.703    32.903
    275    H    9.445    -33.429    32.478
    276    C    11.376    -33.946    32.035
    277    O    11.252    -33.855    30.808
    278    C    12.557    -34.287    32.744
    279    N    13.829    -34.583    32.273
    280    C    14.531    -34.793    33.362
    281    H    15.589    -35.068    33.395
    282    C    13.832    -36.039    36.539
    283    H    12.899    -36.438    36.092
    284    O    13.644    -35.851    37.926
    285    H    13.373    -36.707    38.281
    286    C    15.023    -36.947    36.250
    287    H    15.039    -37.232    35.174
    288    O    15.165    -38.087    37.129
    289    P    14.419    -39.428    36.767
    290    O    14.708    -39.772    35.356
    291    O    14.747    -40.447    37.787
    292    O    12.900    -39.047    36.902
    293    C    12.305    -38.898    38.219
    294    H    12.813    -38.099    38.807
    295    H    12.405    -39.840    38.802
    296    C    10.807    -38.551    38.140
    297    H    10.384    -38.378    39.158
    298    O    10.620    -37.328    37.361
    299    C    9.461    -37.458    36.541
    300    H    8.804    -36.592    36.788
    301    N    9.798    -37.414    35.112
    302    C    9.706    -37.189    32.926
    303    N    11.027    -37.488    33.233
    304    C    11.027    -37.624    34.534
    305    H    11.902    -37.878    35.133
    306    N    7.728    -36.636    31.746
    307    C    7.119    -36.632    32.934
    308    H    6.049    -36.400    32.905
    309    N    7.623    -36.860    34.155
    310    C    8.937    -37.141    34.075
    311    C    9.054    -36.920    31.705
    312    N    9.688    -36.920    30.521
    313    H    10.652    -37.183    30.420
    314    H    9.188    -36.656    29.692
    315    C    8.760    -38.746    36.923
    316    H    8.265    -39.232    36.057
    317    O    7.806    -38.514    37.941
    318    H    7.488    -39.385    38.225
    319    C    9.927    -39.587    37.423
    320    H    10.533    -39.905    36.551
    321    O    9.561    -40.676    38.311
    322    P    9.699    -42.170    37.810
    323    O    10.469    -42.220    36.550
    324    O    10.196    -43.008    38.925
    325    O    8.215    -42.581    37.466
    326    C    7.133    -42.539    38.425
    327    H    7.305    -41.777    39.218
    328    H    7.046    -43.530    38.923
    329    C    5.773    -42.237    37.766
    330    H    4.972    -42.148    38.531
    331    O    5.850    -40.965    37.061
    332    C    5.110    -41.052    35.851
    333    H    4.362    -40.226    35.877
    334    N    5.982    -40.877    34.684
    335    C    6.746    -40.382    32.683
    336    N    7.824    -40.880    33.396
    337    C    7.320    -41.161    34.570
    338    H    7.887    -41.577    35.403
    339    N    5.394    -39.449    30.983
    340    C    4.391    -39.496    31.861
    341    H    3.430    -39.116    31.501
    342    N    4.385    -39.953    33.114
    343    C    5.605    -40.378    33.468
    344    C    6.621    -39.894    31.367
    345    N    7.649    -39.853    30.500
    346    H    8.574    -40.128    30.763
    347    H    7.508    -39.449    29.591
    348    C    4.392    -42.386    35.827
    349    H    4.305    -42.815    34.802
    350    O    3.101    -42.281    36.398
    351    H    2.713    -43.164    36.310
    352    C    5.310    -43.244    36.694
    353    H    6.224    -43.525    36.131
    354    O    4.689    -44.400    37.303
    355    P    4.317    -45.616    36.358
    356    O    5.345    -45.745    35.287
    357    O    4.056    -46.788    37.205
    358    O    2.938    -45.169    35.720
    359    C    2.465    -45.955    34.592
    360    H    2.252    -47.001    34.903
    361    H    3.239    -46.004    33.788
    362    C    1.192    -45.366    33.960
    363    H    0.354    -45.371    34.685
    364    O    1.433    -43.981    33.576
    365    C    0.887    -43.729    32.291
    366    H    0.218    -42.847    32.431
    367    N    1.902    -43.385    31.265
    368    C    3.273    -43.585    31.230
    369    N    6.153    -44.731    32.756
    370    H    7.142    -44.716    32.644
    371    H    5.731    -45.092    33.597
    372    N    4.019    -44.182    32.169
    373    C    5.307    -44.215    31.874
    374    N    5.829    -43.655    30.735
    375    H    6.802    -43.818    30.496
    376    C    5.089    -43.026    29.743
    377    O    5.622    -42.531    28.744
    378    C    3.699    -43.017    30.048
    379    N    2.627    -42.502    29.335
    380    C    1.585    -42.756    30.085
    381    H    0.556    -42.495    29.824
    382    C    0.059    -44.925    31.897
    383    H    0.085    -45.118    30.805
    384    O    -1.278    -44.750    32.318
    385    H    -1.680    -45.627    32.284
    386    C    0.733    -46.057    32.658
    387    H    1.665    -46.352    32.113
    388    O    -0.157    -47.166    32.954
    389    P    0.051    -48.561    32.256
    390    O    1.502    -48.803    32.170
    391    O    -0.747    -49.593    32.945
    392    O    -0.523    -48.354    30.808
    393    C    -1.872    -47.922    30.531
    394    H    -2.215    -47.144    31.255
    395    H    -2.568    -48.786    30.619
    396    C    -2.003    -47.334    29.110
    397    H    -3.049    -47.022    28.908
    398    O    -1.187    -46.136    29.011
    399    C    -0.556    -46.084    27.738
    400    H    -0.859    -45.100    27.308
    401    N    0.933    -46.128    27.831
    402    C    1.531    -46.766    28.890
    403    H    0.854    -47.159    29.632
    404    C    2.860    -46.815    29.028
    405    H    3.345    -47.297    29.875
    406    C    1.728    -45.551    26.845
    407    O    1.182    -45.005    25.877
    408    N    3.072    -45.569    26.980
    409    C    3.643    -46.172    28.034
    410    N    4.964    -46.165    28.141
    411    H    5.477    -45.682    27.423
    412    H    5.415    -46.869    28.690
    413    C    -1.144    -47.193    26.883
    414    H    -0.411    -47.616    26.162
    415    O    -2.278    -46.702    26.187
    416    H    -2.732    -47.456    25.777
    417    C    -1.527    -48.225    27.946
    418    H    -0.612    -48.751    28.301
    419    O    -2.581    -49.133    27.569
    420    P    -2.283    -50.545    26.948
    421    O    -1.461    -51.333    27.892
    422    O    -3.572    -51.134    26.538
    423    O    -1.441    -50.218    25.658
    424    C    -0.535    -51.215    25.119
    425    H    -1.093    -52.119    24.779
    426    H    0.200    -51.540    25.896
    427    C    0.269    -50.669    23.924
    428    H    -0.395    -50.451    23.058
    429    O    0.904    -49.409    24.306
    430    C    2.206    -49.329    23.748
    431    H    2.252    -48.380    23.167
    432    N    3.228    -49.295    24.794
    433    C    5.141    -49.180    25.859
    434    N    4.161    -49.290    26.837
    435    C    3.047    -49.352    26.155
    436    H    2.047    -49.449    26.587
    437    N    7.226    -48.975    24.754
    438    C    6.538    -48.977    23.608
    439    H    7.136    -48.889    22.689
    440    N    5.222    -49.093    23.428
    441    C    4.576    -49.175    24.600
    442    C    6.545    -49.091    25.923
    443    N    7.205    -49.118    27.090
    444    H    6.670    -48.981    27.933
    445    H    8.149    -48.781    27.128
    446    C    2.378    -50.508    22.819
    447    H    3.420    -50.892    22.780
    448    O    1.953    -50.149    21.517
    449    H    1.886    -50.962    20.992
    450    C    1.456    -51.536    23.459
    451    H    1.910    -51.952    24.389
    452    O    1.029    -52.546    22.537
    453    P    1.396    -54.059    22.700
    454    O    0.997    -54.521    24.050
    455    O    0.793    -54.777    21.555
    456    O    2.964    -54.123    22.590
    457    C    3.660    -53.831    21.352
    458    H    3.284    -52.893    20.881
    459    H    3.519    -54.651    20.614
    460    C    5.174    -53.676    21.591
    461    H    5.716    -53.529    20.633
    462    O    5.395    -52.484    22.394
    463    C    6.405    -52.729    23.361
    464    H    7.160    -51.917    23.246
    465    N    5.860    -52.674    24.728
    466    C    6.565    -52.562    25.895
    467    N    9.588    -52.318    27.560
    468    H    9.935    -52.238    28.493
    469    H    10.235    -52.343    26.799
    470    N    7.902    -52.515    26.005
    471    C    8.304    -52.385    27.268
    472    N    7.442    -52.299    28.326
    473    H    7.828    -52.238    29.253
    474    C    6.057    -52.322    28.241
    475    O    5.378    -52.228    29.267
    476    C    5.615    -52.502    26.899
    477    N    4.330    -52.620    26.373
    478    C    4.532    -52.719    25.081
    479    H    3.761    -52.811    24.316
    480    C    7.037    -54.063    23.032
    481    H    7.398    -54.599    23.935
    482    O    8.116    -53.872    22.134
    483    H    8.347    -54.737    21.766
    484    C    5.872    -54.804    22.377
    485    H    5.150    -55.140    23.157
    486    O    6.268    -55.867    21.478
    487    P    6.221    -57.364    21.964
    488    O    4.870    -57.681    22.477
    489    O    6.732    -58.241    20.887
    490    O    7.233    -57.396    23.173
    491    C    8.659    -57.314    22.942
    492    H    8.930    -56.327    22.507
    493    H    8.993    -58.098    22.222
    494    C    9.462    -57.484    24.241
    495    H    10.547    -57.590    24.019
    496    O    9.311    -56.290    25.059
    497    C    9.218    -56.666    26.429
    498    H    10.027    -56.102    26.951
    499    N    7.901    -56.310    27.031
    500    C    6.803    -56.110    26.227
    501    H    6.975    -56.196    25.155
    502    C    5.607    -55.795    26.742
    503    H    4.738    -55.599    26.117
    504    C    7.766    -56.227    28.413
    505    O    8.751    -56.448    29.131
    506    N    6.569    -55.901    28.952
    507    C    5.504    -55.696    28.158
    508    N    4.338    -55.389    28.719
    509    H    4.290    -55.279    29.714
    510    H    3.550    -55.101    28.173
    511    C    9.518    -58.156    26.522
    512    H    8.942    -58.646    27.337
    513    O    10.911    -58.371    26.715
    514    H    11.105    -59.322    26.620
    515    C    9.031    -58.639    25.158
    516    H    7.922    -58.697    25.150
    517    O    9.612    -59.878    24.715
    518    H    9.281    -60.613    25.261
 $END
