!*** FMO 5.3 (Gamess) INPUT generated by Facio 22.1.1.32 ***
 $CONTRL RUNTYP=ENERGY NPRINT=-5 ISPHER=1 MAXIT=200 $END
 $SYSTEM MWORDS=63 MEMDDI=63 $END
 $GDDI NGROUP=1 $END
 $SCF DIRSCF=.TRUE. NPUNCH=0 $END
!*** NumCPU : 2  MemPerNode : 512MB
 $PCM SOLVNT=WATER IEF=-10 ICOMP=2 ICAV=1 IDISP=1 IFMO=-1 $END
 $PCMCAV RADII=SUAHF $END
 $TESCAV NTSALL=60 $END
 $FMOPRP
    NAODIR=200
    NGRFMO(1)=1, 1, 0, 0, 0,   0, 0, 0, 0, 0
    IPIEDA=1
    NPRINT=9
 $END
 $FMO
      SCFTYP(1)=RHF
      MODGRD=10
      MODMUL=0
      MAXCAO=5
      MAXBND=12
      NLAYER=1
      MPLEVL(1)=2
      NFRAG=10
      ICHARG(1)=-1, -1, -1, -1, -1, -1, -1, -1, -1, 0
      FRGNAM(1)=F1, F2, F3, F4, F5, F6, F7, F8, F9, F10
      indat(1)=0
               1   -36   0
               37   -67   0
               68   -98   0
               99   -128   0
               129   -162   0
               163   -196   0
               197   -230   0
               231   -263   0
               264   -297   0
               298   -325   0
 $END

 $FMOBND
   -37   36       6-31G*    MINI
   -68   67       6-31G*    MINI
   -99   98       6-31G*    MINI
   -129   128       6-31G*    MINI
   -163   162       6-31G*    MINI
   -197   196       6-31G*    MINI
   -231   230       6-31G*    MINI
   -264   263       6-31G*    MINI
   -298   297       6-31G*    MINI
 $END
 $FMOHYB
 6-31G*      15   5
   1 0  -0.065034   0.288264   0.000000   0.000000   0.604412
         0.290129   0.000000   0.000000   0.319045  -0.017106
        -0.017106   0.057934   0.000000   0.000000   0.000000
   0 1  -0.065040   0.288293   0.569832   0.000000  -0.201456
         0.290147   0.300783   0.000000  -0.106342   0.049598
        -0.017106  -0.008771   0.000000  -0.027223   0.000000
   0 1  -0.065039   0.288293  -0.284916  -0.493490  -0.201455
         0.290145  -0.150392  -0.260486  -0.106340  -0.000427
         0.032923  -0.008771   0.033353   0.013612   0.023576
   0 1  -0.065039   0.288293  -0.284916   0.493490  -0.201455
         0.290145  -0.150392   0.260486  -0.106340  -0.000427
         0.032923  -0.008771  -0.033353   0.013612  -0.023576
   0 1   1.010938  -0.011975   0.000000   0.000000   0.000000
        -0.054085   0.000000   0.000000  -0.000000  -0.003174
        -0.003174  -0.003174   0.000000   0.000000   0.000000
 MINI         5   5
   1 0  -0.104883   0.308874   0.000000   0.000000   0.521806
   0 1  -0.104883   0.308874   0.491961   0.000000  -0.173934
   0 1  -0.104883   0.308876  -0.245980  -0.426050  -0.173933
   0 1  -0.104883   0.308876  -0.245980   0.426050  -0.173933
   0 1   0.988209   0.063992   0.000000   0.000000   0.000000
 $END
 
 $DATA
 FMO calculation
 C1 
 H.1-1    1
      N31 6
   
 O.1-1    8
      N31 6
      d 1
      1 0.800 1.0
   
 C.1-1    6
      N31 6
      d 1
      1 0.800 1.0
   
 N.1-1    7
      N31 6
      d 1
      1 0.800 1.0
   
 P.1-1   15
      N31 6
      d 1
      1 0.550 1.0
   
 $END
 $FMOXYZ
    1    H    -5.565    -6.515    12.930
    2    O    -5.959    -5.742    12.489
    3    C    -5.560    -4.589    13.246
    4    H    -4.448    -4.533    13.269
    5    H    -5.918    -4.697    14.292
    6    C    -6.107    -3.276    12.677
    7    H    -5.787    -2.411    13.296
    8    O    -5.595    -3.068    11.328
    9    C    -6.619    -2.502    10.525
    10    H    -6.207    -1.563    10.091
    11    N    -7.003    -3.402    9.428
    12    C    -7.677    -3.039    8.294
    13    N    -9.188    -0.605    6.355
    14    H    -9.135    0.212    6.931
    15    H    -9.658    -0.545    5.471
    16    N    -8.120    -1.806    8.004
    17    C    -8.695    -1.742    6.807
    18    N    -8.810    -2.823    5.972
    19    H    -9.252    -2.685    5.077
    20    C    -8.348    -4.106    6.236
    21    O    -8.482    -5.023    5.418
    22    C    -7.761    -4.187    7.528
    23    N    -7.183    -5.265    8.188
    24    C    -6.746    -4.752    9.316
    25    H    -6.218    -5.297    10.103
    26    C    -7.780    -2.167    11.435
    27    H    -8.758    -2.241    10.919
    28    O    -7.618    -0.863    11.959
    29    H    -8.348    -0.730    12.573
    30    C    -7.634    -3.227    12.525
    31    H    -7.950    -4.224    12.137
    32    O    -8.242    -2.901    13.798
    33    P    -9.734    -3.339    14.070
    34    O    -9.883    -4.774    13.753
    35    O    -10.103    -2.903    15.436
    36    O    -10.551    -2.497    13.023
    37    C    -10.753    -1.080    13.243
    38    H    -9.784    -0.535    13.280
    39    H    -11.277    -0.895    14.210
    40    C    -11.604    -0.462    12.129
    41    H    -11.721    0.636    12.286
    42    O    -10.947    -0.643    10.843
    43    C    -11.931    -0.871    9.839
    44    H    -11.789    -0.054    9.093
    45    N    -11.767    -2.180    9.150
    46    C    -11.024    -3.178    9.733
    47    H    -10.613    -2.950    10.717
    48    C    -10.821    -4.349    9.117
    49    H    -10.217    -5.140    9.558
    50    C    -12.370    -2.399    7.914
    51    O    -13.044    -1.495    7.399
    52    N    -12.188    -3.582    7.284
    53    C    -11.432    -4.541    7.844
    54    N    -11.256    -5.688    7.191
    55    H    -11.690    -5.809    6.294
    56    H    -10.663    -6.413    7.539
    57    C    -13.295    -0.715    10.485
    58    H    -14.052    -1.401    10.053
    59    O    -13.740    0.627    10.372
    60    H    -14.463    0.742    11.006
    61    C    -12.993    -1.086    11.929
    62    H    -12.855    -2.190    12.020
    63    O    -13.934    -0.542    12.877
    64    P    -14.958    -1.487    13.603
    65    O    -14.206    -2.578    14.252
    66    O    -15.831    -0.664    14.466
    67    O    -15.796    -2.111    12.433
    68    C    -16.712    -1.343    11.630
    69    H    -16.217    -0.443    11.198
    70    H    -17.571    -1.006    12.254
    71    C    -17.275    -2.184    10.472
    72    H    -18.025    -1.603    9.892
    73    O    -16.206    -2.540    9.546
    74    C    -16.382    -3.879    9.109
    75    H    -16.414    -3.809    7.999
    76    N    -15.253    -4.778    9.493
    77    C    -14.463    -4.482    10.577
    78    H    -14.698    -3.555    11.096
    79    C    -13.429    -5.263    10.924
    80    H    -12.768    -5.020    11.753
    81    C    -14.980    -5.921    8.747
    82    O    -15.676    -6.168    7.757
    83    N    -13.951    -6.727    9.082
    84    C    -13.180    -6.423    10.134
    85    N    -12.137    -7.206    10.407
    86    H    -11.986    -8.038    9.870
    87    H    -11.542    -7.038    11.190
    88    C    -17.738    -4.363    9.613
    89    H    -17.732    -5.443    9.883
    90    O    -18.763    -4.116    8.654
    91    H    -18.384    -3.865    7.798
    92    C    -17.908    -3.519    10.877
    93    H    -17.263    -3.935    11.686
    94    O    -19.272    -3.299    11.298
    95    P    -19.877    -4.233    12.413
    96    O    -19.012    -4.160    13.609
    97    O    -21.289    -3.834    12.625
    98    O    -19.820    -5.708    11.841
    99    C    -20.202    -6.793    12.733
    100    H    -21.043    -6.509    13.415
    101    H    -19.332    -7.066    13.369
    102    C    -20.640    -8.058    11.972
    103    H    -20.761    -8.921    12.661
    104    O    -21.943    -7.815    11.371
    105    C    -21.982    -8.368    10.066
    106    H    -22.857    -9.053    10.056
    107    N    -22.165    -7.321    9.020
    108    C    -22.008    -5.982    9.313
    109    H    -21.688    -5.751    10.331
    110    C    -22.554    -7.726    7.762
    111    O    -22.725    -8.906    7.470
    112    N    -22.749    -6.712    6.859
    113    H    -23.100    -6.993    5.955
    114    C    -22.656    -5.355    7.094
    115    O    -22.905    -4.552    6.196
    116    C    -22.247    -5.012    8.422
    117    H    -22.131    -3.963    8.676
    118    C    -20.713    -9.179    9.871
    119    H    -20.346    -9.134    8.820
    120    O    -20.901    -10.529    10.258
    121    H    -20.027    -10.926    10.169
    122    C    -19.735    -8.473    10.800
    123    H    -19.383    -7.532    10.315
    124    O    -18.642    -9.300    11.283
    125    P    -17.404    -9.493    10.306
    126    O    -17.024    -8.172    9.763
    127    O    -16.365    -10.248    11.036
    128    O    -17.945    -10.447    9.168
    129    C    -17.092    -10.672    8.014
    130    H    -16.058    -10.956    8.321
    131    H    -17.009    -9.747    7.409
    132    C    -17.647    -11.812    7.140
    133    H    -17.878    -12.674    7.801
    134    O    -18.880    -11.432    6.475
    135    C    -18.657    -11.303    5.079
    136    H    -19.122    -12.218    4.644
    137    N    -19.291    -10.104    4.515
    138    C    -19.276    -8.840    5.037
    139    N    -18.454    -6.786    7.650
    140    H    -18.635    -5.876    8.019
    141    H    -17.870    -7.408    8.186
    142    N    -18.663    -8.466    6.161
    143    C    -18.902    -7.227    6.501
    144    N    -19.624    -6.360    5.718
    145    H    -19.697    -5.398    5.993
    146    C    -20.217    -6.698    4.499
    147    O    -20.853    -5.878    3.833
    148    C    -20.022    -8.068    4.180
    149    N    -20.489    -8.828    3.114
    150    C    -20.022    -10.034    3.353
    151    H    -20.189    -10.915    2.729
    152    C    -17.164    -11.358    4.834
    153    H    -16.724    -10.341    4.941
    154    O    -16.873    -11.909    3.555
    155    H    -15.914    -11.987    3.425
    156    C    -16.693    -12.245    5.995
    157    H    -15.663    -11.941    6.276
    158    O    -16.718    -13.667    5.713
    159    P    -16.187    -14.692    6.777
    160    O    -15.563    -13.960    7.904
    161    O    -17.340    -15.563    7.120
    162    O    -15.072    -15.464    5.977
    163    C    -15.120    -16.872    5.699
    164    H    -15.673    -17.055    4.752
    165    H    -15.652    -17.429    6.505
    166    C    -13.685    -17.413    5.600
    167    H    -13.002    -16.833    6.258
    168    O    -13.647    -18.795    6.014
    169    C    -13.655    -19.652    4.878
    170    H    -12.664    -20.159    4.878
    171    N    -14.733    -20.667    4.917
    172    C    -15.569    -21.005    5.961
    173    N    -16.681    -20.457    9.190
    174    H    -17.364    -20.805    9.829
    175    H    -16.054    -19.736    9.481
    176    N    -15.580    -20.453    7.190
    177    C    -16.533    -20.929    7.967
    178    N    -17.394    -21.917    7.575
    179    H    -18.092    -22.224    8.227
    180    C    -17.395    -22.535    6.328
    181    O    -18.204    -23.428    6.049
    182    C    -16.389    -22.003    5.473
    183    N    -16.071    -22.307    4.151
    184    C    -15.081    -21.487    3.866
    185    H    -14.558    -21.444    2.905
    186    C    -13.758    -18.765    3.663
    187    H    -14.828    -18.585    3.399
    188    O    -13.077    -19.326    2.559
    189    H    -12.654    -18.586    2.068
    190    C    -13.134    -17.459    4.175
    191    H    -13.573    -16.594    3.643
    192    O    -11.693    -17.391    4.186
    193    P    -10.833    -17.085    2.912
    194    O    -9.613    -17.924    2.972
    195    O    -11.667    -17.278    1.699
    196    O    -10.403    -15.573    3.047
    197    C    -11.003    -14.555    2.210
    198    H    -10.849    -14.763    1.129
    199    H    -10.491    -13.589    2.416
    200    C    -12.508    -14.370    2.485
    201    H    -13.064    -15.267    2.144
    202    O    -12.731    -14.195    3.908
    203    C    -13.226    -12.900    4.166
    204    H    -14.317    -13.026    4.343
    205    N    -12.572    -12.302    5.341
    206    C    -12.915    -11.126    5.957
    207    N    -15.025    -8.407    6.289
    208    H    -15.177    -7.669    6.953
    209    H    -15.527    -8.381    5.420
    210    N    -13.912    -10.299    5.586
    211    C    -14.080    -9.301    6.450
    212    N    -13.272    -9.099    7.533
    213    H    -13.470    -8.300    8.115
    214    C    -12.195    -9.891    7.901
    215    O    -11.507    -9.613    8.890
    216    C    -12.034    -10.992    7.016
    217    N    -11.142    -12.057    7.058
    218    C    -11.498    -12.810    6.041
    219    H    -11.025    -13.750    5.747
    220    C    -12.990    -12.088    2.917
    221    H    -11.938    -11.718    2.894
    222    O    -13.888    -10.998    2.791
    223    H    -13.898    -10.522    3.642
    224    C    -13.163    -13.144    1.836
    225    H    -12.533    -12.845    0.966
    226    O    -14.545    -13.405    1.488
    227    P    -14.963    -13.536    -0.025
    228    O    -13.758    -13.502    -0.882
    229    O    -15.845    -14.712    -0.188
    230    O    -15.828    -12.258    -0.308
    231    C    -15.248    -10.973    -0.585
    232    H    -14.565    -11.024    -1.465
    233    H    -14.662    -10.613    0.293
    234    C    -16.346    -9.951    -0.895
    235    H    -16.962    -10.276    -1.766
    236    O    -17.234    -9.816    0.255
    237    C    -17.599    -8.458    0.422
    238    H    -18.711    -8.423    0.418
    239    N    -17.119    -7.928    1.699
    240    C    -16.743    -6.634    3.432
    241    N    -16.097    -7.833    3.693
    242    C    -16.349    -8.568    2.639
    243    H    -16.006    -9.595    2.479
    244    N    -17.611    -4.436    3.626
    245    C    -18.186    -4.640    2.439
    246    H    -18.771    -3.799    2.048
    247    N    -18.128    -5.716    1.649
    248    C    -17.385    -6.684    2.211
    249    C    -16.861    -5.430    4.156
    250    N    -16.301    -5.173    5.341
    251    H    -15.945    -5.889    5.952
    252    H    -16.474    -4.271    5.731
    253    C    -17.054    -7.689    -0.763
    254    H    -16.747    -6.657    -0.500
    255    O    -18.018    -7.647    -1.795
    256    H    -17.574    -7.327    -2.595
    257    C    -15.844    -8.527    -1.155
    258    H    -15.008    -8.359    -0.436
    259    O    -15.452    -8.382    -2.535
    260    P    -14.183    -7.542    -2.932
    261    O    -13.010    -8.093    -2.219
    262    O    -14.111    -7.505    -4.411
    263    O    -14.465    -6.095    -2.395
    264    C    -15.417    -5.221    -3.036
    265    H    -16.403    -5.723    -3.164
    266    H    -15.049    -4.920    -4.042
    267    C    -15.637    -3.947    -2.211
    268    H    -16.347    -3.258    -2.718
    269    O    -16.234    -4.306    -0.930
    270    C    -15.641    -3.527    0.097
    271    H    -16.474    -3.068    0.678
    272    N    -14.823    -4.351    1.002
    273    C    -14.378    -3.995    2.247
    274    N    -14.181    -1.710    4.838
    275    H    -14.676    -0.923    4.480
    276    H    -13.776    -1.659    5.755
    277    N    -14.601    -2.816    2.865
    278    C    -14.067    -2.783    4.082
    279    N    -13.372    -3.829    4.630
    280    H    -12.994    -3.720    5.558
    281    C    -13.139    -5.054    4.023
    282    O    -12.502    -5.943    4.597
    283    C    -13.681    -5.097    2.714
    284    N    -13.660    -6.116    1.770
    285    C    -14.351    -5.626    0.771
    286    H    -14.576    -6.152    -0.154
    287    C    -14.832    -2.443    -0.575
    288    H    -13.973    -2.107    0.041
    289    O    -15.664    -1.339    -0.870
    290    H    -15.150    -0.738    -1.423
    291    C    -14.375    -3.155    -1.840
    292    H    -13.589    -3.906    -1.594
    293    O    -14.008    -2.277    -2.927
    294    P    -12.479    -1.989    -3.200
    295    O    -11.695    -3.234    -3.043
    296    O    -12.334    -1.265    -4.484
    297    O    -12.112    -1.023    -2.015
    298    C    -12.717    0.283    -1.912
    299    H    -13.828    0.223    -1.904
    300    H    -12.415    0.915    -2.778
    301    C    -12.269    0.991    -0.627
    302    H    -12.684    2.020    -0.577
    303    O    -12.764    0.271    0.536
    304    C    -11.773    0.293    1.555
    305    H    -12.267    0.745    2.445
    306    N    -11.290    -1.068    1.910
    307    C    -11.441    -2.111    1.026
    308    H    -11.947    -1.878    0.091
    309    C    -11.016    -3.346    1.320
    310    H    -11.150    -4.186    0.638
    311    C    -10.636    -1.279    3.119
    312    O    -10.452    -0.322    3.883
    313    N    -10.208    -2.521    3.439
    314    C    -10.377    -3.540    2.578
    315    N    -9.941    -4.749    2.922
    316    H    -9.487    -4.880    3.807
    317    H    -10.055    -5.546    2.324
    318    C    -10.650    1.211    1.092
    319    H    -9.648    0.867    1.446
    320    O    -10.887    2.540    1.530
    321    H    -10.291    3.135    1.046
    322    C    -10.753    1.074    -0.424
    323    H    -10.294    0.115    -0.759
    324    O    -10.213    2.185    -1.162
    325    H    -9.249    2.233    -1.021
 $END
