!*** FMO 5.3 (Gamess) INPUT generated by Facio 22.1.1.32 ***
 $CONTRL RUNTYP=ENERGY NPRINT=-5 ISPHER=1 MAXIT=200 $END
 $SYSTEM MWORDS=63 MEMDDI=63 $END
 $GDDI NGROUP=1 $END
 $SCF DIRSCF=.TRUE. NPUNCH=0 $END
!*** NumCPU : 2  MemPerNode : 512MB
 $PCM SOLVNT=WATER IEF=-10 ICOMP=2 ICAV=1 IDISP=1 IFMO=-1 $END
 $PCMCAV RADII=SUAHF $END
 $TESCAV NTSALL=60 $END
 $FMOPRP
    NAODIR=200
    NGRFMO(1)=1, 1, 0, 0, 0,   0, 0, 0, 0, 0
    IPIEDA=1
    NPRINT=9
 $END
 $FMO
      SCFTYP(1)=RHF
      MODGRD=10
      MODMUL=0
      MAXCAO=5
      MAXBND=12
      NLAYER=1
      MPLEVL(1)=2
      NFRAG=10
      ICHARG(1)=-1, -1, -1, -1, -1, -1, -1, -1, -1, 0
      FRGNAM(1)=F1, F2, F3, F4, F5, F6, F7, F8, F9, F10
      indat(1)=0
               1   -36   0
               37   -67   0
               68   -98   0
               99   -128   0
               129   -162   0
               163   -196   0
               197   -230   0
               231   -263   0
               264   -297   0
               298   -325   0
 $END

 $FMOBND
   -37   36       6-31G*    MINI
   -68   67       6-31G*    MINI
   -99   98       6-31G*    MINI
   -129   128       6-31G*    MINI
   -163   162       6-31G*    MINI
   -197   196       6-31G*    MINI
   -231   230       6-31G*    MINI
   -264   263       6-31G*    MINI
   -298   297       6-31G*    MINI
 $END
 $FMOHYB
 6-31G*      15   5
   1 0  -0.065034   0.288264   0.000000   0.000000   0.604412
         0.290129   0.000000   0.000000   0.319045  -0.017106
        -0.017106   0.057934   0.000000   0.000000   0.000000
   0 1  -0.065040   0.288293   0.569832   0.000000  -0.201456
         0.290147   0.300783   0.000000  -0.106342   0.049598
        -0.017106  -0.008771   0.000000  -0.027223   0.000000
   0 1  -0.065039   0.288293  -0.284916  -0.493490  -0.201455
         0.290145  -0.150392  -0.260486  -0.106340  -0.000427
         0.032923  -0.008771   0.033353   0.013612   0.023576
   0 1  -0.065039   0.288293  -0.284916   0.493490  -0.201455
         0.290145  -0.150392   0.260486  -0.106340  -0.000427
         0.032923  -0.008771  -0.033353   0.013612  -0.023576
   0 1   1.010938  -0.011975   0.000000   0.000000   0.000000
        -0.054085   0.000000   0.000000  -0.000000  -0.003174
        -0.003174  -0.003174   0.000000   0.000000   0.000000
 MINI         5   5
   1 0  -0.104883   0.308874   0.000000   0.000000   0.521806
   0 1  -0.104883   0.308874   0.491961   0.000000  -0.173934
   0 1  -0.104883   0.308876  -0.245980  -0.426050  -0.173933
   0 1  -0.104883   0.308876  -0.245980   0.426050  -0.173933
   0 1   0.988209   0.063992   0.000000   0.000000   0.000000
 $END
 
 $DATA
 FMO calculation
 C1 
 H.1-1    1
      N31 6
   
 O.1-1    8
      N31 6
      d 1
      1 0.800 1.0
   
 C.1-1    6
      N31 6
      d 1
      1 0.800 1.0
   
 N.1-1    7
      N31 6
      d 1
      1 0.800 1.0
   
 P.1-1   15
      N31 6
      d 1
      1 0.550 1.0
   
 $END
 $FMOXYZ
    1    H    -10.598    -4.861    18.416
    2    O    -10.632    -4.077    17.836
    3    C    -10.942    -4.548    16.522
    4    H    -11.924    -5.072    16.551
    5    H    -10.177    -5.299    16.212
    6    C    -11.002    -3.401    15.512
    7    H    -10.839    -2.420    16.013
    8    O    -9.941    -3.554    14.533
    9    C    -10.318    -2.842    13.377
    10    H    -10.112    -1.765    13.578
    11    N    -9.595    -3.286    12.170
    12    C    -9.741    -2.823    10.879
    13    N    -11.246    -0.713    8.557
    14    H    -11.913    -0.223    9.112
    15    H    -11.384    -0.724    7.564
    16    N    -10.591    -1.857    10.460
    17    C    -10.484    -1.616    9.151
    18    N    -9.619    -2.294    8.338
    19    H    -9.642    -2.076    7.357
    20    C    -8.756    -3.307    8.735
    21    O    -8.014    -3.881    7.933
    22    C    -8.844    -3.555    10.126
    23    N    -8.146    -4.457    10.918
    24    C    -8.632    -4.267    12.121
    25    H    -8.328    -4.809    13.020
    26    C    -11.791    -3.073    13.234
    27    H    -11.999    -3.996    12.646
    28    O    -12.367    -1.944    12.622
    29    H    -11.938    -1.801    11.758
    30    C    -12.283    -3.293    14.678
    31    H    -12.750    -4.306    14.704
    32    O    -13.160    -2.275    15.204
    33    P    -14.643    -2.556    15.636
    34    O    -14.960    -1.665    16.772
    35    O    -14.813    -4.004    15.888
    36    O    -15.526    -2.112    14.397
    37    C    -15.454    -2.791    13.130
    38    H    -16.129    -3.674    13.148
    39    H    -14.446    -3.190    12.942
    40    C    -15.894    -1.874    11.975
    41    H    -16.421    -0.969    12.342
    42    O    -14.737    -1.433    11.200
    43    C    -14.864    -1.802    9.837
    44    H    -14.657    -0.865    9.268
    45    N    -13.899    -2.855    9.393
    46    C    -13.369    -3.731    10.303
    47    H    -13.692    -3.596    11.326
    48    C    -12.465    -4.655    9.954
    49    H    -11.997    -5.318    10.679
    50    C    -13.525    -2.964    8.054
    51    O    -13.969    -2.152    7.236
    52    N    -12.689    -3.950    7.665
    53    C    -12.116    -4.741    8.579
    54    N    -11.192    -5.606    8.179
    55    H    -11.098    -5.768    7.194
    56    H    -10.704    -6.193    8.822
    57    C    -16.301    -2.199    9.607
    58    H    -16.373    -3.086    8.948
    59    O    -17.053    -1.128    9.075
    60    H    -17.981    -1.332    9.262
    61    C    -16.793    -2.609    10.981
    62    H    -16.566    -3.693    11.112
    63    O    -18.179    -2.286    11.215
    64    P    -19.244    -3.407    11.426
    65    O    -20.509    -2.749    11.813
    66    O    -18.691    -4.413    12.350
    67    O    -19.370    -4.023    9.976
    68    C    -20.660    -4.358    9.405
    69    H    -20.960    -3.564    8.682
    70    H    -21.465    -4.394    10.180
    71    C    -20.705    -5.731    8.689
    72    H    -21.683    -6.221    8.891
    73    O    -20.568    -5.579    7.263
    74    C    -19.195    -5.599    6.896
    75    H    -19.113    -6.264    6.007
    76    N    -18.713    -4.226    6.553
    77    C    -17.417    -3.898    6.840
    78    H    -16.776    -4.648    7.307
    79    C    -16.953    -2.673    6.596
    80    H    -15.981    -2.356    6.906
    81    C    -19.489    -3.305    5.823
    82    O    -20.604    -3.633    5.396
    83    N    -19.016    -2.060    5.576
    84    C    -17.783    -1.727    5.967
    85    N    -17.309    -0.505    5.741
    86    H    -16.429    -0.217    6.119
    87    H    -17.883    0.177    5.292
    88    C    -18.439    -6.234    8.074
    89    H    -17.854    -5.484    8.647
    90    O    -17.576    -7.280    7.658
    91    H    -17.519    -7.906    8.400
    92    C    -19.566    -6.676    9.024
    93    H    -19.292    -6.441    10.076
    94    O    -19.992    -8.038    8.879
    95    P    -19.233    -9.176    9.646
    96    O    -18.685    -10.035    8.581
    97    O    -20.178    -9.711    10.643
    98    O    -18.028    -8.428    10.350
    99    C    -16.808    -9.103    10.706
    100    H    -15.943    -8.467    10.408
    101    H    -16.710    -10.042    10.129
    102    C    -16.655    -9.422    12.216
    103    H    -15.645    -9.832    12.424
    104    O    -16.780    -8.205    13.000
    105    C    -17.608    -8.425    14.135
    106    H    -16.985    -8.126    15.013
    107    N    -18.853    -7.608    14.086
    108    C    -19.392    -7.233    12.880
    109    H    -18.713    -7.291    12.044
    110    C    -19.496    -7.300    15.255
    111    O    -19.057    -7.641    16.358
    112    N    -20.659    -6.586    15.116
    113    H    -21.098    -6.283    15.974
    114    C    -21.265    -6.203    13.936
    115    O    -22.306    -5.547    13.957
    116    C    -20.570    -6.611    12.759
    117    H    -20.939    -6.280    11.793
    118    C    -17.905    -9.913    14.235
    119    H    -18.956    -10.115    14.539
    120    O    -17.019    -10.541    15.139
    121    H    -16.983    -11.471    14.864
    122    C    -17.681    -10.391    12.812
    123    H    -18.612    -10.202    12.244
    124    O    -17.211    -11.757    12.732
    125    P    -18.182    -12.880    12.245
    126    O    -19.570    -12.359    12.349
    127    O    -17.902    -14.084    13.046
    128    O    -17.788    -13.151    10.753
    129    C    -16.506    -13.662    10.335
    130    H    -16.679    -14.479    9.602
    131    H    -15.929    -14.097    11.183
    132    C    -15.617    -12.618    9.654
    133    H    -16.156    -12.073    8.848
    134    O    -15.187    -11.673    10.639
    135    C    -13.881    -11.226    10.394
    136    H    -13.959    -10.146    10.140
    137    N    -13.068    -11.397    11.596
    138    C    -11.783    -10.978    11.798
    139    N    -8.894    -9.441    10.673
    140    H    -7.987    -9.218    11.021
    141    H    -9.147    -9.164    9.746
    142    N    -11.015    -10.312    10.914
    143    C    -9.797    -10.069    11.399
    144    N    -9.388    -10.450    12.649
    145    H    -8.462    -10.204    12.938
    146    C    -10.168    -11.116    13.583
    147    O    -9.732    -11.420    14.698
    148    C    -11.465    -11.388    13.080
    149    N    -12.535    -12.040    13.678
    150    C    -13.472    -12.008    12.763
    151    H    -14.485    -12.410    12.867
    152    C    -13.347    -12.002    9.216
    153    H    -12.307    -12.359    9.384
    154    O    -13.386    -11.222    8.044
    155    H    -13.232    -11.837    7.315
    156    C    -14.306    -13.193    9.130
    157    H    -13.994    -13.982    9.847
    158    O    -14.525    -13.730    7.823
    159    P    -13.388    -14.442    7.019
    160    O    -13.553    -15.907    7.077
    161    O    -12.067    -13.914    7.416
    162    O    -13.641    -13.983    5.539
    163    C    -14.982    -13.714    5.083
    164    H    -14.844    -13.051    4.233
    165    H    -15.608    -13.141    5.802
    166    C    -15.703    -14.984    4.609
    167    H    -14.947    -15.731    4.285
    168    O    -16.497    -15.557    5.676
    169    C    -17.873    -15.348    5.408
    170    H    -18.283    -16.360    5.199
    171    N    -18.550    -14.752    6.553
    172    C    -19.497    -15.354    7.333
    173    N    -21.424    -18.111    8.152
    174    H    -22.117    -18.353    8.830
    175    H    -21.206    -18.744    7.413
    176    N    -19.968    -16.607    7.183
    177    C    -20.848    -16.925    8.133
    178    N    -21.241    -16.061    9.118
    179    H    -21.907    -16.376    9.796
    180    C    -20.793    -14.760    9.273
    181    O    -21.237    -14.068    10.191
    182    C    -19.850    -14.410    8.273
    183    N    -19.158    -13.232    8.069
    184    C    -18.378    -13.482    7.051
    185    H    -17.654    -12.781    6.631
    186    C    -18.011    -14.482    4.178
    187    H    -18.070    -13.397    4.434
    188    O    -19.122    -14.862    3.391
    189    H    -18.870    -15.691    2.949
    190    C    -16.702    -14.756    3.454
    191    H    -16.460    -13.820    2.934
    192    O    -16.744    -15.868    2.537
    193    P    -15.676    -15.992    1.382
    194    O    -16.308    -15.532    0.134
    195    O    -15.200    -17.393    1.411
    196    O    -14.498    -15.022    1.795
    197    C    -14.141    -13.856    1.024
    198    H    -13.919    -14.144    -0.028
    199    H    -13.197    -13.442    1.440
    200    C    -15.199    -12.728    1.028
    201    H    -16.224    -13.109    0.841
    202    O    -15.183    -12.045    2.301
    203    C    -14.820    -10.702    2.182
    204    H    -15.523    -10.147    2.845
    205    N    -13.442    -10.484    2.650
    206    C    -13.065    -9.950    3.863
    207    N    -13.855    -8.545    6.941
    208    H    -13.377    -8.447    7.809
    209    H    -14.841    -8.668    6.957
    210    N    -13.890    -9.502    4.833
    211    C    -13.219    -9.067    5.903
    212    N    -11.849    -9.118    6.006
    213    H    -11.419    -8.718    6.820
    214    C    -10.978    -9.509    4.995
    215    O    -9.747    -9.478    5.130
    216    C    -11.682    -9.979    3.859
    217    N    -11.200    -10.514    2.674
    218    C    -12.275    -10.805    1.991
    219    H    -12.259    -11.268    1.002
    220    C    -15.054    -10.315    0.749
    221    H    -14.313    -9.564    0.398
    222    O    -16.362    -9.795    0.575
    223    H    -16.612    -9.980    -0.339
    224    C    -14.864    -11.652    0.016
    225    H    -13.780    -11.779    -0.204
    226    O    -15.696    -11.797    -1.145
    227    P    -15.188    -12.495    -2.455
    228    O    -16.123    -12.146    -3.542
    229    O    -14.969    -13.935    -2.221
    230    O    -13.782    -11.828    -2.704
    231    C    -13.502    -10.424    -2.526
    232    H    -12.488    -10.324    -2.077
    233    H    -14.212    -9.909    -1.842
    234    C    -13.530    -9.690    -3.855
    235    H    -12.879    -10.211    -4.589
    236    O    -14.890    -9.612    -4.368
    237    C    -15.399    -8.299    -4.218
    238    H    -15.478    -7.892    -5.250
    239    N    -16.720    -8.270    -3.580
    240    C    -18.696    -7.626    -2.860
    241    N    -18.491    -8.905    -2.344
    242    C    -17.308    -9.236    -2.804
    243    H    -16.805    -10.181    -2.615
    244    N    -19.645    -5.506    -3.368
    245    C    -18.528    -5.267    -4.066
    246    H    -18.470    -4.287    -4.552
    247    N    -17.472    -6.056    -4.270
    248    C    -17.611    -7.225    -3.618
    249    C    -19.767    -6.709    -2.746
    250    N    -20.897    -6.972    -2.065
    251    H    -21.045    -7.850    -1.602
    252    H    -21.636    -6.293    -2.051
    253    C    -14.402    -7.497    -3.435
    254    H    -14.622    -7.499    -2.343
    255    O    -14.354    -6.182    -3.933
    256    H    -13.824    -6.218    -4.743
    257    C    -13.093    -8.232    -3.708
    258    H    -12.470    -8.162    -2.783
    259    O    -12.396    -7.768    -4.888
    260    P    -10.892    -7.334    -4.775
    261    O    -10.374    -7.150    -6.146
    262    O    -10.160    -8.311    -3.938
    263    O    -10.945    -5.923    -4.069
    264    C    -10.942    -5.751    -2.637
    265    H    -10.032    -5.177    -2.357
    266    H    -10.894    -6.718    -2.081
    267    C    -12.155    -4.932    -2.172
    268    H    -12.789    -4.607    -3.023
    269    O    -12.966    -5.757    -1.292
    270    C    -13.403    -5.000    -0.186
    271    H    -14.509    -5.098    -0.148
    272    N    -12.809    -5.532    1.045
    273    C    -13.188    -5.247    2.324
    274    N    -15.151    -3.486    4.521
    275    H    -15.117    -3.218    5.479
    276    H    -15.755    -3.008    3.881
    277    N    -14.175    -4.414    2.682
    278    C    -14.261    -4.286    4.000
    279    N    -13.467    -4.964    4.888
    280    H    -13.507    -4.718    5.861
    281    C    -12.448    -5.837    4.540
    282    O    -11.757    -6.385    5.398
    283    C    -12.338    -5.976    3.133
    284    N    -11.445    -6.718    2.376
    285    C    -11.766    -6.430    1.140
    286    H    -11.279    -6.835    0.250
    287    C    -13.032    -3.546    -0.433
    288    H    -12.750    -3.017    0.502
    289    O    -14.098    -2.847    -1.053
    290    H    -13.731    -2.012    -1.383
    291    C    -11.826    -3.686    -1.350
    292    H    -10.933    -3.956    -0.739
    293    O    -11.618    -2.565    -2.230
    294    P    -10.414    -1.594    -2.054
    295    O    -10.017    -1.085    -3.384
    296    O    -9.365    -2.252    -1.245
    297    O    -11.082    -0.422    -1.236
    298    C    -10.559    -0.055    0.060
    299    H    -9.731    0.682    -0.075
    300    H    -10.133    -0.921    0.623
    301    C    -11.652    0.583    0.924
    302    H    -12.318    1.248    0.339
    303    O    -12.461    -0.462    1.531
    304    C    -12.477    -0.307    2.947
    305    H    -13.547    -0.385    3.250
    306    N    -11.700    -1.368    3.656
    307    C    -11.091    -2.374    2.933
    308    H    -11.190    -2.328    1.848
    309    C    -10.400    -3.348    3.536
    310    H    -9.908    -4.145    2.984
    311    C    -11.619    -1.380    5.051
    312    O    -12.190    -0.499    5.709
    313    N    -10.887    -2.334    5.664
    314    C    -10.318    -3.315    4.953
    315    N    -9.653    -4.270    5.591
    316    H    -9.539    -4.213    6.580
    317    H    -9.212    -5.028    5.109
    318    C    -11.972    1.098    3.253
    319    H    -11.381    1.138    4.192
    320    O    -13.052    2.013    3.344
    321    H    -12.693    2.914    3.416
    322    C    -11.043    1.375    2.081
    323    H    -10.040    0.933    2.285
    324    O    -10.912    2.766    1.734
    325    H    -10.505    3.251    2.473
 $END
