!*** FMO 5.3 (Gamess) INPUT generated by Facio 22.1.1.32 ***
 $CONTRL RUNTYP=ENERGY NPRINT=-5 ISPHER=1 MAXIT=200 $END
 $SYSTEM MWORDS=63 MEMDDI=63 $END
 $GDDI NGROUP=1 $END
 $SCF DIRSCF=.TRUE. NPUNCH=0 $END
!*** NumCPU : 2  MemPerNode : 512MB
 $PCM SOLVNT=WATER IEF=-10 ICOMP=2 ICAV=1 IDISP=1 IFMO=-1 $END
 $PCMCAV RADII=SUAHF $END
 $TESCAV NTSALL=60 $END
 $FMOPRP
    NAODIR=200
    NGRFMO(1)=1, 1, 0, 0, 0,   0, 0, 0, 0, 0
    IPIEDA=1
    NPRINT=9
 $END
 $FMO
      SCFTYP(1)=RHF
      MODGRD=10
      MODMUL=0
      MAXCAO=5
      MAXBND=12
      NLAYER=1
      MPLEVL(1)=2
      NFRAG=10
      ICHARG(1)=-1, -1, -1, -1, -1, -1, -1, -1, -1, 0
      FRGNAM(1)=F1, F2, F3, F4, F5, F6, F7, F8, F9, F10
      indat(1)=0
               1   -36   0
               37   -67   0
               68   -98   0
               99   -128   0
               129   -162   0
               163   -196   0
               197   -230   0
               231   -263   0
               264   -297   0
               298   -325   0
 $END

 $FMOBND
   -37   36       6-31G*    MINI
   -68   67       6-31G*    MINI
   -99   98       6-31G*    MINI
   -129   128       6-31G*    MINI
   -163   162       6-31G*    MINI
   -197   196       6-31G*    MINI
   -231   230       6-31G*    MINI
   -264   263       6-31G*    MINI
   -298   297       6-31G*    MINI
 $END
 $FMOHYB
 6-31G*      15   5
   1 0  -0.065034   0.288264   0.000000   0.000000   0.604412
         0.290129   0.000000   0.000000   0.319045  -0.017106
        -0.017106   0.057934   0.000000   0.000000   0.000000
   0 1  -0.065040   0.288293   0.569832   0.000000  -0.201456
         0.290147   0.300783   0.000000  -0.106342   0.049598
        -0.017106  -0.008771   0.000000  -0.027223   0.000000
   0 1  -0.065039   0.288293  -0.284916  -0.493490  -0.201455
         0.290145  -0.150392  -0.260486  -0.106340  -0.000427
         0.032923  -0.008771   0.033353   0.013612   0.023576
   0 1  -0.065039   0.288293  -0.284916   0.493490  -0.201455
         0.290145  -0.150392   0.260486  -0.106340  -0.000427
         0.032923  -0.008771  -0.033353   0.013612  -0.023576
   0 1   1.010938  -0.011975   0.000000   0.000000   0.000000
        -0.054085   0.000000   0.000000  -0.000000  -0.003174
        -0.003174  -0.003174   0.000000   0.000000   0.000000
 MINI         5   5
   1 0  -0.104883   0.308874   0.000000   0.000000   0.521806
   0 1  -0.104883   0.308874   0.491961   0.000000  -0.173934
   0 1  -0.104883   0.308876  -0.245980  -0.426050  -0.173933
   0 1  -0.104883   0.308876  -0.245980   0.426050  -0.173933
   0 1   0.988209   0.063992   0.000000   0.000000   0.000000
 $END
 
 $DATA
 FMO calculation
 C1 
 H.1-1    1
      N31 6
   
 O.1-1    8
      N31 6
      d 1
      1 0.800 1.0
   
 C.1-1    6
      N31 6
      d 1
      1 0.800 1.0
   
 N.1-1    7
      N31 6
      d 1
      1 0.800 1.0
   
 P.1-1   15
      N31 6
      d 1
      1 0.550 1.0
   
 $END
 $FMOXYZ
    1    H    -4.906    -1.400    12.149
    2    O    -5.722    -1.038    11.759
    3    C    -6.029    0.159    12.489
    4    H    -5.181    0.874    12.393
    5    H    -6.153    -0.095    13.566
    6    C    -7.309    0.847    12.000
    7    H    -7.530    1.750    12.608
    8    O    -7.143    1.285    10.620
    9    C    -8.365    1.090    9.923
    10    H    -8.648    2.077    9.491
    11    N    -8.212    0.119    8.830
    12    C    -9.056    -0.029    7.764
    13    N    -11.909    0.906    6.046
    14    H    -12.310    1.602    6.639
    15    H    -12.392    0.645    5.205
    16    N    -10.176    0.680    7.545
    17    C    -10.782    0.329    6.413
    18    N    -10.282    -0.615    5.555
    19    H    -10.812    -0.832    4.726
    20    C    -9.121    -1.353    5.748
    21    O    -8.740    -2.182    4.915
    22    C    -8.493    -1.019    6.980
    23    N    -7.326    -1.508    7.559
    24    C    -7.198    -0.798    8.658
    25    H    -6.382    -0.885    9.380
    26    C    -9.408    0.668    10.932
    27    H    -10.171    -0.010    10.498
    28    O    -10.040    1.810    11.476
    29    H    -10.650    1.473    12.144
    30    C    -8.558    -0.046    11.978
    31    H    -8.237    -1.039    11.589
    32    O    -9.133    -0.118    13.303
    33    P    -9.998    -1.371    13.713
    34    O    -9.285    -2.595    13.297
    35    O    -10.371    -1.262    15.144
    36    O    -11.295    -1.210    12.841
    37    C    -12.248    -0.150    13.097
    38    H    -11.758    0.850    13.121
    39    H    -12.739    -0.285    14.088
    40    C    -13.359    -0.120    12.034
    41    H    -14.071    0.715    12.236
    42    O    -12.785    0.116    10.719
    43    C    -13.510    -0.631    9.749
    44    H    -13.894    0.124    9.024
    45    N    -12.656    -1.606    9.017
    46    C    -11.512    -2.094    9.601
    47    H    -11.295    -1.725    10.603
    48    C    -10.710    -2.954    8.962
    49    H    -9.796    -3.340    9.404
    50    C    -13.035    -2.070    7.762
    51    O    -14.102    -1.679    7.265
    52    N    -12.233    -2.930    7.097
    53    C    -11.097    -3.372    7.660
    54    N    -10.322    -4.206    6.970
    55    H    -10.635    -4.537    6.074
    56    H    -9.449    -4.538    7.322
    57    C    -14.693    -1.281    10.453
    58    H    -14.954    -2.274    10.028
    59    O    -15.817    -0.421    10.402
    60    H    -16.469    -0.766    11.032
    61    C    -14.168    -1.417    11.878
    62    H    -13.436    -2.256    11.935
    63    O    -15.191    -1.486    12.898
    64    P    -15.727    -2.887    13.381
    65    O    -14.653    -3.894    13.355
    66    O    -16.386    -2.691    14.690
    67    O    -16.837    -3.257    12.316
    68    C    -17.726    -4.369    12.591
    69    H    -18.481    -4.081    13.360
    70    H    -17.165    -5.250    12.980
    71    C    -18.466    -4.787    11.309
    72    H    -18.992    -3.904    10.877
    73    O    -17.516    -5.320    10.328
    74    C    -17.714    -6.723    10.227
    75    H    -18.317    -6.838    9.297
    76    N    -16.454    -7.488    10.153
    77    C    -15.540    -7.378    11.169
    78    H    -15.800    -6.698    11.984
    79    C    -14.371    -8.032    11.115
    80    H    -13.617    -7.946    11.893
    81    C    -16.197    -8.307    9.057
    82    O    -17.025    -8.349    8.137
    83    N    -15.043    -9.007    9.014
    84    C    -14.128    -8.865    9.981
    85    N    -12.972    -9.507    9.861
    86    H    -12.834    -10.041    9.020
    87    H    -12.252    -9.461    10.552
    88    C    -18.561    -7.132    11.398
    89    H    -17.955    -7.272    12.323
    90    O    -19.262    -8.298    11.120
    91    H    -19.981    -8.120    10.497
    92    C    -19.486    -5.934    11.526
    93    H    -19.861    -5.864    12.573
    94    O    -20.573    -5.891    10.561
    95    P    -22.014    -6.471    10.880
    96    O    -22.327    -6.208    12.298
    97    O    -22.981    -5.958    9.884
    98    O    -21.860    -8.024    10.639
    99    C    -22.989    -8.915    10.711
    100    H    -23.541    -8.890    9.749
    101    H    -23.705    -8.613    11.516
    102    C    -22.549    -10.359    11.017
    103    H    -22.139    -10.411    12.046
    104    O    -23.720    -11.221    10.925
    105    C    -23.619    -12.028    9.769
    106    H    -23.336    -13.039    10.147
    107    N    -24.911    -12.047    9.037
    108    C    -25.346    -10.920    8.376
    109    H    -24.691    -10.050    8.425
    110    C    -25.686    -13.188    9.075
    111    O    -25.335    -14.210    9.656
    112    N    -26.884    -13.096    8.415
    113    H    -27.464    -13.921    8.434
    114    C    -27.389    -12.002    7.747
    115    O    -28.501    -12.056    7.224
    116    C    -26.526    -10.862    7.742
    117    H    -26.867    -9.959    7.240
    118    C    -22.454    -11.499    8.944
    119    H    -22.753    -10.649    8.294
    120    O    -21.850    -12.519    8.177
    121    H    -21.339    -13.059    8.797
    122    C    -21.527    -10.995    10.042
    123    H    -20.865    -10.192    9.642
    124    O    -20.766    -12.053    10.667
    125    P    -19.199    -12.085    10.806
    126    O    -18.707    -10.823    11.355
    127    O    -18.834    -13.274    11.608
    128    O    -18.678    -12.267    9.341
    129    C    -17.412    -11.692    8.905
    130    H    -16.785    -11.311    9.747
    131    H    -17.611    -10.814    8.258
    132    C    -16.566    -12.720    8.123
    133    H    -16.329    -13.567    8.800
    134    O    -17.294    -13.237    6.962
    135    C    -16.709    -12.756    5.764
    136    H    -16.185    -13.635    5.321
    137    N    -17.742    -12.245    4.836
    138    C    -18.540    -11.131    4.977
    139    N    -19.474    -8.374    6.826
    140    H    -20.020    -7.547    6.733
    141    H    -18.716    -8.432    7.485
    142    N    -18.525    -10.268    5.998
    143    C    -19.384    -9.282    5.877
    144    N    -20.236    -9.164    4.813
    145    H    -20.865    -8.383    4.790
    146    C    -20.297    -10.045    3.736
    147    O    -21.099    -9.875    2.813
    148    C    -19.358    -11.109    3.871
    149    N    -19.096    -12.194    3.046
    150    C    -18.128    -12.842    3.657
    151    H    -17.644    -13.747    3.281
    152    C    -15.681    -11.712    6.151
    153    H    -16.123    -10.696    6.224
    154    O    -14.587    -11.694    5.272
    155    H    -13.998    -10.991    5.555
    156    C    -15.256    -12.182    7.532
    157    H    -14.954    -11.295    8.126
    158    O    -14.228    -13.194    7.508
    159    P    -12.831    -13.013    8.193
    160    O    -13.037    -13.057    9.660
    161    O    -11.885    -13.999    7.632
    162    O    -12.361    -11.560    7.818
    163    C    -11.218    -11.267    6.981
    164    H    -10.783    -12.169    6.488
    165    H    -10.423    -10.813    7.617
    166    C    -11.596    -10.271    5.875
    167    H    -12.200    -10.794    5.101
    168    O    -12.383    -9.185    6.428
    169    C    -11.679    -7.963    6.313
    170    H    -12.124    -7.445    5.432
    171    N    -11.871    -7.151    7.516
    172    C    -12.993    -6.416    7.804
    173    N    -16.214    -5.465    7.014
    174    H    -16.996    -5.025    7.450
    175    H    -16.344    -6.001    6.175
    176    N    -14.075    -6.283    7.023
    177    C    -15.052    -5.612    7.619
    178    N    -14.912    -5.000    8.841
    179    H    -15.738    -4.665    9.306
    180    C    -13.783    -5.095    9.646
    181    O    -13.704    -4.540    10.739
    182    C    -12.764    -5.868    9.044
    183    N    -11.522    -6.241    9.530
    184    C    -11.023    -7.001    8.587
    185    H    -10.036    -7.467    8.627
    186    C    -10.238    -8.312    6.025
    187    H    -9.673    -8.566    6.947
    188    O    -9.567    -7.296    5.317
    189    H    -10.102    -7.130    4.525
    190    C    -10.415    -9.567    5.185
    191    H    -9.508    -10.203    5.322
    192    O    -10.719    -9.285    3.798
    193    P    -9.978    -10.089    2.674
    194    O    -8.958    -9.195    2.077
    195    O    -9.477    -11.370    3.213
    196    O    -11.069    -10.346    1.555
    197    C    -12.251    -11.139    1.839
    198    H    -13.142    -10.479    1.755
    199    H    -12.257    -11.569    2.872
    200    C    -12.395    -12.292    0.827
    201    H    -12.517    -11.869    -0.193
    202    O    -11.205    -13.134    0.841
    203    C    -11.505    -14.403    1.413
    204    H    -11.532    -15.111    0.553
    205    N    -10.461    -14.831    2.387
    206    C    -10.553    -15.635    3.509
    207    N    -12.466    -17.558    5.635
    208    H    -12.385    -18.060    6.494
    209    H    -13.366    -17.391    5.238
    210    N    -11.657    -16.233    3.977
    211    C    -11.451    -16.941    5.066
    212    N    -10.220    -17.101    5.637
    213    H    -10.154    -17.647    6.477
    214    C    -9.041    -16.534    5.164
    215    O    -7.955    -16.733    5.722
    216    C    -9.264    -15.751    3.996
    217    N    -8.370    -15.047    3.201
    218    C    -9.126    -14.527    2.260
    219    H    -8.774    -13.903    1.436
    220    C    -12.897    -14.304    2.008
    221    H    -12.844    -13.921    3.053
    222    O    -13.582    -15.545    1.942
    223    H    -13.718    -15.762    1.011
    224    C    -13.550    -13.266    1.109
    225    H    -14.309    -12.703    1.707
    226    O    -14.091    -13.825    -0.112
    227    P    -15.655    -14.022    -0.240
    228    O    -15.883    -15.128    -1.195
    229    O    -16.265    -14.171    1.098
    230    O    -16.149    -12.680    -0.887
    231    C    -17.442    -12.661    -1.548
    232    H    -18.138    -13.458    -1.183
    233    H    -17.298    -12.820    -2.640
    234    C    -18.147    -11.318    -1.352
    235    H    -19.087    -11.266    -1.942
    236    O    -18.518    -11.173    0.041
    237    C    -18.332    -9.829    0.442
    238    H    -19.309    -9.486    0.852
    239    N    -17.301    -9.721    1.483
    240    C    -16.090    -9.025    3.176
    241    N    -15.516    -10.209    2.746
    242    C    -16.281    -10.599    1.762
    243    H    -16.167    -11.532    1.210
    244    N    -16.541    -7.027    4.371
    245    C    -17.526    -6.825    3.496
    246    H    -18.094    -5.902    3.644
    247    N    -17.957    -7.613    2.505
    248    C    -17.178    -8.703    2.394
    249    C    -15.782    -8.145    4.232
    250    N    -14.778    -8.367    5.083
    251    H    -14.128    -9.113    4.970
    252    H    -14.609    -7.738    5.848
    253    C    -17.982    -9.028    -0.797
    254    H    -17.286    -8.204    -0.563
    255    O    -19.138    -8.500    -1.420
    256    H    -18.843    -8.114    -2.264
    257    C    -17.300    -10.082    -1.664
    258    H    -16.270    -10.276    -1.292
    259    O    -17.306    -9.851    -3.085
    260    P    -16.609    -8.595    -3.713
    261    O    -15.997    -9.002    -4.995
    262    O    -17.629    -7.526    -3.761
    263    O    -15.443    -8.196    -2.726
    264    C    -14.937    -6.837    -2.765
    265    H    -14.889    -6.427    -3.801
    266    H    -13.891    -6.841    -2.382
    267    C    -15.748    -5.883    -1.884
    268    H    -16.788    -5.775    -2.260
    269    O    -15.826    -6.423    -0.542
    270    C    -15.765    -5.380    0.396
    271    H    -16.653    -5.478    1.055
    272    N    -14.546    -5.495    1.198
    273    C    -14.296    -4.888    2.394
    274    N    -15.282    -2.816    4.988
    275    H    -16.185    -2.506    4.702
    276    H    -14.866    -2.438    5.819
    277    N    -15.131    -4.060    3.051
    278    C    -14.620    -3.652    4.210
    279    N    -13.380    -4.023    4.655
    280    H    -13.071    -3.695    5.557
    281    C    -12.499    -4.871    3.998
    282    O    -11.392    -5.152    4.466
    283    C    -13.027    -5.304    2.756
    284    N    -12.481    -6.148    1.794
    285    C    -13.433    -6.252    0.900
    286    H    -13.382    -6.863    -0.005
    287    C    -15.829    -4.083    -0.381
    288    H    -15.292    -3.260    0.130
    289    O    -17.179    -3.711    -0.586
    290    H    -17.167    -2.921    -1.138
    291    C    -15.156    -4.482    -1.692
    292    H    -14.059    -4.617    -1.543
    293    O    -15.481    -3.650    -2.833
    294    P    -14.504    -2.475    -3.221
    295    O    -13.107    -2.967    -3.210
    296    O    -14.964    -1.836    -4.474
    297    O    -14.684    -1.457    -2.038
    298    C    -15.933    -0.750    -1.864
    299    H    -16.792    -1.451    -1.784
    300    H    -16.126    -0.085    -2.738
    301    C    -15.905    0.119    -0.601
    302    H    -16.853    0.689    -0.488
    303    O    -15.766    -0.724    0.579
    304    C    -14.912    -0.081    1.517
    305    H    -15.501    -0.004    2.461
    306    N    -13.661    -0.851    1.780
    307    C    -13.205    -1.773    0.865
    308    H    -13.831    -1.924    -0.011
    309    C    -12.085    -2.477    1.072
    310    H    -11.745    -3.246    0.383
    311    C    -12.908    -0.589    2.919
    312    O    -13.283    0.296    3.701
    313    N    -11.782    -1.299    3.155
    314    C    -11.362    -2.221    2.270
    315    N    -10.262    -2.917    2.541
    316    H    -9.783    -2.759    3.407
    317    H    -9.952    -3.664    1.953
    318    C    -14.629    1.320    0.993
    319    H    -13.611    1.671    1.267
    320    O    -15.602    2.235    1.473
    321    H    -15.523    3.060    0.964
    322    C    -14.735    1.103    -0.513
    323    H    -13.825    0.595    -0.897
    324    O    -15.016    2.296    -1.266
    325    H    -14.246    2.890    -1.238
 $END
