!*** FMO 5.3 (Gamess) INPUT generated by Facio 22.1.1.32 ***
 $CONTRL RUNTYP=ENERGY NPRINT=-5 ISPHER=1 MAXIT=200 $END
 $SYSTEM MWORDS=63 MEMDDI=63 $END
 $GDDI NGROUP=1 $END
 $SCF DIRSCF=.TRUE. NPUNCH=0 $END
!*** NumCPU : 2  MemPerNode : 512MB
 $PCM SOLVNT=WATER IEF=-10 ICOMP=2 ICAV=1 IDISP=1 IFMO=-1 $END
 $PCMCAV RADII=SUAHF $END
 $TESCAV NTSALL=60 $END
 $FMOPRP
    NAODIR=200
    NGRFMO(1)=1, 1, 0, 0, 0,   0, 0, 0, 0, 0
    IPIEDA=1
    NPRINT=9
 $END
 $FMO
      SCFTYP(1)=RHF
      MODGRD=10
      MODMUL=0
      MAXCAO=5
      MAXBND=12
      NLAYER=1
      MPLEVL(1)=2
      NFRAG=10
      ICHARG(1)=-1, -1, -1, -1, 0, -1, -1, -1, -1, 0
      FRGNAM(1)=F1, F2, F3, F4, F5, F6, F7, F8, F9, F10
      indat(1)=0
               1   -33   0
               34   -66   0
               67   -100   0
               101   -134   0
               135   -164   0
               165   -198   0
               199   -229   0
               230   -263   0
               264   -293   0
               294   -324   0
 $END

 $FMOBND
   -34   33       6-31G*    MINI
   -67   66       6-31G*    MINI
   -101   100       6-31G*    MINI
   -135   134       6-31G*    MINI
   -165   164       6-31G*    MINI
   -199   198       6-31G*    MINI
   -230   229       6-31G*    MINI
   -264   263       6-31G*    MINI
   -294   293       6-31G*    MINI
 $END
 $FMOHYB
 6-31G*      15   5
   1 0  -0.065034   0.288264   0.000000   0.000000   0.604412
         0.290129   0.000000   0.000000   0.319045  -0.017106
        -0.017106   0.057934   0.000000   0.000000   0.000000
   0 1  -0.065040   0.288293   0.569832   0.000000  -0.201456
         0.290147   0.300783   0.000000  -0.106342   0.049598
        -0.017106  -0.008771   0.000000  -0.027223   0.000000
   0 1  -0.065039   0.288293  -0.284916  -0.493490  -0.201455
         0.290145  -0.150392  -0.260486  -0.106340  -0.000427
         0.032923  -0.008771   0.033353   0.013612   0.023576
   0 1  -0.065039   0.288293  -0.284916   0.493490  -0.201455
         0.290145  -0.150392   0.260486  -0.106340  -0.000427
         0.032923  -0.008771  -0.033353   0.013612  -0.023576
   0 1   1.010938  -0.011975   0.000000   0.000000   0.000000
        -0.054085   0.000000   0.000000  -0.000000  -0.003174
        -0.003174  -0.003174   0.000000   0.000000   0.000000
 MINI         5   5
   1 0  -0.104883   0.308874   0.000000   0.000000   0.521806
   0 1  -0.104883   0.308874   0.491961   0.000000  -0.173934
   0 1  -0.104883   0.308876  -0.245980  -0.426050  -0.173933
   0 1  -0.104883   0.308876  -0.245980   0.426050  -0.173933
   0 1   0.988209   0.063992   0.000000   0.000000   0.000000
 $END
 
 $DATA
 FMO calculation
 C1 
 H.1-1    1
      N31 6
   
 O.1-1    8
      N31 6
      d 1
      1 0.800 1.0
   
 C.1-1    6
      N31 6
      d 1
      1 0.800 1.0
   
 N.1-1    7
      N31 6
      d 1
      1 0.800 1.0
   
 P.1-1   15
      N31 6
      d 1
      1 0.550 1.0
   
 $END
 $FMOXYZ
    1    H    -4.619    12.413    -8.355
    2    O    -3.683    12.200    -8.536
    3    C    -3.434    12.569    -9.901
    4    H    -3.666    13.650    -10.032
    5    H    -4.118    11.989    -10.559
    6    C    -1.989    12.315    -10.350
    7    H    -1.861    12.553    -11.428
    8    O    -1.076    13.178    -9.608
    9    C    0.103    12.448    -9.292
    10    H    0.951    13.044    -9.708
    11    N    0.301    12.277    -7.826
    12    C    -0.755    12.440    -6.957
    13    H    -1.715    12.707    -7.403
    14    C    -0.597    12.312    -5.633
    15    H    -1.414    12.464    -4.933
    16    C    1.554    11.933    -7.327
    17    O    2.495    11.764    -8.117
    18    N    1.734    11.804    -5.993
    19    C    0.703    11.993    -5.150
    20    N    0.918    11.894    -3.838
    21    H    1.831    11.639    -3.511
    22    H    0.195    12.054    -3.164
    23    C    0.031    11.125    -10.030
    24    H    0.548    10.301    -9.494
    25    O    0.577    11.268    -11.325
    26    H    0.423    10.430    -11.777
    27    C    -1.475    10.891    -10.092
    28    H    -1.854    10.586    -9.088
    29    O    -1.917    10.017    -11.156
    30    P    -2.049    8.474    -10.870
    31    O    -2.739    8.281    -9.578
    32    O    -2.646    7.816    -12.051
    33    O    -0.560    8.006    -10.720
    34    C    0.311    7.932    -11.872
    35    H    0.434    8.927    -12.353
    36    H    -0.103    7.239    -12.643
    37    C    1.698    7.409    -11.481
    38    H    2.359    7.339    -12.369
    39    O    2.331    8.324    -10.541
    40    C    3.049    7.573    -9.573
    41    H    4.102    7.937    -9.601
    42    N    2.496    7.790    -8.234
    43    C    2.288    8.050    -6.064
    44    N    1.031    8.292    -6.603
    45    C    1.208    8.130    -7.891
    46    H    0.434    8.252    -8.648
    47    N    4.084    7.773    -4.552
    48    C    4.825    7.436    -5.610
    49    H    5.867    7.185    -5.386
    50    N    4.486    7.399    -6.903
    51    C    3.192    7.723    -7.059
    52    C    2.779    8.093    -4.743
    53    N    2.018    8.427    -3.686
    54    H    1.024    8.545    -3.763
    55    H    2.403    8.354    -2.761
    56    C    3.011    6.115    -9.989
    57    H    3.004    5.414    -9.125
    58    O    4.106    5.816    -10.835
    59    H    3.983    4.895    -11.115
    60    C    1.695    6.057    -10.754
    61    H    0.836    6.077    -10.045
    62    O    1.587    4.985    -11.712
    63    P    1.244    3.538    -11.201
    64    O    0.322    3.638    -10.039
    65    O    0.774    2.743    -12.355
    66    O    2.630    2.951    -10.719
    67    C    2.615    1.936    -9.673
    68    H    2.122    0.994    -10.015
    69    H    2.034    2.281    -8.792
    70    C    4.040    1.592    -9.199
    71    H    4.638    1.198    -10.050
    72    O    4.737    2.786    -8.715
    73    C    5.466    2.465    -7.533
    74    H    6.503    2.836    -7.703
    75    N    4.921    3.108    -6.312
    76    C    3.682    3.686    -6.108
    77    N    0.579    4.574    -7.349
    78    H    -0.285    4.941    -7.012
    79    H    0.604    4.161    -8.266
    80    N    2.684    3.773    -6.999
    81    C    1.617    4.396    -6.554
    82    N    1.527    4.887    -5.284
    83    H    0.662    5.302    -4.983
    84    C    2.530    4.796    -4.329
    85    O    2.374    5.266    -3.204
    86    C    3.687    4.134    -4.812
    87    N    4.892    3.840    -4.187
    88    C    5.593    3.230    -5.114
    89    H    6.612    2.853    -4.976
    90    C    5.477    0.962    -7.424
    91    H    5.552    0.604    -6.376
    92    O    6.547    0.450    -8.195
    93    H    6.374    -0.491    -8.334
    94    C    4.128    0.598    -8.031
    95    H    3.307    0.868    -7.327
    96    O    4.039    -0.759    -8.522
    97    P    3.453    -1.894    -7.598
    98    O    2.127    -1.457    -7.108
    99    O    3.473    -3.172    -8.346
    100    O    4.431    -1.965    -6.366
    101    C    5.804    -2.397    -6.505
    102    H    6.343    -1.804    -7.269
    103    H    5.859    -3.459    -6.826
    104    C    6.577    -2.265    -5.185
    105    H    7.656    -2.485    -5.338
    106    O    6.478    -0.912    -4.658
    107    C    6.422    -0.967    -3.240
    108    H    7.280    -0.364    -2.866
    109    N    5.173    -0.385    -2.723
    110    C    4.891    -0.110    -1.409
    111    N    5.776    -0.148    1.946
    112    H    6.685    -0.561    1.931
    113    H    5.361    0.089    2.828
    114    N    5.702    -0.344    -0.359
    115    C    5.148    0.027    0.798
    116    N    3.913    0.612    0.885
    117    H    3.571    0.856    1.801
    118    C    3.070    0.891    -0.181
    119    O    1.978    1.438    -0.002
    120    C    3.630    0.458    -1.413
    121    N    3.117    0.516    -2.702
    122    C    4.068    0.007    -3.451
    123    H    4.028    -0.118    -4.537
    124    C    6.603    -2.417    -2.828
    125    H    6.026    -2.678    -1.918
    126    O    7.973    -2.695    -2.612
    127    H    8.055    -3.653    -2.516
    128    C    6.067    -3.151    -4.050
    129    H    4.955    -3.070    -4.084
    130    O    6.564    -4.498    -4.215
    131    P    5.623    -5.715    -3.886
    132    O    4.240    -5.395    -4.289
    133    O    6.220    -6.947    -4.446
    134    O    5.693    -5.774    -2.316
    135    C    6.918    -6.205    -1.675
    136    H    7.781    -5.576    -1.992
    137    H    7.151    -7.263    -1.944
    138    C    6.806    -6.132    -0.146
    139    H    7.728    -6.513    0.343
    140    O    6.636    -4.745    0.272
    141    C    5.694    -4.691    1.337
    142    H    6.220    -4.179    2.173
    143    N    4.475    -3.907    0.989
    144    C    4.145    -3.685    -0.329
    145    H    4.829    -4.099    -1.067
    146    C    3.064    -2.974    -0.673
    147    H    2.804    -2.767    -1.709
    148    C    3.649    -3.416    1.995
    149    O    3.932    -3.649    3.180
    150    N    2.554    -2.689    1.669
    151    C    2.256    -2.458    0.379
    152    N    1.193    -1.715    0.088
    153    H    0.620    -1.357    0.830
    154    H    0.916    -1.532    -0.859
    155    C    5.381    -6.120    1.759
    156    H    4.334    -6.229    2.111
    157    O    6.285    -6.535    2.772
    158    H    6.192    -7.495    2.895
    159    C    5.599    -6.874    0.452
    160    H    4.733    -6.730    -0.225
    161    O    5.883    -8.276    0.615
    162    H    5.097    -8.736    0.960
    163    H    -4.847    2.889    8.171
    164    O    -3.986    2.429    8.162
    165    C    -3.798    1.885    9.478
    166    H    -4.679    1.259    9.745
    167    H    -3.735    2.721    10.211
    168    C    -2.535    1.026    9.604
    169    H    -2.396    0.673    10.645
    170    O    -2.655    -0.154    8.759
    171    C    -1.389    -0.453    8.194
    172    H    -1.148    -1.505    8.478
    173    N    -1.410    -0.338    6.733
    174    C    -0.497    -0.881    5.872
    175    N    2.399    -2.693    5.306
    176    H    2.705    -2.930    6.227
    177    H    2.944    -2.997    4.519
    178    N    0.581    -1.608    6.219
    179    C    1.289    -1.996    5.161
    180    N    0.910    -1.735    3.870
    181    H    1.491    -2.086    3.125
    182    C    -0.205    -1.005    3.481
    183    O    -0.475    -0.819    2.290
    184    C    -0.933    -0.538    4.606
    185    N    -2.078    0.244    4.672
    186    C    -2.328    0.339    5.958
    187    H    -3.175    0.864    6.408
    188    C    -0.378    0.477    8.824
    189    H    0.456    0.730    8.138
    190    O    0.138    -0.115    9.997
    191    H    0.603    0.584    10.474
    192    C    -1.233    1.701    9.149
    193    H    -1.472    2.265    8.217
    194    O    -0.721    2.551    10.210
    195    P    0.268    3.716    9.818
    196    O    -0.340    4.505    8.725
    197    O    0.644    4.454    11.043
    198    O    1.528    2.972    9.245
    199    C    2.453    2.270    10.106
    200    H    1.955    1.457    10.673
    201    H    2.894    2.963    10.855
    202    C    3.622    1.667    9.318
    203    H    4.328    1.148    10.001
    204    O    3.170    0.679    8.347
    205    C    3.975    0.784    7.174
    206    H    4.427    -0.225    7.030
    207    N    3.182    1.132    5.953
    208    C    1.976    1.779    6.087
    209    H    1.670    2.004    7.109
    210    C    1.221    2.082    5.023
    211    H    0.248    2.561    5.118
    212    C    3.666    0.840    4.677
    213    O    4.775    0.295    4.559
    214    N    2.915    1.140    3.587
    215    C    1.722    1.742    3.734
    216    N    0.992    2.013    2.654
    217    H    1.335    1.790    1.739
    218    H    0.105    2.471    2.725
    219    C    5.089    1.784    7.474
    220    H    5.399    2.342    6.571
    221    O    6.209    1.123    8.022
    222    H    6.845    1.819    8.246
    223    C    4.413    2.690    8.509
    224    H    3.659    3.327    8.010
    225    O    5.240    3.450    9.414
    226    P    6.209    4.621    9.042
    227    O    6.722    5.201    10.311
    228    O    7.261    4.066    8.171
    229    O    5.360    5.743    8.334
    230    C    4.599    5.697    7.122
    231    H    4.304    6.734    6.837
    232    H    3.635    5.165    7.283
    233    C    5.370    5.094    5.949
    234    H    6.233    4.478    6.247
    235    O    4.523    4.178    5.242
    236    C    4.942    4.133    3.896
    237    H    5.264    3.088    3.680
    238    N    3.836    4.493    3.024
    239    C    3.794    4.380    1.670
    240    N    5.340    3.640    -1.328
    241    H    6.257    3.373    -1.037
    242    H    5.136    3.708    -2.311
    243    N    4.783    3.926    0.881
    244    C    4.460    3.983    -0.405
    245    N    3.212    4.337    -0.846
    246    H    3.050    4.434    -1.836
    247    C    2.156    4.768    -0.049
    248    O    1.049    5.077    -0.498
    249    C    2.531    4.811    1.311
    250    N    1.806    5.223    2.420
    251    C    2.620    5.006    3.418
    252    H    2.394    5.175    4.474
    253    C    6.127    5.072    3.748
    254    H    6.151    5.590    2.769
    255    O    7.332    4.357    3.924
    256    H    8.032    5.021    3.918
    257    C    5.895    6.052    4.893
    258    H    5.066    6.759    4.658
    259    O    7.084    6.704    5.393
    260    P    7.506    8.077    4.773
    261    O    6.296    8.915    4.627
    262    O    8.608    8.641    5.588
    263    O    8.017    7.692    3.341
    264    C    9.286    7.029    3.141
    265    H    9.324    6.057    3.683
    266    H    10.117    7.659    3.532
    267    C    9.562    6.755    1.647
    268    H    10.517    6.201    1.525
    269    O    8.507    5.933    1.062
    270    C    8.259    6.349    -0.277
    271    H    8.413    5.446    -0.913
    272    N    6.869    6.869    -0.468
    273    C    6.093    7.230    0.612
    274    H    6.590    7.165    1.579
    275    C    6.374    6.982    -1.748
    276    O    7.050    6.705    -2.744
    277    N    5.079    7.420    -1.839
    278    H    4.712    7.524    -2.778
    279    C    4.242    7.777    -0.804
    280    O    3.099    8.164    -1.034
    281    C    4.826    7.651    0.495
    282    H    4.230    7.925    1.365
    283    C    9.317    7.383    -0.622
    284    H    8.943    8.148    -1.330
    285    O    10.459    6.758    -1.171
    286    H    11.113    7.461    -1.273
    287    C    9.618    7.989    0.744
    288    H    8.770    8.637    1.051
    289    O    10.911    8.629    0.867
    290    P    11.005    10.190    0.695
    291    O    9.872    10.836    1.395
    292    O    12.369    10.630    1.061
    293    O    10.787    10.388    -0.853
    294    C    11.803    9.926    -1.774
    295    H    12.047    8.848    -1.614
    296    H    12.743    10.511    -1.639
    297    C    11.344    10.106    -3.225
    298    H    12.136    9.789    -3.938
    299    O    10.172    9.281    -3.475
    300    C    9.286    9.977    -4.342
    301    H    9.127    9.322    -5.229
    302    N    7.990    10.236    -3.694
    303    C    6.818    10.528    -4.336
    304    N    5.058    11.109    -7.263
    305    H    5.772    11.064    -7.960
    306    H    4.129    11.372    -7.537
    307    N    6.655    10.646    -5.666
    308    C    5.401    10.942    -5.998
    309    N    4.405    11.129    -5.075
    310    H    3.481    11.351    -5.409
    311    C    4.546    11.025    -3.696
    312    O    3.593    11.219    -2.933
    313    C    5.879    10.695    -3.335
    314    N    6.454    10.519    -2.081
    315    C    7.713    10.259    -2.345
    316    H    8.491    10.078    -1.601
    317    C    9.971    11.261    -4.775
    318    H    9.251    12.100    -4.909
    319    O    10.688    11.048    -5.981
    320    H    11.258    11.818    -6.142
    321    C    10.895    11.526    -3.593
    322    H    10.318    11.940    -2.739
    323    O    12.026    12.363    -3.900
    324    H    11.733    13.284    -4.040
 $END
