!*** FMO 5.3 (Gamess) INPUT generated by Facio 22.1.1.32 ***
 $CONTRL RUNTYP=ENERGY NPRINT=-5 ISPHER=1 MAXIT=200 $END
 $SYSTEM MWORDS=63 MEMDDI=63 $END
 $GDDI NGROUP=1 $END
 $SCF DIRSCF=.TRUE. NPUNCH=0 $END
!*** NumCPU : 2  MemPerNode : 512MB
 $PCM SOLVNT=WATER IEF=-10 ICOMP=2 ICAV=1 IDISP=1 IFMO=-1 $END
 $PCMCAV RADII=SUAHF $END
 $TESCAV NTSALL=60 $END
 $FMOPRP
    NAODIR=200
    NGRFMO(1)=1, 1, 0, 0, 0,   0, 0, 0, 0, 0
    IPIEDA=1
    NPRINT=9
 $END
 $FMO
      SCFTYP(1)=RHF
      MODGRD=10
      MODMUL=0
      MAXCAO=5
      MAXBND=12
      NLAYER=1
      MPLEVL(1)=2
      NFRAG=10
      ICHARG(1)=-1, -1, -1, -1, 0, -1, -1, -1, -1, 0
      FRGNAM(1)=F1, F2, F3, F4, F5, F6, F7, F8, F9, F10
      indat(1)=0
               1   -33   0
               34   -66   0
               67   -100   0
               101   -134   0
               135   -164   0
               165   -198   0
               199   -229   0
               230   -263   0
               264   -293   0
               294   -324   0
 $END

 $FMOBND
   -34   33       6-31G*    MINI
   -67   66       6-31G*    MINI
   -101   100       6-31G*    MINI
   -135   134       6-31G*    MINI
   -165   164       6-31G*    MINI
   -199   198       6-31G*    MINI
   -230   229       6-31G*    MINI
   -264   263       6-31G*    MINI
   -294   293       6-31G*    MINI
 $END
 $FMOHYB
 6-31G*      15   5
   1 0  -0.065034   0.288264   0.000000   0.000000   0.604412
         0.290129   0.000000   0.000000   0.319045  -0.017106
        -0.017106   0.057934   0.000000   0.000000   0.000000
   0 1  -0.065040   0.288293   0.569832   0.000000  -0.201456
         0.290147   0.300783   0.000000  -0.106342   0.049598
        -0.017106  -0.008771   0.000000  -0.027223   0.000000
   0 1  -0.065039   0.288293  -0.284916  -0.493490  -0.201455
         0.290145  -0.150392  -0.260486  -0.106340  -0.000427
         0.032923  -0.008771   0.033353   0.013612   0.023576
   0 1  -0.065039   0.288293  -0.284916   0.493490  -0.201455
         0.290145  -0.150392   0.260486  -0.106340  -0.000427
         0.032923  -0.008771  -0.033353   0.013612  -0.023576
   0 1   1.010938  -0.011975   0.000000   0.000000   0.000000
        -0.054085   0.000000   0.000000  -0.000000  -0.003174
        -0.003174  -0.003174   0.000000   0.000000   0.000000
 MINI         5   5
   1 0  -0.104883   0.308874   0.000000   0.000000   0.521806
   0 1  -0.104883   0.308874   0.491961   0.000000  -0.173934
   0 1  -0.104883   0.308876  -0.245980  -0.426050  -0.173933
   0 1  -0.104883   0.308876  -0.245980   0.426050  -0.173933
   0 1   0.988209   0.063992   0.000000   0.000000   0.000000
 $END
 
 $DATA
 FMO calculation
 C1 
 H.1-1    1
      N31 6
   
 O.1-1    8
      N31 6
      d 1
      1 0.800 1.0
   
 C.1-1    6
      N31 6
      d 1
      1 0.800 1.0
   
 N.1-1    7
      N31 6
      d 1
      1 0.800 1.0
   
 P.1-1   15
      N31 6
      d 1
      1 0.550 1.0
   
 $END
 $FMOXYZ
    1    H    -5.411    11.373    -6.053
    2    O    -4.509    11.292    -6.418
    3    C    -4.570    11.720    -7.786
    4    H    -4.937    12.771    -7.822
    5    H    -5.300    11.081    -8.329
    6    C    -3.220    11.639    -8.511
    7    H    -3.323    11.936    -9.576
    8    O    -2.265    12.552    -7.892
    9    C    -0.986    11.928    -7.852
    10    H    -0.289    12.625    -8.368
    11    N    -0.493    11.701    -6.464
    12    C    -1.371    11.718    -5.405
    13    H    -2.417    11.916    -5.645
    14    C    -0.953    11.539    -4.145
    15    H    -1.633    11.574    -3.297
    16    C    0.857    11.441    -6.236
    17    O    1.637    11.396    -7.196
    18    N    1.300    11.269    -4.968
    19    C    0.438    11.322    -3.938
    20    N    0.903    11.177    -2.698
    21    H    1.877    10.983    -2.555
    22    H    0.299    11.206    -1.901
    23    C    -1.080    10.649    -8.662
    24    H    -0.392    9.859    -8.298
    25    O    -0.808    10.927    -10.023
    26    H    -0.935    10.103    -10.509
    27    C    -2.539    10.261    -8.455
    28    H    -2.691    9.868    -7.423
    29    O    -3.097    9.400    -9.474
    30    P    -3.002    7.837    -9.309
    31    O    -3.479    7.481    -7.953
    32    O    -3.704    7.205    -10.449
    33    O    -1.454    7.541    -9.417
    34    C    -0.808    7.606    -10.714
    35    H    -0.898    8.618    -11.168
    36    H    -1.265    6.878    -11.423
    37    C    0.686    7.273    -10.612
    38    H    1.178    7.341    -11.604
    39    O    1.343    8.229    -9.737
    40    C    2.320    7.551    -8.966
    41    H    3.286    8.079    -9.144
    42    N    1.995    7.604    -7.543
    43    C    2.147    7.637    -5.355
    44    N    0.798    7.826    -5.651
    45    C    0.766    7.807    -6.960
    46    H    -0.129    7.946    -7.565
    47    N    4.199    7.382    -4.204
    48    C    4.755    7.175    -5.395
    49    H    5.829    6.973    -5.365
    50    N    4.208    7.251    -6.612
    51    C    2.887    7.479    -6.516
    52    C    2.864    7.607    -4.140
    53    N    2.301    7.794    -2.936
    54    H    1.311    7.895    -2.821
    55    H    2.860    7.653    -2.112
    56    C    2.422    6.131    -9.487
    57    H    2.689    5.395    -8.695
    58    O    3.368    6.068    -10.542
    59    H    3.338    5.161    -10.882
    60    C    1.007    5.900    -10.006
    61    H    0.296    5.748    -9.160
    62    O    0.887    4.874    -11.020
    63    P    0.866    3.371    -10.537
    64    O    0.050    3.295    -9.298
    65    O    0.448    2.531    -11.676
    66    O    2.377    3.055    -10.206
    67    C    2.682    2.002    -9.258
    68    H    2.373    1.012    -9.662
    69    H    2.128    2.145    -8.304
    70    C    4.190    1.940    -8.939
    71    H    4.776    1.782    -9.869
    72    O    4.654    3.192    -8.348
    73    C    5.527    2.916    -7.258
    74    H    6.443    3.518    -7.453
    75    N    4.972    3.304    -5.938
    76    C    3.674    3.626    -5.599
    77    N    0.358    3.965    -6.527
    78    H    -0.525    4.174    -6.108
    79    H    0.397    3.734    -7.504
    80    N    2.617    3.661    -6.428
    81    C    1.483    3.951    -5.834
    82    N    1.403    4.245    -4.505
    83    H    0.505    4.455    -4.108
    84    C    2.476    4.244    -3.621
    85    O    2.282    4.538    -2.448
    86    C    3.699    3.899    -4.253
    87    N    4.984    3.761    -3.740
    88    C    5.702    3.406    -4.774
    89    H    6.778    3.217    -4.744
    90    C    5.861    1.444    -7.316
    91    H    6.057    1.002    -6.316
    92    O    6.981    1.238    -8.158
    93    H    6.979    0.304    -8.415
    94    C    4.588    0.859    -7.916
    95    H    3.775    0.835    -7.151
    96    O    4.785    -0.410    -8.577
    97    P    4.430    -1.762    -7.856
    98    O    2.990    -1.744    -7.509
    99    O    4.882    -2.879    -8.720
    100    O    5.264    -1.744    -6.515
    101    C    6.698    -1.943    -6.549
    102    H    7.203    -1.174    -7.176
    103    H    6.952    -2.935    -6.982
    104    C    7.312    -1.881    -5.151
    105    H    8.406    -2.076    -5.187
    106    O    7.128    -0.546    -4.600
    107    C    6.821    -0.649    -3.219
    108    H    7.560    -0.016    -2.676
    109    N    5.459    -0.154    -2.937
    110    C    4.927    0.125    -1.705
    111    N    5.215    0.221    1.747
    112    H    6.122    -0.162    1.913
    113    H    4.631    0.444    2.534
    114    N    5.552    -0.027    -0.517
    115    C    4.784    0.339    0.504
    116    N    3.505    0.809    0.351
    117    H    3.012    1.113    1.175
    118    C    2.844    1.004    -0.857
    119    O    1.685    1.433    -0.898
    120    C    3.642    0.584    -1.955
    121    N    3.361    0.571    -3.320
    122    C    4.476    0.140    -3.861
    123    H    4.655    0.016    -4.932
    124    C    7.015    -2.100    -2.821
    125    H    6.341    -2.414    -1.999
    126    O    8.361    -2.323    -2.443
    127    H    8.469    -3.277    -2.345
    128    C    6.684    -2.821    -4.115
    129    H    5.586    -2.791    -4.296
    130    O    7.255    -4.145    -4.228
    131    P    6.334    -5.400    -3.987
    132    O    5.015    -5.169    -4.611
    133    O    7.069    -6.615    -4.407
    134    O    6.159    -5.411    -2.422
    135    C    7.290    -5.712    -1.572
    136    H    8.145    -5.023    -1.770
    137    H    7.642    -6.755    -1.754
    138    C    6.918    -5.597    -0.087
    139    H    7.770    -5.884    0.564
    140    O    6.584    -4.214    0.227
    141    C    5.491    -4.191    1.138
    142    H    5.848    -3.610    2.020
    143    N    4.288    -3.518    0.568
    144    C    4.153    -3.374    -0.793
    145    H    4.975    -3.752    -1.397
    146    C    3.097    -2.751    -1.332
    147    H    3.000    -2.595    -2.403
    148    C    3.282    -3.056    1.411
    149    O    3.396    -3.220    2.633
    150    N    2.201    -2.432    0.885
    151    C    2.091    -2.274    -0.444
    152    N    1.024    -1.644    -0.933
    153    H    0.342    -1.273    -0.298
    154    H    0.916    -1.460    -1.910
    155    C    5.216    -5.625    1.568
    156    H    4.136    -5.808    1.763
    157    O    5.977    -5.939    2.725
    158    H    5.935    -6.900    2.869
    159    C    5.685    -6.405    0.344
    160    H    4.927    -6.342    -0.465
    161    O    6.043    -7.773    0.614
    162    H    5.239    -8.295    0.792
    163    H    -6.441    2.847    5.983
    164    O    -5.586    2.390    6.097
    165    C    -5.556    1.918    7.453
    166    H    -6.432    1.253    7.630
    167    H    -5.647    2.790    8.139
    168    C    -4.274    1.153    7.810
    169    H    -4.277    0.861    8.881
    170    O    -4.188    -0.068    7.019
    171    C    -2.833    -0.299    6.664
    172    H    -2.567    -1.317    7.021
    173    N    -2.638    -0.225    5.209
    174    C    -1.566    -0.719    4.517
    175    N    1.507    -2.314    4.473
    176    H    1.679    -2.511    5.437
    177    H    2.176    -2.613    3.786
    178    N    -0.506    -1.349    5.051
    179    C    0.380    -1.721    4.129
    180    N    0.182    -1.539    2.785
    181    H    0.893    -1.867    2.150
    182    C    -0.917    -0.921    2.202
    183    O    -1.016    -0.805    0.976
    184    C    -1.832    -0.459    3.186
    185    N    -3.033    0.226    3.045
    186    C    -3.479    0.343    4.275
    187    H    -4.419    0.820    4.571
    188    C    -1.993    0.720    7.399
    189    H    -1.079    1.004    6.837
    190    O    -1.634    0.223    8.677
    191    H    -1.172    0.939    9.131
    192    C    -2.961    1.891    7.502
    193    H    -3.095    2.378    6.508
    194    O    -2.657    2.833    8.554
    195    P    -1.726    4.066    8.228
    196    O    -2.207    4.695    6.977
    197    O    -1.679    4.918    9.438
    198    O    -0.308    3.444    7.953
    199    C    0.478    2.839    9.004
    200    H    -0.081    2.039    9.539
    201    H    0.752    3.598    9.768
    202    C    1.783    2.239    8.455
    203    H    2.369    1.768    9.271
    204    O    1.500    1.195    7.480
    205    C    2.462    1.262    6.428
    206    H    2.946    0.257    6.398
    207    N    1.848    1.556    5.103
    208    C    0.614    2.150    5.019
    209    H    0.128    2.373    5.968
    210    C    0.037    2.403    3.834
    211    H    -0.956    2.834    3.750
    212    C    2.546    1.246    3.940
    213    O    3.656    0.709    4.030
    214    N    1.988    1.506    2.735
    215    C    0.770    2.056    2.661
    216    N    0.242    2.276    1.461
    217    H    0.774    2.038    0.642
    218    H    -0.676    2.648    1.333
    219    C    3.501    2.296    6.820
    220    H    3.912    2.847    5.944
    221    O    4.560    1.688    7.538
    222    H    5.121    2.417    7.845
    223    C    2.686    3.231    7.712
    224    H    2.010    3.860    7.090
    225    O    3.455    4.005    8.665
    226    P    4.184    5.300    8.146
    227    O    3.262    6.010    7.222
    228    O    4.660    6.062    9.318
    229    O    5.451    4.755    7.375
    230    C    5.957    5.514    6.248
    231    H    6.381    6.491    6.582
    232    H    5.143    5.769    5.539
    233    C    7.035    4.737    5.472
    234    H    7.844    4.393    6.150
    235    O    6.465    3.556    4.831
    236    C    6.928    3.469    3.486
    237    H    7.299    2.427    3.364
    238    N    5.872    3.718    2.471
    239    C    4.586    4.212    2.613
    240    N    2.099    5.524    4.631
    241    H    1.220    5.986    4.513
    242    H    2.579    5.587    5.513
    243    N    3.996    4.594    3.759
    244    C    2.781    5.068    3.598
    245    N    2.166    5.127    2.383
    246    H    1.256    5.552    2.310
    247    C    2.728    4.733    1.182
    248    O    2.044    4.844    0.172
    249    C    4.054    4.238    1.343
    250    N    4.974    3.772    0.412
    251    C    6.032    3.474    1.125
    252    H    6.961    3.063    0.718
    253    C    8.084    4.435    3.352
    254    H    8.199    4.834    2.321
    255    O    9.292    3.810    3.753
    256    H    9.930    4.513    3.941
    257    C    7.669    5.535    4.318
    258    H    6.853    6.145    3.862
    259    O    8.761    6.331    4.815
    260    P    9.080    7.745    4.215
    261    O    7.856    8.575    4.245
    262    O    10.273    8.285    4.897
    263    O    9.432    7.448    2.712
    264    C    10.681    6.833    2.326
    265    H    10.790    5.829    2.794
    266    H    11.540    7.465    2.651
    267    C    10.784    6.646    0.800
    268    H    11.779    6.225    0.530
    269    O    9.772    5.706    0.325
    270    C    9.254    6.156    -0.925
    271    H    9.361    5.302    -1.635
    272    N    7.820    6.562    -0.829
    273    C    7.231    6.812    0.392
    274    H    7.887    6.710    1.253
    275    C    7.093    6.688    -1.990
    276    O    7.593    6.510    -3.102
    277    N    5.776    7.023    -1.818
    278    H    5.217    7.068    -2.662
    279    C    5.118    7.261    -0.630
    280    O    3.929    7.577    -0.622
    281    C    5.945    7.156    0.531
    282    H    5.510    7.357    1.507
    283    C    10.147    7.298    -1.379
    284    H    9.602    8.037    -2.000
    285    O    11.255    6.799    -2.105
    286    H    11.822    7.554    -2.297
    287    C    10.572    7.905    -0.045
    288    H    9.719    8.453    0.418
    289    O    11.796    8.675    -0.079
    290    P    11.711    10.238    -0.204
    291    O    10.675    10.761    0.715
    292    O    13.071    10.810    -0.082
    293    O    11.200    10.436    -1.679
    294    C    12.089    10.153    -2.784
    295    H    12.462    9.104    -2.747
    296    H    12.980    10.828    -2.759
    297    C    11.365    10.359    -4.120
    298    H    12.045    10.158    -4.979
    299    O    10.247    9.431    -4.229
    300    C    9.155    10.087    -4.864
    301    H    8.874    9.466    -5.747
    302    N    7.992    10.190    -3.971
    303    C    6.701    10.424    -4.360
    304    N    4.360    10.968    -6.854
    305    H    4.927    11.003    -7.677
    306    H    3.374    11.134    -6.932
    307    N    6.281    10.630    -5.623
    308    C    4.958    10.776    -5.694
    309    N    4.144    10.787    -4.592
    310    H    3.155    10.925    -4.731
    311    C    4.556    10.623    -3.275
    312    O    3.755    10.670    -2.335
    313    C    5.960    10.431    -3.192
    314    N    6.776    10.231    -2.083
    315    C    7.976    10.100    -2.595
    316    H    8.893    9.921    -2.032
    317    C    9.640    11.449    -5.328
    318    H    8.837    12.215    -5.279
    319    O    10.148    11.370    -6.651
    320    H    10.568    12.219    -6.872
    321    C    10.729    11.744    -4.301
    322    H    10.264    12.051    -3.336
    323    O    11.707    12.713    -4.723
    324    H    11.300    13.599    -4.771
 $END
