!*** FMO 5.3 (Gamess) INPUT generated by Facio 22.1.1.32 ***
 $CONTRL RUNTYP=ENERGY NPRINT=-5 ISPHER=1 MAXIT=200 $END
 $SYSTEM MWORDS=63 MEMDDI=63 $END
 $GDDI NGROUP=1 $END
 $SCF DIRSCF=.TRUE. NPUNCH=0 $END
!*** NumCPU : 2  MemPerNode : 512MB
 $PCM SOLVNT=WATER IEF=-10 ICOMP=2 ICAV=1 IDISP=1 IFMO=-1 $END
 $PCMCAV RADII=SUAHF $END
 $TESCAV NTSALL=60 $END
 $FMOPRP
    NAODIR=200
    NGRFMO(1)=1, 1, 0, 0, 0,   0, 0, 0, 0, 0
    IPIEDA=1
    NPRINT=9
 $END
 $FMO
      SCFTYP(1)=RHF
      MODGRD=10
      MODMUL=0
      MAXCAO=5
      MAXBND=12
      NLAYER=1
      MPLEVL(1)=2
      NFRAG=10
      ICHARG(1)=-1, -1, -1, -1, 0, -1, -1, -1, -1, 0
      FRGNAM(1)=F1, F2, F3, F4, F5, F6, F7, F8, F9, F10
      indat(1)=0
               1   -33   0
               34   -66   0
               67   -100   0
               101   -134   0
               135   -164   0
               165   -198   0
               199   -229   0
               230   -263   0
               264   -293   0
               294   -324   0
 $END

 $FMOBND
   -34   33       6-31G*    MINI
   -67   66       6-31G*    MINI
   -101   100       6-31G*    MINI
   -135   134       6-31G*    MINI
   -165   164       6-31G*    MINI
   -199   198       6-31G*    MINI
   -230   229       6-31G*    MINI
   -264   263       6-31G*    MINI
   -294   293       6-31G*    MINI
 $END
 $FMOHYB
 6-31G*      15   5
   1 0  -0.065034   0.288264   0.000000   0.000000   0.604412
         0.290129   0.000000   0.000000   0.319045  -0.017106
        -0.017106   0.057934   0.000000   0.000000   0.000000
   0 1  -0.065040   0.288293   0.569832   0.000000  -0.201456
         0.290147   0.300783   0.000000  -0.106342   0.049598
        -0.017106  -0.008771   0.000000  -0.027223   0.000000
   0 1  -0.065039   0.288293  -0.284916  -0.493490  -0.201455
         0.290145  -0.150392  -0.260486  -0.106340  -0.000427
         0.032923  -0.008771   0.033353   0.013612   0.023576
   0 1  -0.065039   0.288293  -0.284916   0.493490  -0.201455
         0.290145  -0.150392   0.260486  -0.106340  -0.000427
         0.032923  -0.008771  -0.033353   0.013612  -0.023576
   0 1   1.010938  -0.011975   0.000000   0.000000   0.000000
        -0.054085   0.000000   0.000000  -0.000000  -0.003174
        -0.003174  -0.003174   0.000000   0.000000   0.000000
 MINI         5   5
   1 0  -0.104883   0.308874   0.000000   0.000000   0.521806
   0 1  -0.104883   0.308874   0.491961   0.000000  -0.173934
   0 1  -0.104883   0.308876  -0.245980  -0.426050  -0.173933
   0 1  -0.104883   0.308876  -0.245980   0.426050  -0.173933
   0 1   0.988209   0.063992   0.000000   0.000000   0.000000
 $END
 
 $DATA
 FMO calculation
 C1 
 H.1-1    1
      N31 6
   
 O.1-1    8
      N31 6
      d 1
      1 0.800 1.0
   
 C.1-1    6
      N31 6
      d 1
      1 0.800 1.0
   
 N.1-1    7
      N31 6
      d 1
      1 0.800 1.0
   
 P.1-1   15
      N31 6
      d 1
      1 0.550 1.0
   
 $END
 $FMOXYZ
    1    H    -5.548    10.625    -7.268
    2    O    -4.614    10.626    -7.550
    3    C    -4.585    11.139    -8.893
    4    H    -5.018    12.164    -8.906
    5    H    -5.217    10.502    -9.549
    6    C    -3.178    11.191    -9.496
    7    H    -3.214    11.547    -10.546
    8    O    -2.345    12.130    -8.754
    9    C    -1.030    11.600    -8.648
    10    H    -0.350    12.375    -9.073
    11    N    -0.626    11.328    -7.242
    12    C    -1.580    11.218    -6.256
    13    H    -2.618    11.347    -6.569
    14    C    -1.242    10.997    -4.980
    15    H    -1.985    10.936    -4.187
    16    C    0.718    11.156    -6.920
    17    O    1.570    11.213    -7.819
    18    N    1.079    10.949    -5.635
    19    C    0.141    10.879    -4.673
    20    N    0.525    10.705    -3.410
    21    H    1.496    10.567    -3.199
    22    H    -0.135    10.688    -2.655
    23    C    -0.969    10.363    -9.520
    24    H    -0.263    9.604    -9.133
    25    O    -0.610    10.725    -10.838
    26    H    -0.624    9.910    -11.355
    27    C    -2.406    9.862    -9.458
    28    H    -2.610    9.398    -8.465
    29    O    -2.809    9.022    -10.567
    30    P    -2.611    7.460    -10.462
    31    O    -3.151    6.977    -9.170
    32    O    -3.165    6.831    -11.683
    33    O    -1.049    7.273    -10.433
    34    C    -0.242    7.515    -11.610
    35    H    -0.453    8.507    -12.068
    36    H    -0.459    6.749    -12.388
    37    C    1.257    7.426    -11.291
    38    H    1.869    7.679    -12.186
    39    O    1.607    8.370    -10.243
    40    C    2.589    7.794    -9.401
    41    H    3.463    8.486    -9.402
    42    N    2.092    7.646    -8.031
    43    C    1.990    7.402    -5.852
    44    N    0.674    7.512    -6.287
    45    C    0.789    7.650    -7.587
    46    H    -0.043    7.770    -8.283
    47    N    3.914    7.137    -4.498
    48    C    4.624    7.176    -5.626
    49    H    5.708    7.079    -5.501
    50    N    4.206    7.386    -6.874
    51    C    2.868    7.469    -6.920
    52    C    2.561    7.251    -4.572
    53    N    1.856    7.231    -3.429
    54    H    0.854    7.294    -3.403
    55    H    2.363    7.114    -2.573
    56    C    2.992    6.467    -10.003
    57    H    3.257    5.710    -9.230
    58    O    4.079    6.640    -10.896
    59    H    4.245    5.770    -11.292
    60    C    1.723    6.066    -10.751
    61    H    0.941    5.717    -10.038
    62    O    1.911    5.141    -11.845
    63    P    2.163    3.619    -11.519
    64    O    1.050    3.156    -10.656
    65    O    2.376    2.906    -12.795
    66    O    3.518    3.600    -10.713
    67    C    3.783    2.516    -9.794
    68    H    3.898    1.557    -10.350
    69    H    2.943    2.378    -9.077
    70    C    5.075    2.746    -8.984
    71    H    5.949    2.847    -9.660
    72    O    5.010    3.964    -8.180
    73    C    5.509    3.692    -6.871
    74    H    6.263    4.487    -6.673
    75    N    4.473    3.752    -5.814
    76    C    3.098    3.760    -5.925
    77    N    0.290    3.625    -7.937
    78    H    -0.702    3.553    -7.845
    79    H    0.707    3.517    -8.846
    80    N    2.394    3.732    -7.066
    81    C    1.096    3.698    -6.890
    82    N    0.516    3.735    -5.651
    83    H    -0.489    3.717    -5.598
    84    C    1.200    3.798    -4.437
    85    O    0.574    3.844    -3.372
    86    C    2.617    3.798    -4.633
    87    N    3.671    3.826    -3.718
    88    C    4.746    3.813    -4.469
    89    H    5.775    3.863    -4.101
    90    C    6.195    2.339    -6.925
    91    H    6.160    1.796    -5.955
    92    O    7.542    2.499    -7.337
    93    H    7.896    1.621    -7.547
    94    C    5.353    1.623    -7.975
    95    H    4.364    1.348    -7.542
    96    O    5.996    0.523    -8.647
    97    P    6.007    -0.943    -8.072
    98    O    5.740    -1.856    -9.205
    99    O    7.291    -1.153    -7.370
    100    O    4.795    -1.039    -7.064
    101    C    4.701    -2.187    -6.178
    102    H    4.944    -3.143    -6.694
    103    H    3.640    -2.288    -5.851
    104    C    5.570    -2.063    -4.911
    105    H    6.639    -2.260    -5.144
    106    O    5.503    -0.707    -4.385
    107    C    5.510    -0.746    -2.971
    108    H    6.354    -0.103    -2.636
    109    N    4.256    -0.210    -2.424
    110    C    3.986    0.052    -1.109
    111    N    4.960    0.075    2.216
    112    H    5.881    -0.310    2.179
    113    H    4.557    0.315    3.104
    114    N    4.823    -0.151    -0.076
    115    C    4.295    0.224    1.086
    116    N    3.048    0.780    1.194
    117    H    2.720    1.044    2.111
    118    C    2.166    1.013    0.148
    119    O    1.062    1.522    0.358
    120    C    2.708    0.578    -1.091
    121    N    2.172    0.618    -2.370
    122    C    3.132    0.155    -3.132
    123    H    3.087    0.047    -4.219
    124    C    5.770    -2.182    -2.553
    125    H    5.275    -2.447    -1.595
    126    O    7.166    -2.419    -2.447
    127    H    7.283    -3.375    -2.367
    128    C    5.155    -2.941    -3.719
    129    H    4.042    -2.886    -3.662
    130    O    5.663    -4.279    -3.882
    131    P    4.760    -5.525    -3.567
    132    O    3.375    -5.235    -3.993
    133    O    5.398    -6.739    -4.125
    134    O    4.805    -5.595    -1.995
    135    C    6.010    -6.052    -1.337
    136    H    6.885    -5.432    -1.637
    137    H    6.233    -7.112    -1.607
    138    C    5.884    -5.978    0.192
    139    H    6.794    -6.381    0.687
    140    O    5.746    -4.590    0.615
    141    C    4.801    -4.517    1.676
    142    H    5.332    -4.015    2.517
    143    N    3.600    -3.712    1.320
    144    C    3.286    -3.482    -0.001
    145    H    3.975    -3.896    -0.736
    146    C    2.214    -2.763    -0.350
    147    H    1.962    -2.555    -1.388
    148    C    2.773    -3.213    2.321
    149    O    3.044    -3.450    3.507
    150    N    1.688    -2.477    1.987
    151    C    1.396    -2.252    0.695
    152    N    0.331    -1.519    0.396
    153    H    -0.230    -1.134    1.133
    154    H    0.100    -1.279    -0.549
    155    C    4.456    -5.940    2.090
    156    H    3.406    -6.026    2.442
    157    O    5.351    -6.378    3.101
    158    H    5.235    -7.336    3.221
    159    C    4.656    -6.691    0.778
    160    H    3.796    -6.516    0.096
    161    O    4.909    -8.099    0.932
    162    H    4.117    -8.545    1.281
    163    H    -5.654    3.216    8.463
    164    O    -4.799    2.745    8.459
    165    C    -4.621    2.206    9.778
    166    H    -5.513    1.597    10.049
    167    H    -4.540    3.043    10.509
    168    C    -3.375    1.323    9.904
    169    H    -3.246    0.965    10.946
    170    O    -3.515    0.146    9.058
    171    C    -2.254    -0.176    8.498
    172    H    -2.034    -1.232    8.783
    173    N    -2.268    -0.062    7.036
    174    C    -1.359    -0.623    6.181
    175    N    1.528    -2.456    5.630
    176    H    1.816    -2.708    6.552
    177    H    2.061    -2.784    4.846
    178    N    -0.292    -1.364    6.534
    179    C    0.421    -1.753    5.479
    180    N    0.053    -1.486    4.186
    181    H    0.629    -1.849    3.443
    182    C    -1.055    -0.748    3.793
    183    O    -1.315    -0.558    2.601
    184    C    -1.785    -0.274    4.913
    185    N    -2.921    0.524    4.971
    186    C    -3.175    0.624    6.256
    187    H    -4.014    1.165    6.701
    188    C    -1.227    0.737    9.129
    189    H    -0.389    0.976    8.442
    190    O    -0.718    0.140    10.303
    191    H    -0.251    0.834    10.785
    192    C    -2.060    1.975    9.451
    193    H    -2.291    2.541    8.518
    194    O    -1.533    2.822    10.507
    195    P    -0.534    3.979    10.110
    196    O    -1.143    4.791    9.036
    197    O    -0.132    4.704    11.336
    198    O    0.706    3.222    9.505
    199    C    1.648    2.523    10.349
    200    H    1.156    1.710    10.924
    201    H    2.107    3.214    11.093
    202    C    2.793    1.909    9.532
    203    H    3.505    1.385    10.206
    204    O    2.301    0.910    8.588
    205    C    3.078    0.988    7.391
    206    H    3.490    -0.035    7.234
    207    N    2.278    1.370    6.189
    208    C    1.075    2.017    6.344
    209    H    0.767    2.211    7.372
    210    C    0.329    2.370    5.290
    211    H    -0.640    2.854    5.401
    212    C    2.759    1.111    4.905
    213    O    3.857    0.550    4.769
    214    N    2.021    1.467    3.828
    215    C    0.835    2.080    3.990
    216    N    0.117    2.403    2.916
    217    H    0.449    2.152    2.003
    218    H    -0.795    2.806    2.999
    219    C    4.224    1.954    7.658
    220    H    4.535    2.507    6.747
    221    O    5.332    1.262    8.210
    222    H    5.961    1.941    8.492
    223    C    3.589    2.899    8.676
    224    H    2.850    3.568    8.181
    225    O    4.493    3.639    9.518
    226    P    5.406    4.790    8.967
    227    O    5.387    5.900    9.945
    228    O    6.731    4.213    8.666
    229    O    4.720    5.280    7.630
    230    C    5.496    6.075    6.696
    231    H    6.089    6.866    7.211
    232    H    4.780    6.610    6.031
    233    C    6.440    5.254    5.792
    234    H    7.301    4.853    6.365
    235    O    5.731    4.117    5.224
    236    C    6.096    3.958    3.863
    237    H    6.430    2.902    3.744
    238    N    4.951    4.199    2.976
    239    C    4.889    3.954    1.630
    240    N    6.384    2.854    -1.295
    241    H    6.147    2.655    -2.238
    242    H    7.286    2.589    -0.956
    243    N    5.876    3.459    0.867
    244    C    5.519    3.316    -0.407
    245    N    4.262    3.614    -0.867
    246    H    4.050    3.522    -1.851
    247    C    3.225    4.128    -0.098
    248    O    2.117    4.392    -0.567
    249    C    3.610    4.309    1.252
    250    N    2.881    4.789    2.334
    251    C    3.716    4.694    3.341
    252    H    3.497    4.976    4.376
    253    C    7.256    4.890    3.590
    254    H    7.280    5.259    2.542
    255    O    8.474    4.233    3.889
    256    H    9.167    4.906    3.881
    257    C    6.980    6.023    4.573
    258    H    6.143    6.660    4.204
    259    O    8.145    6.788    4.950
    260    P    8.516    8.090    4.150
    261    O    7.318    8.954    4.141
    262    O    9.750    8.666    4.727
    263    O    8.808    7.580    2.690
    264    C    10.080    6.972    2.360
    265    H    10.187    5.987    2.868
    266    H    10.929    7.617    2.687
    267    C    10.237    6.740    0.845
    268    H    11.247    6.318    0.627
    269    O    9.248    5.773    0.374
    270    C    8.797    6.159    -0.923
    271    H    8.986    5.280    -1.579
    272    N    7.346    6.503    -0.939
    273    C    6.707    6.914    0.210
    274    H    7.331    6.933    1.100
    275    C    6.662    6.433    -2.134
    276    O    7.196    6.093    -3.185
    277    N    5.331    6.749    -2.056
    278    H    4.820    6.773    -2.933
    279    C    4.630    7.174    -0.952
    280    O    3.434    7.434    -1.044
    281    C    5.404    7.230    0.249
    282    H    4.906    7.522    1.172
    283    C    9.671    7.317    -1.380
    284    H    9.124    8.025    -2.034
    285    O    10.810    6.837    -2.068
    286    H    11.393    7.594    -2.206
    287    C    10.043    7.966    -0.052
    288    H    9.167    8.516    0.363
    289    O    11.258    8.750    -0.082
    290    P    11.162    10.317    -0.117
    291    O    10.090    10.770    0.795
    292    O    12.509    10.889    0.104
    293    O    10.732    10.625    -1.601
    294    C    11.700    10.391    -2.655
    295    H    12.069    9.339    -2.647
    296    H    12.585    11.061    -2.540
    297    C    11.073    10.658    -4.026
    298    H    11.829    10.564    -4.835
    299    O    10.042    9.661    -4.288
    300    C    8.958    10.287    -4.961
    301    H    8.794    9.710    -5.901
    302    N    7.728    10.245    -4.161
    303    C    6.456    10.395    -4.640
    304    N    4.288    10.943    -7.286
    305    H    4.914    11.058    -8.053
    306    H    3.302    11.045    -7.439
    307    N    6.120    10.633    -5.920
    308    C    4.800    10.710    -6.089
    309    N    3.905    10.603    -5.056
    310    H    2.924    10.703    -5.266
    311    C    4.225    10.384    -3.721
    312    O    3.352    10.316    -2.850
    313    C    5.629    10.280    -3.537
    314    N    6.372    10.070    -2.380
    315    C    7.615    10.065    -2.801
    316    H    8.496    9.945    -2.169
    317    C    9.373    11.708    -5.301
    318    H    8.512    12.410    -5.273
    319    O    9.983    11.737    -6.583
    320    H    10.383    12.613    -6.717
    321    C    10.361    12.012    -4.177
    322    H    9.812    12.248    -3.237
    323    O    11.313    13.045    -4.489
    324    H    10.865    13.912    -4.531
 $END
