!*** FMO 5.3 (Gamess) INPUT generated by Facio 22.1.1.32 ***
 $CONTRL RUNTYP=ENERGY NPRINT=-5 ISPHER=1 MAXIT=200 $END
 $SYSTEM MWORDS=63 MEMDDI=63 $END
 $GDDI NGROUP=1 $END
 $SCF DIRSCF=.TRUE. NPUNCH=0 $END
!*** NumCPU : 2  MemPerNode : 512MB
 $PCM SOLVNT=WATER IEF=-10 ICOMP=2 ICAV=1 IDISP=1 IFMO=-1 $END
 $PCMCAV RADII=SUAHF $END
 $TESCAV NTSALL=60 $END
 $FMOPRP
    NAODIR=200
    NGRFMO(1)=1, 1, 0, 0, 0,   0, 0, 0, 0, 0
    IPIEDA=1
    NPRINT=9
 $END
 $FMO
      SCFTYP(1)=RHF
      MODGRD=10
      MODMUL=0
      MAXCAO=5
      MAXBND=12
      NLAYER=1
      MPLEVL(1)=2
      NFRAG=10
      ICHARG(1)=-1, -1, -1, -1, 0, -1, -1, -1, -1, 0
      FRGNAM(1)=F1, F2, F3, F4, F5, F6, F7, F8, F9, F10
      indat(1)=0
               1   -33   0
               34   -66   0
               67   -100   0
               101   -134   0
               135   -164   0
               165   -198   0
               199   -229   0
               230   -263   0
               264   -293   0
               294   -324   0
 $END

 $FMOBND
   -34   33       6-31G*    MINI
   -67   66       6-31G*    MINI
   -101   100       6-31G*    MINI
   -135   134       6-31G*    MINI
   -165   164       6-31G*    MINI
   -199   198       6-31G*    MINI
   -230   229       6-31G*    MINI
   -264   263       6-31G*    MINI
   -294   293       6-31G*    MINI
 $END
 $FMOHYB
 6-31G*      15   5
   1 0  -0.065034   0.288264   0.000000   0.000000   0.604412
         0.290129   0.000000   0.000000   0.319045  -0.017106
        -0.017106   0.057934   0.000000   0.000000   0.000000
   0 1  -0.065040   0.288293   0.569832   0.000000  -0.201456
         0.290147   0.300783   0.000000  -0.106342   0.049598
        -0.017106  -0.008771   0.000000  -0.027223   0.000000
   0 1  -0.065039   0.288293  -0.284916  -0.493490  -0.201455
         0.290145  -0.150392  -0.260486  -0.106340  -0.000427
         0.032923  -0.008771   0.033353   0.013612   0.023576
   0 1  -0.065039   0.288293  -0.284916   0.493490  -0.201455
         0.290145  -0.150392   0.260486  -0.106340  -0.000427
         0.032923  -0.008771  -0.033353   0.013612  -0.023576
   0 1   1.010938  -0.011975   0.000000   0.000000   0.000000
        -0.054085   0.000000   0.000000  -0.000000  -0.003174
        -0.003174  -0.003174   0.000000   0.000000   0.000000
 MINI         5   5
   1 0  -0.104883   0.308874   0.000000   0.000000   0.521806
   0 1  -0.104883   0.308874   0.491961   0.000000  -0.173934
   0 1  -0.104883   0.308876  -0.245980  -0.426050  -0.173933
   0 1  -0.104883   0.308876  -0.245980   0.426050  -0.173933
   0 1   0.988209   0.063992   0.000000   0.000000   0.000000
 $END
 
 $DATA
 FMO calculation
 C1 
 H.1-1    1
      N31 6
   
 O.1-1    8
      N31 6
      d 1
      1 0.800 1.0
   
 C.1-1    6
      N31 6
      d 1
      1 0.800 1.0
   
 N.1-1    7
      N31 6
      d 1
      1 0.800 1.0
   
 P.1-1   15
      N31 6
      d 1
      1 0.550 1.0
   
 $END
 $FMOXYZ
    1    H    -5.730    10.337    -6.155
    2    O    -4.818    10.358    -6.501
    3    C    -4.898    10.864    -7.842
    4    H    -5.335    11.889    -7.822
    5    H    -5.567    10.208    -8.441
    6    C    -3.544    10.929    -8.554
    7    H    -3.666    11.273    -9.600
    8    O    -2.677    11.891    -7.888
    9    C    -1.349    11.388    -7.870
    10    H    -0.718    12.176    -8.343
    11    N    -0.847    11.133    -6.492
    12    C    -1.729    11.017    -5.440
    13    H    -2.787    11.125    -5.681
    14    C    -1.301    10.815    -4.188
    15    H    -1.983    10.741    -3.344
    16    C    0.519    10.995    -6.261
    17    O    1.306    11.071    -7.217
    18    N    0.973    10.806    -5.001
    19    C    0.103    10.717    -3.979
    20    N    0.575    10.548    -2.745
    21    H    1.563    10.461    -2.597
    22    H    -0.033    10.535    -1.949
    23    C    -1.324    10.150    -8.742
    24    H    -0.569    9.410    -8.410
    25    O    -1.072    10.513    -10.085
    26    H    -1.103    9.697    -10.597
    27    C    -2.743    9.618    -8.571
    28    H    -2.862    9.155    -7.564
    29    O    -3.219    8.766    -9.644
    30    P    -2.962    7.212    -9.554
    31    O    -3.452    6.724    -8.249
    32    O    -3.548    6.568    -10.751
    33    O    -1.389    7.088    -9.612
    34    C    -0.725    7.267    -10.890
    35    H    -0.944    8.267    -11.331
    36    H    -1.071    6.498    -11.616
    37    C    0.796    7.135    -10.749
    38    H    1.314    7.337    -11.710
    39    O    1.286    8.108    -9.780
    40    C    2.328    7.526    -9.017
    41    H    3.220    8.185    -9.133
    42    N    1.971    7.447    -7.595
    43    C    2.070    7.322    -5.404
    44    N    0.724    7.456    -5.721
    45    C    0.718    7.518    -7.029
    46    H    -0.175    7.619    -7.646
    47    N    4.096    7.045    -4.210
    48    C    4.702    7.006    -5.400
    49    H    5.789    6.867    -5.368
    50    N    4.179    7.162    -6.620
    51    C    2.845    7.304    -6.550
    52    C    2.750    7.209    -4.174
    53    N    2.132    7.275    -2.982
    54    H    1.133    7.348    -2.907
    55    H    2.674    7.274    -2.137
    56    C    2.625    6.169    -9.616
    57    H    2.958    5.434    -8.857
    58    O    3.604    6.296    -10.627
    59    H    3.648    5.440    -11.070
    60    C    1.277    5.778    -10.210
    61    H    0.562    5.491    -9.403
    62    O    1.350    4.803    -11.284
    63    P    1.207    3.272    -10.923
    64    O    0.053    3.126    -10.011
    65    O    1.152    2.486    -12.178
    66    O    2.522    2.923    -10.134
    67    C    3.827    2.914    -10.751
    68    H    4.012    3.846    -11.330
    69    H    3.921    2.067    -11.462
    70    C    4.941    2.750    -9.707
    71    H    5.944    2.791    -10.183
    72    O    4.873    3.838    -8.750
    73    C    5.119    3.337    -7.447
    74    H    5.957    3.944    -7.039
    75    N    3.957    3.501    -6.564
    76    C    3.982    3.553    -5.195
    77    N    5.751    3.430    -2.236
    78    H    6.673    3.241    -2.571
    79    H    5.588    3.443    -1.245
    80    N    5.076    3.440    -4.419
    81    C    4.785    3.546    -3.127
    82    N    3.516    3.777    -2.649
    83    H    3.361    3.846    -1.656
    84    C    2.373    3.910    -3.433
    85    O    1.254    4.128    -2.954
    86    C    2.671    3.758    -4.812
    87    N    1.831    3.803    -5.916
    88    C    2.638    3.643    -6.934
    89    H    2.333    3.630    -7.979
    90    C    5.566    1.898    -7.579
    91    H    5.246    1.272    -6.716
    92    O    6.974    1.825    -7.721
    93    H    7.188    0.894    -7.890
    94    C    4.864    1.467    -8.863
    95    H    3.782    1.282    -8.670
    96    O    5.496    0.369    -9.570
    97    P    5.240    -1.093    -9.043
    98    O    3.780    -1.294    -8.943
    99    O    5.989    -2.061    -9.874
    100    O    5.866    -1.136    -7.598
    101    C    5.417    -2.165    -6.678
    102    H    5.562    -3.186    -7.105
    103    H    4.329    -2.042    -6.462
    104    C    6.169    -2.088    -5.340
    105    H    7.251    -2.299    -5.482
    106    O    6.058    -0.743    -4.791
    107    C    5.898    -0.809    -3.384
    108    H    6.698    -0.172    -2.939
    109    N    4.585    -0.284    -2.981
    110    C    4.174    0.009    -1.709
    111    N    4.790    0.126    1.697
    112    H    5.720    -0.232    1.773
    113    H    4.314    0.419    2.531
    114    N    4.897    -0.155    -0.591
    115    C    4.242    0.233    0.500
    116    N    2.972    0.746    0.468
    117    H    2.548    1.014    1.342
    118    C    2.201    0.937    -0.672
    119    O    1.062    1.408    -0.608
    120    C    2.889    0.503    -1.839
    121    N    2.492    0.505    -3.172
    122    C    3.535    0.036    -3.813
    123    H    3.602    -0.108    -4.895
    124    C    6.103    -2.253    -2.972
    125    H    5.508    -2.537    -2.080
    126    O    7.476    -2.486    -2.715
    127    H    7.595    -3.442    -2.651
    128    C    5.630    -2.993    -4.217
    129    H    4.518    -2.941    -4.286
    130    O    6.154    -4.334    -4.352
    131    P    5.229    -5.575    -4.055
    132    O    3.881    -5.308    -4.597
    133    O    5.913    -6.801    -4.524
    134    O    5.150    -5.589    -2.479
    135    C    6.335    -5.917    -1.712
    136    H    7.183    -5.240    -1.967
    137    H    6.661    -6.961    -1.924
    138    C    6.083    -5.809    -0.202
    139    H    6.971    -6.133    0.378
    140    O    5.834    -4.419    0.150
    141    C    4.813    -4.361    1.137
    142    H    5.254    -3.798    1.992
    143    N    3.599    -3.640    0.665
    144    C    3.370    -3.478    -0.682
    145    H    4.127    -3.889    -1.348
    146    C    2.298    -2.818    -1.135
    147    H    2.121    -2.657    -2.195
    148    C    2.678    -3.146    1.584
    149    O    2.878    -3.322    2.795
    150    N    1.584    -2.480    1.143
    151    C    1.377    -2.317    -0.176
    152    N    0.295    -1.658    -0.583
    153    H    -0.335    -1.279    0.099
    154    H    0.114    -1.475    -1.551
    155    C    4.518    -5.786    1.584
    156    H    3.452    -5.926    1.862
    157    O    5.356    -6.125    2.678
    158    H    5.296    -7.084    2.832
    159    C    4.864    -6.579    0.327
    160    H    4.047    -6.491    -0.422
    161    O    5.194    -7.962    0.565
    162    H    4.406    -8.443    0.873
    163    H    -6.460    3.070    6.846
    164    O    -5.614    2.588    6.910
    165    C    -5.509    2.120    8.264
    166    H    -6.385    1.476    8.494
    167    H    -5.529    2.991    8.956
    168    C    -4.231    1.318    8.528
    169    H    -4.157    1.024    9.596
    170    O    -4.236    0.092    7.737
    171    C    -2.918    -0.166    7.275
    172    H    -2.646    -1.191    7.615
    173    N    -2.838    -0.107    5.810
    174    C    -1.838    -0.637    5.039
    175    N    1.177    -2.320    4.767
    176    H    1.404    -2.530    5.718
    177    H    1.775    -2.662    4.036
    178    N    -0.752    -1.287    5.494
    179    C    0.046    -1.692    4.508
    180    N    -0.244    -1.497    3.182
    181    H    0.394    -1.868    2.495
    182    C    -1.367    -0.850    2.683
    183    O    -1.550    -0.720    1.468
    184    C    -2.196    -0.371    3.732
    185    N    -3.389    0.338    3.680
    186    C    -3.737    0.473    4.940
    187    H    -4.642    0.971    5.304
    188    C    -2.003    0.835    7.942
    189    H    -1.120    1.091    7.321
    190    O    -1.581    0.331    9.195
    191    H    -1.161    1.065    9.661
    192    C    -2.930    2.027    8.121
    193    H    -3.127    2.520    7.141
    194    O    -2.526    2.959    9.152
    195    P    -1.589    4.163    8.753
    196    O    -2.148    4.813    7.547
    197    O    -1.392    5.019    9.944
    198    O    -0.222    3.495    8.355
    199    C    0.644    2.883    9.337
    200    H    0.137    2.052    9.872
    201    H    0.942    3.626    10.108
    202    C    1.932    2.340    8.695
    203    H    2.614    1.925    9.467
    204    O    1.628    1.260    7.762
    205    C    2.488    1.363    6.628
    206    H    3.016    0.383    6.567
    207    N    1.754    1.598    5.350
    208    C    0.500    2.162    5.372
    209    H    0.098    2.380    6.361
    210    C    -0.187    2.388    4.244
    211    H    -1.194    2.799    4.247
    212    C    2.354    1.305    4.125
    213    O    3.501    0.835    4.106
    214    N    1.676    1.526    2.976
    215    C    0.440    2.050    3.011
    216    N    -0.194    2.250    1.861
    217    H    0.251    1.976    1.003
    218    H    -1.143    2.563    1.817
    219    C    3.496    2.459    6.918
    220    H    3.816    3.008    6.006
    221    O    4.631    1.932    7.574
    222    H    5.184    2.698    7.796
    223    C    2.700    3.366    7.852
    224    H    1.939    3.935    7.274
    225    O    3.485    4.220    8.716
    226    P    4.119    5.519    8.087
    227    O    3.211    6.032    7.031
    228    O    4.483    6.434    9.193
    229    O    5.447    4.976    7.428
    230    C    6.027    5.760    6.354
    231    H    6.370    6.758    6.716
    232    H    5.277    5.955    5.555
    233    C    7.221    5.046    5.701
    234    H    8.018    4.844    6.447
    235    O    6.820    3.760    5.136
    236    C    7.389    3.609    3.840
    237    H    7.888    2.614    3.843
    238    N    6.389    3.636    2.738
    239    C    5.061    4.031    2.739
    240    N    2.328    5.271    4.454
    241    H    1.432    5.663    4.252
    242    H    2.757    5.478    5.342
    243    N    4.364    4.499    3.783
    244    C    3.120    4.816    3.500
    245    N    2.595    4.700    2.238
    246    H    1.649    4.997    2.077
    247    C    3.283    4.207    1.132
    248    O    2.770    4.101    0.016
    249    C    4.621    3.859    1.448
    250    N    5.632    3.364    0.640
    251    C    6.663    3.245    1.444
    252    H    7.647    2.875    1.143
    253    C    8.427    4.696    3.685
    254    H    8.568    5.014    2.629
    255    O    9.663    4.257    4.218
    256    H    10.213    5.040    4.367
    257    C    7.821    5.820    4.517
    258    H    6.966    6.280    3.967
    259    O    8.768    6.794    5.004
    260    P    9.047    8.114    4.198
    261    O    7.821    8.939    4.213
    262    O    10.266    8.738    4.750
    263    O    9.322    7.653    2.723
    264    C    10.600    7.090    2.342
    265    H    10.774    6.116    2.845
    266    H    11.435    7.761    2.634
    267    C    10.698    6.857    0.827
    268    H    11.708    6.471    0.559
    269    O    9.716    5.857    0.409
    270    C    9.170    6.230    -0.852
    271    H    9.331    5.358    -1.525
    272    N    7.707    6.541    -0.769
    273    C    7.102    6.817    0.437
    274    H    7.762    6.807    1.302
    275    C    6.972    6.554    -1.936
    276    O    7.477    6.341    -3.032
    277    N    5.634    6.811    -1.782
    278    H    5.097    6.858    -2.641
    279    C    4.959    7.060    -0.608
    280    O    3.742    7.233    -0.615
    281    C    5.791    7.069    0.557
    282    H    5.332    7.271    1.521
    283    C    9.989    7.408    -1.359
    284    H    9.393    8.092    -1.995
    285    O    11.115    6.949    -2.085
    286    H    11.667    7.722    -2.258
    287    C    10.397    8.078    -0.052
    288    H    9.515    8.585    0.404
    289    O    11.567    8.924    -0.138
    290    P    11.396    10.486    -0.195
    291    O    10.344    10.917    0.746
    292    O    12.724    11.116    -0.036
    293    O    10.882    10.717    -1.661
    294    C    11.793    10.507    -2.766
    295    H    12.215    9.472    -2.761
    296    H    12.650    11.220    -2.710
    297    C    11.066    10.742    -4.093
    298    H    11.762    10.666    -4.954
    299    O    10.042    9.720    -4.276
    300    C    8.898    10.317    -4.876
    301    H    8.680    9.731    -5.801
    302    N    7.730    10.257    -3.988
    303    C    6.424    10.367    -4.377
    304    N    4.057    10.884    -6.854
    305    H    4.619    10.999    -7.670
    306    H    3.060    10.970    -6.933
    307    N    5.991    10.579    -5.635
    308    C    4.662    10.659    -5.703
    309    N    3.847    10.550    -4.606
    310    H    2.852    10.635    -4.744
    311    C    4.268    10.342    -3.296
    312    O    3.463    10.264    -2.362
    313    C    5.684    10.261    -3.214
    314    N    6.513    10.092    -2.107
    315    C    7.722    10.099    -2.619
    316    H    8.648    9.993    -2.052
    317    C    9.262    11.742    -5.257
    318    H    8.391    12.430    -5.189
    319    O    9.805    11.762    -6.568
    320    H    10.180    12.644    -6.734
    321    C    10.309    12.076    -4.202
    322    H    9.818    12.299    -3.228
    323    O    11.208    13.136    -4.577
    324    H    10.735    13.990    -4.603
 $END
