!*** FMO 5.3 (Gamess) INPUT generated by Facio 22.1.1.32 ***
 $CONTRL RUNTYP=ENERGY NPRINT=-5 ISPHER=1 MAXIT=200 $END
 $SYSTEM MWORDS=63 MEMDDI=63 $END
 $GDDI NGROUP=1 $END
 $SCF DIRSCF=.TRUE. NPUNCH=0 $END
!*** NumCPU : 2  MemPerNode : 512MB
 $PCM SOLVNT=WATER IEF=-10 ICOMP=2 ICAV=1 IDISP=1 IFMO=-1 $END
 $PCMCAV RADII=SUAHF $END
 $TESCAV NTSALL=60 $END
 $FMOPRP
    NAODIR=200
    NGRFMO(1)=1, 1, 0, 0, 0,   0, 0, 0, 0, 0
    IPIEDA=1
    NPRINT=9
 $END
 $FMO
      SCFTYP(1)=RHF
      MODGRD=10
      MODMUL=0
      MAXCAO=5
      MAXBND=10
      NLAYER=1
      MPLEVL(1)=2
      NFRAG=8
      ICHARG(1)=-1, -1, -1, -1, -1, -1, -1, 0
      FRGNAM(1)=F1, F2, F3, F4, F5, F6, F7, F8
      indat(1)=0
               1   -35   0
               36   -66   0
               67   -96   0
               97   -126   0
               127   -157   0
               158   -191   0
               192   -225   0
               226   -252   0
 $END

 $FMOBND
   -36   35       6-31G*    MINI
   -67   66       6-31G*    MINI
   -97   96       6-31G*    MINI
   -127   126       6-31G*    MINI
   -158   157       6-31G*    MINI
   -192   191       6-31G*    MINI
   -226   225       6-31G*    MINI
 $END
 $FMOHYB
 6-31G*      15   5
   1 0  -0.065034   0.288264   0.000000   0.000000   0.604412
         0.290129   0.000000   0.000000   0.319045  -0.017106
        -0.017106   0.057934   0.000000   0.000000   0.000000
   0 1  -0.065040   0.288293   0.569832   0.000000  -0.201456
         0.290147   0.300783   0.000000  -0.106342   0.049598
        -0.017106  -0.008771   0.000000  -0.027223   0.000000
   0 1  -0.065039   0.288293  -0.284916  -0.493490  -0.201455
         0.290145  -0.150392  -0.260486  -0.106340  -0.000427
         0.032923  -0.008771   0.033353   0.013612   0.023576
   0 1  -0.065039   0.288293  -0.284916   0.493490  -0.201455
         0.290145  -0.150392   0.260486  -0.106340  -0.000427
         0.032923  -0.008771  -0.033353   0.013612  -0.023576
   0 1   1.010938  -0.011975   0.000000   0.000000   0.000000
        -0.054085   0.000000   0.000000  -0.000000  -0.003174
        -0.003174  -0.003174   0.000000   0.000000   0.000000
 MINI         5   5
   1 0  -0.104883   0.308874   0.000000   0.000000   0.521806
   0 1  -0.104883   0.308874   0.491961   0.000000  -0.173934
   0 1  -0.104883   0.308876  -0.245980  -0.426050  -0.173933
   0 1  -0.104883   0.308876  -0.245980   0.426050  -0.173933
   0 1   0.988209   0.063992   0.000000   0.000000   0.000000
 $END
 
 $DATA
 FMO calculation
 C1 
 H.1-1    1
      N31 6
   
 O.1-1    8
      N31 6
      d 1
      1 0.800 1.0
   
 C.1-1    6
      N31 6
      d 1
      1 0.800 1.0
   
 N.1-1    7
      N31 6
      d 1
      1 0.800 1.0
   
 P.1-1   15
      N31 6
      d 1
      1 0.550 1.0
   
 $END
 $FMOXYZ
    1    H    -3.605    -5.753    -8.058
    2    O    -3.075    -4.942    -7.939
    3    C    -3.271    -4.133    -9.109
    4    H    -4.356    -3.909    -9.220
    5    H    -2.945    -4.703    -10.008
    6    C    -2.499    -2.811    -9.054
    7    H    -2.649    -2.224    -9.986
    8    O    -2.985    -1.998    -7.942
    9    C    -1.892    -1.320    -7.347
    10    H    -2.137    -0.233    -7.373
    11    N    -1.700    -1.733    -5.952
    12    C    -1.130    -1.790    -3.828
    13    N    -1.888    -2.931    -4.056
    14    C    -2.209    -2.849    -5.327
    15    H    -2.817    -3.576    -5.874
    16    N    0.191    -0.123    -2.787
    17    C    0.261    0.461    -3.988
    18    H    0.847    1.386    -4.023
    19    N    -0.317    0.099    -5.140
    20    C    -0.998    -1.049    -4.990
    21    C    -0.514    -1.277    -2.666
    22    N    -0.600    -1.864    -1.456
    23    H    -1.108    -2.718    -1.311
    24    H    -0.104    -1.480    -0.674
    25    C    -0.673    -1.582    -8.206
    26    H    0.266    -1.605    -7.616
    27    O    -0.588    -0.594    -9.214
    28    H    0.161    -0.835    -9.772
    29    C    -0.992    -2.950    -8.801
    30    H    -0.870    -3.741    -8.025
    31    O    -0.310    -3.262    -10.043
    32    P    1.075    -4.013    -9.968
    33    O    0.918    -5.196    -9.098
    34    O    1.552    -4.262    -11.346
    35    O    2.041    -2.977    -9.277
    36    C    2.464    -1.798    -10.005
    37    H    1.596    -1.239    -10.424
    38    H    3.119    -2.085    -10.862
    39    C    3.251    -0.834    -9.106
    40    H    3.475    0.114    -9.640
    41    O    2.471    -0.492    -7.926
    42    C    3.342    -0.357    -6.813
    43    H    3.201    0.687    -6.450
    44    N    3.025    -1.299    -5.701
    45    C    2.350    -2.469    -5.961
    46    H    2.078    -2.639    -7.003
    47    C    2.023    -3.320    -4.981
    48    H    1.458    -4.232    -5.163
    49    C    3.440    -1.018    -4.399
    50    O    4.078    0.022    -4.173
    51    N    3.128    -1.874    -3.399
    52    C    2.424    -2.988    -3.655
    53    N    2.096    -3.792    -2.646
    54    H    2.364    -3.539    -1.712
    55    H    1.561    -4.624    -2.784
    56    C    4.758    -0.514    -7.327
    57    H    5.400    -1.020    -6.587
    58    O    5.309    0.745    -7.673
    59    H    6.173    0.564    -8.077
    60    C    4.564    -1.396    -8.556
    61    H    4.365    -2.450    -8.256
    62    O    5.604    -1.286    -9.555
    63    P    6.939    -2.093    -9.347
    64    O    6.583    -3.445    -8.866
    65    O    7.730    -2.037    -10.599
    66    O    7.725    -1.320    -8.220
    67    C    8.730    -2.010    -7.424
    68    H    9.751    -1.778    -7.807
    69    H    8.622    -3.120    -7.472
    70    C    8.663    -1.631    -5.930
    71    H    9.043    -0.602    -5.759
    72    O    7.281    -1.662    -5.479
    73    C    7.170    -2.303    -4.231
    74    H    6.598    -1.588    -3.594
    75    N    6.424    -3.592    -4.327
    76    C    6.304    -4.266    -5.527
    77    H    6.782    -3.796    -6.391
    78    C    5.788    -4.062    -3.197
    79    O    5.820    -3.468    -2.125
    80    N    5.106    -5.237    -3.354
    81    H    4.677    -5.606    -2.517
    82    C    4.947    -5.963    -4.513
    83    O    4.284    -7.000    -4.508
    84    C    5.603    -5.401    -5.654
    85    H    5.514    -5.914    -6.609
    86    C    8.586    -2.447    -3.697
    87    H    8.706    -3.342    -3.052
    88    O    8.978    -1.275    -2.987
    89    H    8.204    -0.734    -2.773
    90    C    9.383    -2.611    -4.990
    91    H    9.212    -3.631    -5.410
    92    O    10.789    -2.274    -4.894
    93    P    11.771    -3.401    -4.388
    94    O    11.021    -4.444    -3.655
    95    O    12.558    -3.855    -5.553
    96    O    12.743    -2.672    -3.390
    97    C    12.369    -2.367    -2.030
    98    H    12.241    -3.305    -1.441
    99    H    11.401    -1.817    -2.008
    100    C    13.458    -1.515    -1.342
    101    H    14.351    -2.139    -1.131
    102    O    13.854    -0.390    -2.184
    103    C    13.253    0.802    -1.708
    104    H    14.096    1.389    -1.275
    105    N    12.582    1.537    -2.800
    106    C    11.866    0.856    -3.759
    107    H    11.821    -0.230    -3.631
    108    C    12.709    2.907    -2.845
    109    O    13.348    3.542    -2.010
    110    N    12.082    3.510    -3.903
    111    H    12.186    4.511    -3.951
    112    C    11.393    2.897    -4.928
    113    O    10.923    3.570    -5.845
    114    C    11.294    1.471    -4.805
    115    H    10.770    0.914    -5.578
    116    C    12.306    0.425    -0.584
    117    H    11.296    0.196    -0.986
    118    O    12.226    1.426    0.412
    119    H    13.088    1.456    0.858
    120    C    12.965    -0.842    -0.049
    121    H    12.175    -1.491    0.398
    122    O    14.059    -0.584    0.867
    123    P    14.187    -1.433    2.182
    124    O    13.984    -2.867    1.874
    125    O    15.443    -1.052    2.860
    126    O    12.971    -0.939    3.037
    127    C    13.082    -0.913    4.476
    128    H    13.058    0.150    4.813
    129    H    14.031    -1.348    4.874
    130    C    11.922    -1.648    5.153
    131    H    12.066    -1.495    6.232
    132    O    10.661    -1.049    4.757
    133    C    9.671    -2.048    4.541
    134    H    8.808    -1.722    5.166
    135    N    9.191    -2.132    3.148
    136    C    9.814    -1.402    2.165
    137    H    10.675    -0.804    2.470
    138    C    9.374    -1.430    0.905
    139    H    9.839    -0.851    0.112
    140    C    8.081    -2.925    2.837
    141    O    7.516    -3.567    3.736
    142    N    7.635    -2.971    1.564
    143    C    8.243    -2.239    0.622
    144    N    7.783    -2.283    -0.609
    145    H    6.988    -2.857    -0.814
    146    H    8.348    -1.959    -1.368
    147    C    10.203    -3.366    5.037
    148    H    9.919    -4.227    4.396
    149    O    9.670    -3.562    6.329
    150    H    10.267    -3.135    6.964
    151    C    11.737    -3.158    4.950
    152    H    12.042    -3.342    3.895
    153    O    12.606    -3.908    5.821
    154    P    12.433    -4.422    7.291
    155    O    11.512    -5.580    7.290
    156    O    13.763    -4.641    7.896
    157    O    11.756    -3.190    8.025
    158    C    11.199    -3.320    9.352
    159    H    12.002    -3.645    10.063
    160    H    10.408    -4.104    9.363
    161    C    10.569    -2.006    9.896
    162    H    10.173    -2.183    10.921
    163    O    11.576    -0.961    9.973
    164    C    11.334    0.023    8.974
    165    H    10.954    0.926    9.506
    166    N    12.573    0.344    8.244
    167    C    12.927    1.571    7.752
    168    N    12.231    4.929    7.267
    169    H    12.659    5.725    6.839
    170    H    11.314    5.016    7.655
    171    N    12.200    2.698    7.846
    172    C    12.806    3.741    7.279
    173    N    14.048    3.669    6.706
    174    H    14.447    4.508    6.328
    175    C    14.832    2.525    6.618
    176    O    15.950    2.546    6.093
    177    C    14.181    1.399    7.193
    178    N    14.611    0.081    7.328
    179    C    13.621    -0.508    7.958
    180    H    13.597    -1.559    8.258
    181    C    10.231    -0.498    8.074
    182    H    10.616    -1.157    7.295
    183    O    9.473    0.533    7.469
    184    H    8.651    0.117    7.147
    185    C    9.438    -1.398    9.021
    186    H    8.985    -2.245    8.460
    187    O    8.450    -0.703    9.798
    188    P    6.950    -0.569    9.331
    189    O    6.278    -1.842    9.656
    190    O    6.384    0.654    9.937
    191    O    6.968    -0.420    7.752
    192    C    5.951    0.381    7.091
    193    H    5.587    1.230    7.716
    194    H    5.069    -0.262    6.870
    195    C    6.444    0.974    5.761
    196    H    7.327    1.630    5.924
    197    O    6.836    -0.090    4.854
    198    C    6.501    0.277    3.521
    199    H    7.449    0.258    2.936
    200    N    5.554    -0.677    2.925
    201    C    5.155    -0.725    1.616
    202    N    5.245    0.510    -1.624
    203    H    5.857    1.297    -1.557
    204    H    4.793    0.311    -2.499
    205    N    5.550    0.113    0.635
    206    C    5.003    -0.203    -0.540
    207    N    4.142    -1.251    -0.715
    208    H    3.809    -1.444    -1.647
    209    C    3.733    -2.137    0.270
    210    O    2.963    -3.070    0.019
    211    C    4.288    -1.801    1.532
    212    N    4.133    -2.411    2.770
    213    C    4.910    -1.714    3.565
    214    H    5.063    -1.909    4.629
    215    C    5.947    1.686    3.556
    216    H    5.155    1.850    2.798
    217    O    6.981    2.629    3.355
    218    H    6.574    3.497    3.448
    219    C    5.387    1.760    4.970
    220    H    4.454    1.152    5.033
    221    O    5.245    3.103    5.501
    222    P    3.808    3.761    5.478
    223    O    2.799    2.731    5.802
    224    O    3.805    4.977    6.319
    225    O    3.641    4.188    3.974
    226    C    4.495    5.209    3.405
    227    H    5.572    4.939    3.501
    228    H    4.348    6.183    3.931
    229    C    4.195    5.419    1.913
    230    H    4.800    6.258    1.502
    231    O    4.545    4.215    1.168
    232    C    3.582    3.995    0.142
    233    H    4.160    3.944    -0.812
    234    N    2.827    2.725    0.350
    235    C    2.768    2.132    1.590
    236    H    3.324    2.638    2.374
    237    C    2.183    2.160    -0.727
    238    O    2.195    2.665    -1.844
    239    N    1.520    0.990    -0.459
    240    H    1.068    0.560    -1.258
    241    C    1.458    0.319    0.745
    242    O    0.862    -0.753    0.826
    243    C    2.135    0.975    1.820
    244    H    2.142    0.506    2.801
    245    C    2.669    5.213    0.111
    246    H    1.629    4.947    -0.187
    247    O    3.194    6.183    -0.784
    248    H    2.687    7.010    -0.695
    249    C    2.721    5.668    1.565
    250    H    2.103    4.997    2.199
    251    O    2.357    7.047    1.769
    252    H    1.405    7.163    1.597
 $END
