!*** FMO 5.3 (Gamess) INPUT generated by Facio 22.1.1.32 ***
 $CONTRL RUNTYP=ENERGY NPRINT=-5 ISPHER=1 MAXIT=200 $END
 $SYSTEM MWORDS=63 MEMDDI=63 $END
 $GDDI NGROUP=1 $END
 $SCF DIRSCF=.TRUE. NPUNCH=0 $END
!*** NumCPU : 2  MemPerNode : 512MB
 $PCM SOLVNT=WATER IEF=-10 ICOMP=2 ICAV=1 IDISP=1 IFMO=-1 $END
 $PCMCAV RADII=SUAHF $END
 $TESCAV NTSALL=60 $END
 $FMOPRP
    NAODIR=200
    NGRFMO(1)=1, 1, 0, 0, 0,   0, 0, 0, 0, 0
    IPIEDA=1
    NPRINT=9
 $END
 $FMO
      SCFTYP(1)=RHF
      MODGRD=10
      MODMUL=0
      MAXCAO=5
      MAXBND=10
      NLAYER=1
      MPLEVL(1)=2
      NFRAG=8
      ICHARG(1)=-1, -1, -1, -1, -1, -1, -1, 0
      FRGNAM(1)=F1, F2, F3, F4, F5, F6, F7, F8
      indat(1)=0
               1   -35   0
               36   -66   0
               67   -96   0
               97   -126   0
               127   -157   0
               158   -191   0
               192   -225   0
               226   -252   0
 $END

 $FMOBND
   -36   35       6-31G*    MINI
   -67   66       6-31G*    MINI
   -97   96       6-31G*    MINI
   -127   126       6-31G*    MINI
   -158   157       6-31G*    MINI
   -192   191       6-31G*    MINI
   -226   225       6-31G*    MINI
 $END
 $FMOHYB
 6-31G*      15   5
   1 0  -0.065034   0.288264   0.000000   0.000000   0.604412
         0.290129   0.000000   0.000000   0.319045  -0.017106
        -0.017106   0.057934   0.000000   0.000000   0.000000
   0 1  -0.065040   0.288293   0.569832   0.000000  -0.201456
         0.290147   0.300783   0.000000  -0.106342   0.049598
        -0.017106  -0.008771   0.000000  -0.027223   0.000000
   0 1  -0.065039   0.288293  -0.284916  -0.493490  -0.201455
         0.290145  -0.150392  -0.260486  -0.106340  -0.000427
         0.032923  -0.008771   0.033353   0.013612   0.023576
   0 1  -0.065039   0.288293  -0.284916   0.493490  -0.201455
         0.290145  -0.150392   0.260486  -0.106340  -0.000427
         0.032923  -0.008771  -0.033353   0.013612  -0.023576
   0 1   1.010938  -0.011975   0.000000   0.000000   0.000000
        -0.054085   0.000000   0.000000  -0.000000  -0.003174
        -0.003174  -0.003174   0.000000   0.000000   0.000000
 MINI         5   5
   1 0  -0.104883   0.308874   0.000000   0.000000   0.521806
   0 1  -0.104883   0.308874   0.491961   0.000000  -0.173934
   0 1  -0.104883   0.308876  -0.245980  -0.426050  -0.173933
   0 1  -0.104883   0.308876  -0.245980   0.426050  -0.173933
   0 1   0.988209   0.063992   0.000000   0.000000   0.000000
 $END
 
 $DATA
 FMO calculation
 C1 
 H.1-1    1
      N31 6
   
 O.1-1    8
      N31 6
      d 1
      1 0.800 1.0
   
 C.1-1    6
      N31 6
      d 1
      1 0.800 1.0
   
 N.1-1    7
      N31 6
      d 1
      1 0.800 1.0
   
 P.1-1   15
      N31 6
      d 1
      1 0.550 1.0
   
 $END
 $FMOXYZ
    1    H    -0.906    -7.611    -7.544
    2    O    -0.740    -6.659    -7.416
    3    C    -1.059    -6.007    -8.653
    4    H    -2.121    -6.211    -8.904
    5    H    -0.435    -6.436    -9.468
    6    C    -0.847    -4.493    -8.614
    7    H    -1.043    -4.038    -9.608
    8    O    -1.776    -3.880    -7.674
    9    C    -1.125    -2.814    -7.005
    10    H    -1.740    -1.901    -7.185
    11    N    -1.048    -3.074    -5.564
    12    C    -0.872    -2.835    -3.385
    13    N    -1.116    -4.184    -3.606
    14    C    -1.214    -4.276    -4.912
    15    H    -1.410    -5.195    -5.469
    16    N    -0.415    -0.762    -2.340
    17    C    -0.379    -0.237    -3.570
    18    H    -0.172    0.838    -3.623
    19    N    -0.580    -0.835    -4.749
    20    C    -0.824    -2.144    -4.583
    21    C    -0.674    -2.087    -2.206
    22    N    -0.720    -2.620    -0.970
    23    H    -0.954    -3.586    -0.810
    24    H    -0.502    -2.061    -0.167
    25    C    0.241    -2.634    -7.641
    26    H    1.010    -2.286    -6.920
    27    O    0.155    -1.724    -8.720
    28    H    1.013    -1.733    -9.159
    29    C    0.536    -4.046    -8.129
    30    H    0.798    -4.698    -7.263
    31    O    1.481    -4.132    -9.216
    32    P    2.962    -4.591    -8.941
    33    O    2.958    -5.740    -8.012
    34    O    3.625    -4.791    -10.248
    35    O    3.589    -3.350    -8.204
    36    C    3.686    -2.088    -8.909
    37    H    2.716    -1.781    -9.359
    38    H    4.427    -2.163    -9.738
    39    C    4.146    -0.972    -7.972
    40    H    4.321    -0.032    -8.540
    41    O    3.114    -0.694    -6.989
    42    C    3.736    -0.276    -5.784
    43    H    3.371    0.762    -5.605
    44    N    3.390    -1.135    -4.623
    45    C    2.935    -2.421    -4.800
    46    H    2.830    -2.753    -5.837
    47    C    2.633    -3.198    -3.749
    48    H    2.258    -4.213    -3.863
    49    C    3.549    -0.627    -3.341
    50    O    3.934    0.541    -3.209
    51    N    3.296    -1.412    -2.268
    52    C    2.842    -2.663    -2.443
    53    N    2.615    -3.421    -1.370
    54    H    2.780    -3.077    -0.446
    55    H    2.327    -4.379    -1.464
    56    C    5.239    -0.235    -6.029
    57    H    5.825    -0.521    -5.128
    58    O    5.634    1.052    -6.466
    59    H    6.557    0.988    -6.743
    60    C    5.394    -1.270    -7.137
    61    H    5.271    -2.300    -6.727
    62    O    6.572    -1.119    -7.959
    63    P    7.843    -1.994    -7.653
    64    O    7.482    -3.429    -7.657
    65    O    8.936    -1.581    -8.559
    66    O    8.203    -1.575    -6.192
    67    C    8.787    -0.286    -5.915
    68    H    8.098    0.544    -6.180
    69    H    9.729    -0.143    -6.498
    70    C    9.129    -0.171    -4.438
    71    H    9.703    0.762    -4.237
    72    O    7.911    -0.123    -3.631
    73    C    8.163    -0.772    -2.395
    74    H    7.981    -0.012    -1.599
    75    N    7.287    -1.970    -2.201
    76    C    6.865    -2.710    -3.282
    77    H    7.169    -2.325    -4.256
    78    C    6.965    -2.364    -0.919
    79    O    7.352    -1.764    0.076
    80    N    6.175    -3.484    -0.827
    81    H    5.976    -3.824    0.106
    82    C    5.768    -4.297    -1.863
    83    O    5.136    -5.326    -1.635
    84    C    6.132    -3.825    -3.163
    85    H    5.827    -4.408    -4.029
    86    C    9.639    -1.143    -2.404
    87    H    9.827    -2.049    -1.811
    88    O    10.425    -0.074    -1.936
    89    H    11.339    -0.374    -1.931
    90    C    9.905    -1.361    -3.880
    91    H    9.408    -2.290    -4.236
    92    O    11.289    -1.286    -4.292
    93    P    12.199    -2.561    -4.162
    94    O    11.420    -3.680    -3.594
    95    O    12.863    -2.797    -5.461
    96    O    13.246    -2.054    -3.116
    97    C    14.266    -2.918    -2.580
    98    H    14.943    -3.258    -3.400
    99    H    13.821    -3.823    -2.105
    100    C    15.141    -2.198    -1.535
    101    H    15.973    -2.875    -1.236
    102    O    15.723    -0.972    -2.069
    103    C    15.176    0.145    -1.383
    104    H    15.946    0.426    -0.627
    105    N    14.882    1.254    -2.323
    106    C    14.286    1.002    -3.536
    107    H    14.118    -0.050    -3.765
    108    C    15.229    2.533    -1.957
    109    O    15.780    2.793    -0.891
    110    N    14.932    3.499    -2.884
    111    H    15.213    4.437    -2.639
    112    C    14.370    3.321    -4.130
    113    O    14.214    4.285    -4.882
    114    C    14.022    1.965    -4.431
    115    H    13.591    1.740    -5.404
    116    C    13.944    -0.339    -0.646
    117    H    13.074    -0.376    -1.334
    118    O    13.632    0.457    0.485
    119    H    12.823    0.120    0.899
    120    C    14.376    -1.752    -0.274
    121    H    13.473    -2.394    -0.157
    122    O    15.222    -1.776    0.890
    123    P    15.276    -3.026    1.821
    124    O    15.519    -4.222    0.988
    125    O    16.241    -2.753    2.908
    126    O    13.829    -3.122    2.417
    127    C    13.406    -2.253    3.490
    128    H    13.223    -1.226    3.093
    129    H    14.175    -2.181    4.293
    130    C    12.104    -2.747    4.140
    131    H    11.795    -2.042    4.944
    132    O    11.050    -2.785    3.156
    133    C    10.591    -4.114    2.992
    134    H    9.693    -4.193    3.645
    135    N    10.241    -4.404    1.592
    136    C    10.916    -3.740    0.606
    137    H    11.646    -2.995    0.939
    138    C    10.651    -3.971    -0.677
    139    H    11.172    -3.425    -1.451
    140    C    9.318    -5.393    1.269
    141    O    8.790    -6.043    2.183
    142    N    8.999    -5.608    -0.034
    143    C    9.632    -4.915    -0.999
    144    N    9.293    -5.097    -2.274
    145    H    9.882    -4.695    -2.985
    146    H    8.675    -5.844    -2.513
    147    C    11.674    -5.012    3.529
    148    H    12.495    -5.132    2.789
    149    O    11.194    -6.275    3.943
    150    H    10.600    -6.097    4.686
    151    C    12.128    -4.176    4.715
    152    H    13.184    -4.444    4.961
    153    O    11.215    -4.292    5.829
    154    P    11.700    -4.514    7.291
    155    O    10.929    -5.642    7.855
    156    O    13.173    -4.654    7.307
    157    O    11.315    -3.220    8.103
    158    C    10.054    -2.533    7.930
    159    H    9.336    -2.855    8.716
    160    H    9.578    -2.746    6.944
    161    C    10.245    -1.018    8.018
    162    H    10.660    -0.733    9.007
    163    O    11.209    -0.593    7.024
    164    C    10.924    0.726    6.624
    165    H    11.767    1.333    7.024
    166    N    10.909    0.842    5.165
    167    C    10.125    0.215    4.217
    168    N    7.664    -2.051    3.297
    169    H    7.307    -2.451    2.461
    170    H    7.320    -2.369    4.180
    171    N    9.109    -0.651    4.435
    172    C    8.629    -1.149    3.298
    173    N    9.111    -0.817    2.058
    174    H    8.686    -1.239    1.251
    175    C    10.182    0.030    1.825
    176    O    10.636    0.262    0.707
    177    C    10.658    0.619    3.009
    178    N    11.679    1.539    3.183
    179    C    11.789    1.644    4.480
    180    H    12.488    2.304    4.999
    181    C    9.640    1.168    7.288
    182    H    8.980    1.692    6.577
    183    O    9.929    2.024    8.377
    184    H    9.138    2.042    8.938
    185    C    9.009    -0.149    7.750
    186    H    8.456    -0.619    6.904
    187    O    8.212    -0.019    8.945
    188    P    6.660    -0.242    8.978
    189    O    6.360    -1.658    8.668
    190    O    6.159    0.272    10.273
    191    O    6.060    0.653    7.830
    192    C    6.323    2.076    7.785
    193    H    7.309    2.341    8.231
    194    H    5.558    2.626    8.379
    195    C    6.330    2.629    6.349
    196    H    6.895    3.586    6.321
    197    O    6.987    1.717    5.418
    198    C    6.357    1.797    4.160
    199    H    7.149    2.009    3.407
    200    N    5.648    0.560    3.823
    201    C    5.266    0.193    2.566
    202    N    5.186    0.819    -0.817
    203    H    4.720    0.477    -1.638
    204    H    5.712    1.663    -0.889
    205    N    5.506    0.887    1.445
    206    C    5.010    0.293    0.371
    207    N    4.297    -0.877    0.416
    208    H    3.933    -1.226    -0.455
    209    C    4.034    -1.620    1.560
    210    O    3.395    -2.674    1.503
    211    C    4.581    -0.997    2.715
    212    N    4.536    -1.374    4.051
    213    C    5.188    -0.417    4.675
    214    H    5.390    -0.368    5.748
    215    C    5.383    2.936    4.238
    216    H    4.507    2.787    3.571
    217    O    6.011    4.165    3.923
    218    H    5.316    4.841    3.978
    219    C    4.970    2.884    5.709
    220    H    4.346    1.990    5.939
    221    O    4.386    4.091    6.241
    222    P    2.961    4.527    5.734
    223    O    2.034    3.378    5.859
    224    O    2.580    5.777    6.425
    225    O    3.196    4.856    4.214
    226    C    2.087    4.952    3.309
    227    H    1.402    5.776    3.621
    228    H    1.501    4.003    3.298
    229    C    2.572    5.262    1.887
    230    H    3.131    6.223    1.840
    231    O    3.453    4.208    1.378
    232    C    2.880    3.639    0.208
    233    H    3.716    3.453    -0.505
    234    N    2.187    2.344    0.506
    235    C    2.209    1.819    1.786
    236    H    2.746    2.402    2.536
    237    C    1.614    1.631    -0.529
    238    O    1.610    2.024    -1.690
    239    N    1.050    0.438    -0.163
    240    H    0.602    -0.065    -0.922
    241    C    0.983    -0.115    1.097
    242    O    0.408    -1.186    1.274
    243    C    1.635    0.655    2.111
    244    H    1.657    0.272    3.128
    245    C    1.969    4.719    -0.360
    246    H    1.169    4.311    -1.011
    247    O    2.728    5.685    -1.078
    248    H    3.367    6.086    -0.465
    249    C    1.379    5.282    0.926
    250    H    0.609    4.580    1.320
    251    O    0.851    6.614    0.837
    252    H    0.137    6.640    0.175
 $END
