!*** FMO 5.3 (Gamess) INPUT generated by Facio 22.1.1.32 ***
 $CONTRL RUNTYP=ENERGY NPRINT=-5 ISPHER=1 MAXIT=200 $END
 $SYSTEM MWORDS=63 MEMDDI=63 $END
 $GDDI NGROUP=1 $END
 $SCF DIRSCF=.TRUE. NPUNCH=0 $END
!*** NumCPU : 2  MemPerNode : 512MB
 $PCM SOLVNT=WATER IEF=-10 ICOMP=2 ICAV=1 IDISP=1 IFMO=-1 $END
 $PCMCAV RADII=SUAHF $END
 $TESCAV NTSALL=60 $END
 $FMOPRP
    NAODIR=200
    NGRFMO(1)=1, 1, 0, 0, 0,   0, 0, 0, 0, 0
    IPIEDA=1
    NPRINT=9
 $END
 $FMO
      SCFTYP(1)=RHF
      MODGRD=10
      MODMUL=0
      MAXCAO=5
      MAXBND=12
      NLAYER=1
      MPLEVL(1)=2
      NFRAG=10
      ICHARG(1)=-1, -1, -1, -1, -1, -1, -1, -1, -1, 0
      FRGNAM(1)=F1, F2, F3, F4, F5, F6, F7, F8, F9, F10
      indat(1)=0
               1   -33   0
               34   -67   0
               68   -97   0
               98   -127   0
               128   -160   0
               161   -193   0
               194   -227   0
               228   -257   0
               258   -288   0
               289   -319   0
 $END

 $FMOBND
   -34   33       6-31G*    MINI
   -68   67       6-31G*    MINI
   -98   97       6-31G*    MINI
   -128   127       6-31G*    MINI
   -161   160       6-31G*    MINI
   -194   193       6-31G*    MINI
   -228   227       6-31G*    MINI
   -258   257       6-31G*    MINI
   -289   288       6-31G*    MINI
 $END
 $FMOHYB
 6-31G*      15   5
   1 0  -0.065034   0.288264   0.000000   0.000000   0.604412
         0.290129   0.000000   0.000000   0.319045  -0.017106
        -0.017106   0.057934   0.000000   0.000000   0.000000
   0 1  -0.065040   0.288293   0.569832   0.000000  -0.201456
         0.290147   0.300783   0.000000  -0.106342   0.049598
        -0.017106  -0.008771   0.000000  -0.027223   0.000000
   0 1  -0.065039   0.288293  -0.284916  -0.493490  -0.201455
         0.290145  -0.150392  -0.260486  -0.106340  -0.000427
         0.032923  -0.008771   0.033353   0.013612   0.023576
   0 1  -0.065039   0.288293  -0.284916   0.493490  -0.201455
         0.290145  -0.150392   0.260486  -0.106340  -0.000427
         0.032923  -0.008771  -0.033353   0.013612  -0.023576
   0 1   1.010938  -0.011975   0.000000   0.000000   0.000000
        -0.054085   0.000000   0.000000  -0.000000  -0.003174
        -0.003174  -0.003174   0.000000   0.000000   0.000000
 MINI         5   5
   1 0  -0.104883   0.308874   0.000000   0.000000   0.521806
   0 1  -0.104883   0.308874   0.491961   0.000000  -0.173934
   0 1  -0.104883   0.308876  -0.245980  -0.426050  -0.173933
   0 1  -0.104883   0.308876  -0.245980   0.426050  -0.173933
   0 1   0.988209   0.063992   0.000000   0.000000   0.000000
 $END
 
 $DATA
 FMO calculation
 C1 
 H.1-1    1
      N31 6
   
 O.1-1    8
      N31 6
      d 1
      1 0.800 1.0
   
 C.1-1    6
      N31 6
      d 1
      1 0.800 1.0
   
 N.1-1    7
      N31 6
      d 1
      1 0.800 1.0
   
 P.1-1   15
      N31 6
      d 1
      1 0.550 1.0
   
 $END
 $FMOXYZ
    1    H    14.694    22.461    5.990
    2    O    14.506    22.143    6.893
    3    C    13.084    21.996    7.005
    4    H    12.727    21.297    6.215
    5    H    12.610    22.986    6.833
    6    C    12.636    21.474    8.375
    7    H    11.530    21.448    8.447
    8    O    13.111    20.107    8.559
    9    C    13.523    19.936    9.909
    10    H    12.947    19.058    10.288
    11    N    14.977    19.643    10.040
    12    C    15.840    19.946    9.012
    13    H    15.397    20.396    8.124
    14    C    17.148    19.673    9.095
    15    H    17.837    19.880    8.280
    16    C    15.474    19.080    11.213
    17    O    14.694    18.846    12.148
    18    N    16.789    18.780    11.308
    19    C    17.622    19.062    10.290
    20    N    18.910    18.746    10.401
    21    H    19.253    18.358    11.259
    22    H    19.560    18.924    9.664
    23    C    13.100    21.172    10.672
    24    H    13.773    21.399    11.520
    25    O    11.776    21.016    11.142
    26    H    11.558    21.826    11.620
    27    C    13.189    22.242    9.589
    28    H    14.258    22.478    9.369
    29    O    12.387    23.421    9.824
    30    P    13.026    24.674    10.533
    31    O    14.359    24.936    9.948
    32    O    12.044    25.781    10.488
    33    O    13.214    24.197    12.022
    34    C    12.058    23.944    12.856
    35    H    11.342    23.253    12.361
    36    H    11.516    24.893    13.060
    37    C    12.463    23.308    14.194
    38    H    11.574    23.083    14.820
    39    O    13.131    22.039    13.949
    40    C    14.182    21.872    14.891
    41    H    13.981    20.914    15.423
    42    N    15.490    21.779    14.235
    43    C    16.634    21.277    14.792
    44    N    18.342    19.984    17.515
    45    H    17.654    19.983    18.242
    46    H    19.272    19.673    17.730
    47    N    16.758    20.806    16.046
    48    C    18.006    20.424    16.316
    49    N    19.014    20.444    15.388
    50    H    19.929    20.130    15.677
    51    C    18.904    20.889    14.075
    52    O    19.867    20.877    13.301
    53    C    17.592    21.356    13.800
    54    N    17.066    21.927    12.649
    55    C    15.816    22.169    12.956
    56    H    15.081    22.637    12.301
    57    C    14.110    23.017    15.875
    58    H    15.111    23.342    16.227
    59    O    13.298    22.657    16.977
    60    H    13.083    23.477    17.443
    61    C    13.462    24.112    15.040
    62    H    14.202    24.541    14.326
    63    O    12.772    25.119    15.819
    64    P    13.555    26.426    16.232
    65    O    13.956    27.121    14.993
    66    O    12.697    27.194    17.162
    67    O    14.852    25.903    16.954
    68    C    14.845    25.486    18.336
    69    H    14.161    24.621    18.487
    70    H    14.503    26.319    18.990
    71    C    16.246    25.062    18.809
    72    H    16.214    24.701    19.857
    73    O    16.750    23.960    18.001
    74    C    18.156    24.085    17.844
    75    H    18.587    23.157    18.289
    76    N    18.546    24.192    16.410
    77    C    17.689    24.747    15.489
    78    H    16.729    25.074    15.890
    79    C    19.780    23.718    16.025
    80    O    20.569    23.206    16.815
    81    N    20.066    23.848    14.691
    82    H    20.966    23.509    14.381
    83    C    19.250    24.361    13.709
    84    O    19.629    24.378    12.539
    85    C    17.982    24.836    14.184
    86    H    17.277    25.244    13.464
    87    C    18.602    25.289    18.667
    88    H    19.428    25.853    18.180
    89    O    18.989    24.875    19.967
    90    H    19.044    25.668    20.523
    91    C    17.335    26.136    18.712
    92    H    17.185    26.642    17.730
    93    O    17.268    27.035    19.843
    94    P    17.225    28.592    19.623
    95    O    16.012    28.943    18.859
    96    O    17.380    29.245    20.939
    97    O    18.477    28.909    18.730
    98    C    19.600    29.705    19.178
    99    H    20.505    29.062    19.300
    100    H    19.411    30.201    20.163
    101    C    19.913    30.802    18.153
    102    H    18.978    31.278    17.785
    103    O    20.693    31.845    18.810
    104    C    21.635    32.392    17.887
    105    H    21.406    33.481    17.830
    106    N    23.049    32.206    18.332
    107    C    23.352    31.462    19.452
    108    H    22.506    30.974    19.938
    109    C    24.042    32.878    17.649
    110    O    23.810    33.601    16.687
    111    N    25.312    32.695    18.135
    112    H    26.037    33.217    17.669
    113    C    25.679    31.996    19.266
    114    O    26.858    31.953    19.611
    115    C    24.596    31.343    19.935
    116    H    24.810    30.751    20.821
    117    C    21.359    31.753    16.538
    118    H    22.281    31.609    15.940
    119    O    20.432    32.538    15.804
    120    H    20.114    32.002    15.061
    121    C    20.773    30.411    16.945
    122    H    21.570    29.742    17.345
    123    O    19.977    29.807    15.907
    124    P    20.489    28.528    15.151
    125    O    20.553    27.399    16.096
    126    O    19.649    28.364    13.950
    127    O    21.961    28.905    14.722
    128    C    22.226    29.811    13.626
    129    H    21.715    30.792    13.779
    130    H    21.872    29.369    12.663
    131    C    23.735    30.078    13.474
    132    H    23.931    30.752    12.612
    133    O    24.242    30.747    14.667
    134    C    25.514    30.218    15.007
    135    H    26.210    31.088    15.058
    136    N    25.481    29.559    16.310
    137    C    26.026    28.742    18.274
    138    N    24.657    28.566    18.150
    139    C    24.386    29.076    16.975
    140    H    23.395    29.107    16.522
    141    N    28.229    28.793    19.133
    142    C    28.584    29.360    17.976
    143    H    29.647    29.600    17.876
    144    N    27.823    29.674    16.919
    145    C    26.544    29.348    17.144
    146    C    26.926    28.472    19.325
    147    N    26.546    27.937    20.499
    148    H    25.623    27.571    20.640
    149    H    27.246    27.670    21.161
    150    C    25.950    29.295    13.891
    151    H    26.555    28.434    14.249
    152    O    26.684    30.026    12.926
    153    H    26.743    29.473    12.134
    154    C    24.616    28.826    13.332
    155    H    24.176    28.049    14.001
    156    O    24.679    28.420    11.951
    157    P    24.708    26.902    11.563
    158    O    23.596    26.219    12.250
    159    O    24.731    26.823    10.081
    160    O    26.074    26.371    12.135
    161    C    27.338    26.702    11.526
    162    H    27.454    27.806    11.414
    163    H    27.409    26.238    10.515
    164    C    28.516    26.197    12.366
    165    H    29.485    26.448    11.879
    166    O    28.497    26.856    13.666
    167    C    28.912    25.933    14.654
    168    H    29.768    26.400    15.186
    169    N    27.840    25.684    15.615
    170    C    26.729    25.319    17.470
    171    N    25.775    25.465    16.469
    172    C    26.482    25.680    15.390
    173    H    26.073    25.830    14.390
    174    N    27.771    24.972    19.568
    175    C    28.930    25.088    18.914
    176    H    29.826    24.987    19.537
    177    N    29.166    25.379    17.629
    178    C    28.007    25.450    16.954
    179    C    26.621    25.089    18.857
    180    N    25.444    24.973    19.496
    181    H    24.567    25.029    19.017
    182    H    25.433    24.747    20.471
    183    C    29.380    24.681    13.946
    184    H    29.217    23.755    14.540
    185    O    30.748    24.830    13.612
    186    H    31.049    24.018    13.188
    187    C    28.505    24.701    12.704
    188    H    27.457    24.463    13.003
    189    O    29.017    23.904    11.602
    190    P    28.033    22.907    10.863
    191    O    26.775    22.786    11.623
    192    O    27.925    23.296    9.442
    193    O    28.784    21.526    10.969
    194    C    28.609    20.702    12.152
    195    H    27.890    19.882    11.926
    196    H    28.188    21.270    13.018
    197    C    29.926    20.077    12.638
    198    H    29.745    19.482    13.558
    199    O    30.485    19.181    11.647
    200    C    31.694    19.724    11.147
    201    H    32.510    19.158    11.655
    202    N    31.764    19.547    9.697
    203    C    32.514    18.604    9.048
    204    N    34.812    16.014    9.135
    205    H    35.291    15.413    8.492
    206    H    34.993    15.931    10.113
    207    N    33.337    17.712    9.632
    208    C    33.947    16.931    8.740
    209    N    33.719    17.008    7.390
    210    H    34.223    16.372    6.789
    211    C    32.865    17.911    6.765
    212    O    32.713    17.921    5.538
    213    C    32.236    18.773    7.705
    214    N    31.325    19.809    7.512
    215    C    31.071    20.239    8.729
    216    H    30.371    21.040    8.982
    217    C    31.767    21.170    11.572
    218    H    31.217    21.832    10.869
    219    O    33.098    21.618    11.715
    220    H    33.463    21.180    12.501
    221    C    31.031    21.116    12.907
    222    H    30.528    22.100    13.068
    223    O    31.868    20.726    14.019
    224    P    31.820    21.551    15.370
    225    O    32.455    20.768    16.454
    226    O    32.410    22.879    15.113
    227    O    30.287    21.718    15.692
    228    C    29.425    20.590    15.968
    229    H    29.971    19.617    16.014
    230    H    28.678    20.518    15.148
    231    C    28.631    20.749    17.270
    232    H    29.302    20.745    18.153
    233    O    27.908    22.020    17.274
    234    C    26.603    21.825    17.798
    235    H    26.495    22.548    18.637
    236    N    25.548    22.065    16.768
    237    C    25.852    22.121    15.424
    238    H    26.902    21.958    15.172
    239    C    24.262    22.294    17.208
    240    O    23.956    22.269    18.393
    241    N    23.348    22.559    16.225
    242    H    22.404    22.720    16.540
    243    C    23.581    22.648    14.871
    244    O    22.649    22.902    14.113
    245    C    24.939    22.399    14.483
    246    H    25.203    22.450    13.430
    247    C    26.556    20.432    18.380
    248    H    25.541    19.994    18.333
    249    O    27.015    20.428    19.720
    250    H    27.060    19.499    19.986
    251    C    27.519    19.703    17.468
    252    H    27.041    19.574    16.468
    253    O    28.040    18.485    18.041
    254    P    27.811    17.109    17.326
    255    O    27.511    17.357    15.902
    256    O    28.971    16.238    17.624
    257    O    26.516    16.531    18.006
    258    C    26.404    16.330    19.431
    259    H    27.099    16.980    20.016
    260    H    26.649    15.268    19.666
    261    C    24.986    16.626    19.944
    262    H    24.939    16.494    21.047
    263    O    24.631    18.007    19.652
    264    C    23.255    18.079    19.290
    265    H    22.803    18.828    19.983
    266    N    23.038    18.533    17.884
    267    C    24.051    18.437    16.959
    268    H    24.998    18.054    17.331
    269    C    23.892    18.844    15.695
    270    H    24.701    18.816    14.969
    271    C    21.793    19.017    17.488
    272    O    20.869    19.061    18.315
    273    N    21.614    19.445    16.217
    274    C    22.615    19.354    15.326
    275    N    22.412    19.776    14.081
    276    H    21.512    20.132    13.817
    277    H    23.131    19.750    13.386
    278    C    22.651    16.719    19.558
    279    H    21.820    16.480    18.867
    280    O    22.189    16.646    20.899
    281    H    21.852    15.752    21.026
    282    C    23.854    15.807    19.310
    283    H    24.088    15.741    18.219
    284    O    23.776    14.519    19.949
    285    P    23.221    13.289    19.149
    286    O    23.846    13.253    17.811
    287    O    23.374    12.078    19.980
    288    O    21.690    13.620    18.999
    289    C    20.848    13.562    20.177
    290    H    21.232    14.222    20.987
    291    H    20.808    12.522    20.582
    292    C    19.418    13.995    19.851
    293    H    18.765    13.927    20.747
    294    O    19.400    15.381    19.401
    295    C    18.439    15.521    18.363
    296    H    17.728    16.314    18.688
    297    N    19.068    15.931    17.099
    298    C    18.439    16.513    16.031
    299    N    15.555    17.681    14.515
    300    H    14.858    17.479    15.200
    301    H    15.281    18.109    13.649
    302    N    17.127    16.799    15.944
    303    C    16.805    17.353    14.778
    304    N    17.722    17.607    13.790
    305    H    17.393    18.025    12.934
    306    C    19.084    17.330    13.854
    307    O    19.842    17.593    12.916
    308    C    19.430    16.721    15.088
    309    N    20.656    16.255    15.546
    310    C    20.392    15.796    16.744
    311    H    21.117    15.330    17.413
    312    C    17.702    14.198    18.233
    313    H    17.409    13.986    17.183
    314    O    16.554    14.204    19.067
    315    H    16.190    13.302    19.104
    316    C    18.759    13.213    18.712
    317    H    19.520    13.040    17.917
    318    O    18.233    11.963    19.190
    319    H    17.825    11.472    18.456
 $END
