!*** FMO 5.3 (Gamess) INPUT generated by Facio 22.1.1.32 ***
 $CONTRL RUNTYP=ENERGY NPRINT=-5 ISPHER=1 MAXIT=200 $END
 $SYSTEM MWORDS=63 MEMDDI=63 $END
 $GDDI NGROUP=1 $END
 $SCF DIRSCF=.TRUE. NPUNCH=0 $END
!*** NumCPU : 2  MemPerNode : 512MB
 $PCM SOLVNT=WATER IEF=-10 ICOMP=2 ICAV=1 IDISP=1 IFMO=-1 $END
 $PCMCAV RADII=SUAHF $END
 $TESCAV NTSALL=60 $END
 $FMOPRP
    NAODIR=200
    NGRFMO(1)=1, 1, 0, 0, 0,   0, 0, 0, 0, 0
    IPIEDA=1
    NPRINT=9
 $END
 $FMO
      SCFTYP(1)=RHF
      MODGRD=10
      MODMUL=0
      MAXCAO=5
      MAXBND=12
      NLAYER=1
      MPLEVL(1)=2
      NFRAG=10
      ICHARG(1)=-1, -1, -1, -1, -1, -1, -1, -1, -1, 0
      FRGNAM(1)=F1, F2, F3, F4, F5, F6, F7, F8, F9, F10
      indat(1)=0
               1   -33   0
               34   -67   0
               68   -97   0
               98   -127   0
               128   -160   0
               161   -193   0
               194   -227   0
               228   -257   0
               258   -288   0
               289   -319   0
 $END

 $FMOBND
   -34   33       6-31G*    MINI
   -68   67       6-31G*    MINI
   -98   97       6-31G*    MINI
   -128   127       6-31G*    MINI
   -161   160       6-31G*    MINI
   -194   193       6-31G*    MINI
   -228   227       6-31G*    MINI
   -258   257       6-31G*    MINI
   -289   288       6-31G*    MINI
 $END
 $FMOHYB
 6-31G*      15   5
   1 0  -0.065034   0.288264   0.000000   0.000000   0.604412
         0.290129   0.000000   0.000000   0.319045  -0.017106
        -0.017106   0.057934   0.000000   0.000000   0.000000
   0 1  -0.065040   0.288293   0.569832   0.000000  -0.201456
         0.290147   0.300783   0.000000  -0.106342   0.049598
        -0.017106  -0.008771   0.000000  -0.027223   0.000000
   0 1  -0.065039   0.288293  -0.284916  -0.493490  -0.201455
         0.290145  -0.150392  -0.260486  -0.106340  -0.000427
         0.032923  -0.008771   0.033353   0.013612   0.023576
   0 1  -0.065039   0.288293  -0.284916   0.493490  -0.201455
         0.290145  -0.150392   0.260486  -0.106340  -0.000427
         0.032923  -0.008771  -0.033353   0.013612  -0.023576
   0 1   1.010938  -0.011975   0.000000   0.000000   0.000000
        -0.054085   0.000000   0.000000  -0.000000  -0.003174
        -0.003174  -0.003174   0.000000   0.000000   0.000000
 MINI         5   5
   1 0  -0.104883   0.308874   0.000000   0.000000   0.521806
   0 1  -0.104883   0.308874   0.491961   0.000000  -0.173934
   0 1  -0.104883   0.308876  -0.245980  -0.426050  -0.173933
   0 1  -0.104883   0.308876  -0.245980   0.426050  -0.173933
   0 1   0.988209   0.063992   0.000000   0.000000   0.000000
 $END
 
 $DATA
 FMO calculation
 C1 
 H.1-1    1
      N31 6
   
 O.1-1    8
      N31 6
      d 1
      1 0.800 1.0
   
 C.1-1    6
      N31 6
      d 1
      1 0.800 1.0
   
 N.1-1    7
      N31 6
      d 1
      1 0.800 1.0
   
 P.1-1   15
      N31 6
      d 1
      1 0.550 1.0
   
 $END
 $FMOXYZ
    1    H    11.581    20.197    7.956
    2    O    11.719    20.043    8.910
    3    C    10.418    20.075    9.517
    4    H    9.798    19.250    9.096
    5    H    9.928    21.040    9.261
    6    C    10.451    19.937    11.044
    7    H    9.426    20.005    11.467
    8    O    10.982    18.632    11.420
    9    C    11.809    18.779    12.567
    10    H    11.399    18.076    13.330
    11    N    13.236    18.432    12.305
    12    C    13.714    18.394    11.014
    13    H    12.996    18.621    10.225
    14    C    14.982    18.062    10.747
    15    H    15.362    18.009    9.727
    16    C    14.102    18.166    13.363
    17    O    13.674    18.233    14.526
    18    N    15.385    17.817    13.113
    19    C    15.831    17.753    11.846
    20    N    17.088    17.372    11.620
    21    H    17.701    17.198    12.396
    22    H    17.452    17.288    10.690
    23    C    11.635    20.198    13.068
    24    H    12.541    20.585    13.573
    25    O    10.533    20.284    13.949
    26    H    10.513    21.206    14.232
    27    C    11.350    20.946    11.772
    28    H    12.283    21.043    11.167
    29    O    10.647    22.198    11.928
    30    P    11.467    23.532    12.087
    31    O    12.532    23.563    11.065
    32    O    10.511    24.660    12.087
    33    O    12.124    23.397    13.514
    34    C    11.297    23.489    14.699
    35    H    10.436    22.783    14.660
    36    H    10.875    24.517    14.799
    37    C    12.107    23.185    15.965
    38    H    11.462    23.214    16.868
    39    O    12.682    21.849    15.881
    40    C    13.974    21.858    16.468
    41    H    13.966    21.083    17.264
    42    N    15.026    21.521    15.499
    43    C    16.296    21.094    15.791
    44    N    18.775    20.381    18.109
    45    H    18.326    20.573    18.979
    46    H    19.735    20.086    18.110
    47    N    16.815    20.932    17.023
    48    C    18.087    20.545    16.993
    49    N    18.759    20.276    15.828
    50    H    19.719    19.972    15.892
    51    C    18.240    20.399    14.544
    52    O    18.926    20.132    13.553
    53    C    16.901    20.873    14.569
    54    N    16.037    21.188    13.527
    55    C    14.938    21.572    14.127
    56    H    14.027    21.909    13.629
    57    C    14.178    23.219    17.089
    58    H    15.239    23.537    17.073
    59    O    13.697    23.205    18.419
    60    H    13.648    24.125    18.709
    61    C    13.316    24.105    16.202
    62    H    13.797    24.263    15.210
    63    O    12.891    25.337    16.822
    64    P    13.740    26.656    16.657
    65    O    13.906    26.926    15.213
    66    O    13.082    27.709    17.466
    67    O    15.152    26.326    17.256
    68    C    15.401    26.156    18.665
    69    H    14.715    25.408    19.114
    70    H    15.234    27.111    19.213
    71    C    16.855    25.713    18.926
    72    H    17.040    25.615    20.019
    73    O    17.117    24.406    18.327
    74    C    18.437    24.373    17.794
    75    H    18.938    23.515    18.296
    76    N    18.434    24.178    16.309
    77    C    17.333    24.517    15.556
    78    H    16.502    24.939    16.114
    79    C    19.542    23.622    15.712
    80    O    20.534    23.273    16.345
    81    N    19.453    23.458    14.351
    82    H    20.259    23.047    13.899
    83    C    18.366    23.720    13.547
    84    O    18.406    23.470    12.345
    85    C    17.255    24.301    14.236
    86    H    16.361    24.544    13.665
    87    C    19.112    25.669    18.207
    88    H    19.825    26.030    17.438
    89    O    19.773    25.509    19.451
    90    H    19.841    26.395    19.843
    91    C    17.933    26.627    18.332
    92    H    17.577    26.941    17.324
    93    O    18.161    27.743    19.211
    94    P    18.795    29.082    18.683
    95    O    17.965    29.585    17.567
    96    O    18.973    29.978    19.845
    97    O    20.211    28.667    18.133
    98    C    20.895    29.472    17.136
    99    H    21.437    30.310    17.629
    100    H    20.173    29.921    16.413
    101    C    21.913    28.652    16.309
    102    H    22.829    28.442    16.902
    103    O    21.326    27.370    15.942
    104    C    21.612    27.047    14.596
    105    H    22.099    26.042    14.630
    106    N    20.376    26.985    13.773
    107    C    19.166    27.446    14.253
    108    H    19.175    27.852    15.269
    109    C    20.470    26.424    12.517
    110    O    21.515    25.960    12.074
    111    N    19.304    26.414    11.802
    112    H    19.352    25.983    10.888
    113    C    18.065    26.855    12.210
    114    O    17.098    26.760    11.460
    115    C    18.036    27.393    13.535
    116    H    17.085    27.741    13.930
    117    C    22.596    28.080    14.077
    118    H    22.426    28.329    13.008
    119    O    23.917    27.613    14.227
    120    H    24.454    28.342    14.561
    121    C    22.304    29.281    14.967
    122    H    21.380    29.788    14.599
    123    O    23.422    30.188    15.135
    124    P    23.566    31.338    14.069
    125    O    22.854    30.942    12.835
    126    O    23.148    32.610    14.691
    127    O    25.107    31.379    13.748
    128    C    25.942    32.526    14.037
    129    H    25.378    33.410    14.419
    130    H    26.426    32.853    13.089
    131    C    27.060    32.178    15.033
    132    H    27.961    32.799    14.844
    133    O    26.604    32.502    16.373
    134    C    27.110    31.549    17.292
    135    H    27.717    32.119    18.032
    136    N    26.024    30.870    18.004
    137    C    24.885    29.683    19.460
    138    N    23.947    30.303    18.652
    139    C    24.668    30.997    17.805
    140    H    24.267    31.626    17.006
    141    N    25.899    28.429    21.194
    142    C    27.070    28.812    20.674
    143    H    27.964    28.454    21.201
    144    N    27.311    29.636    19.651
    145    C    26.166    30.027    19.073
    146    C    24.758    28.843    20.586
    147    N    23.568    28.445    21.065
    148    H    22.716    28.675    20.598
    149    H    23.534    27.815    21.844
    150    C    28.022    30.596    16.537
    151    H    27.949    29.549    16.904
    152    O    29.368    31.036    16.612
    153    H    29.886    30.441    16.048
    154    C    27.476    30.698    15.120
    155    H    26.549    30.082    15.054
    156    O    28.427    30.390    14.074
    157    P    28.695    28.873    13.743
    158    O    27.451    28.108    13.951
    159    O    29.303    28.783    12.399
    160    O    29.741    28.422    14.833
    161    C    29.865    27.022    15.199
    162    H    30.698    26.560    14.620
    163    H    28.943    26.427    14.985
    164    C    30.195    26.894    16.694
    165    H    31.085    27.514    16.944
    166    O    29.071    27.324    17.510
    167    C    28.421    26.191    18.065
    168    H    28.637    26.199    19.160
    169    N    26.982    26.257    17.822
    170    C    24.802    26.099    17.999
    171    N    25.052    26.707    16.787
    172    C    26.353    26.783    16.724
    173    H    26.920    27.247    15.918
    174    N    23.714    25.176    19.886
    175    C    24.931    24.985    20.396
    176    H    24.947    24.507    21.381
    177    N    26.128    25.214    19.845
    178    C    25.988    25.803    18.647
    179    C    23.609    25.771    18.674
    180    N    22.372    26.034    18.234
    181    H    22.206    26.587    17.408
    182    H    21.573    25.734    18.760
    183    C    29.038    24.960    17.442
    184    H    28.521    24.722    16.489
    185    O    29.016    23.851    18.319
    186    H    29.296    23.050    17.857
    187    C    30.450    25.439    17.127
    188    H    30.818    24.864    16.243
    189    O    31.344    25.368    18.259
    190    P    32.886    25.168    18.057
    191    O    33.452    26.420    17.514
    192    O    33.461    24.675    19.326
    193    O    33.016    24.028    16.981
    194    C    34.193    23.987    16.137
    195    H    35.112    24.339    16.665
    196    H    34.032    24.644    15.253
    197    C    34.469    22.576    15.606
    198    H    35.316    22.578    14.892
    199    O    34.846    21.707    16.713
    200    C    34.224    20.441    16.539
    201    H    35.040    19.683    16.579
    202    N    33.267    20.164    17.618
    203    C    32.795    18.927    17.962
    204    N    32.693    15.497    17.473
    205    H    32.239    14.700    17.867
    206    H    33.277    15.382    16.674
    207    N    33.128    17.763    17.373
    208    C    32.493    16.724    17.921
    209    N    31.677    16.834    19.016
    210    H    31.245    16.003    19.371
    211    C    31.337    18.022    19.653
    212    O    30.599    18.045    20.643
    213    C    31.967    19.139    19.046
    214    N    31.923    20.488    19.385
    215    C    32.703    21.062    18.502
    216    H    32.912    22.131    18.440
    217    C    33.582    20.413    15.166
    218    H    32.656    19.798    15.153
    219    O    34.506    19.926    14.206
    220    H    34.125    20.067    13.324
    221    C    33.265    21.887    14.948
    222    H    32.373    22.165    15.557
    223    O    33.160    22.293    13.562
    224    P    31.758    22.252    12.834
    225    O    31.331    23.646    12.587
    226    O    31.842    21.388    11.633
    227    O    30.755    21.591    13.852
    228    C    29.348    21.913    13.789
    229    H    28.816    21.183    13.142
    230    H    29.160    22.930    13.364
    231    C    28.749    21.849    15.193
    232    H    29.506    22.100    15.968
    233    O    27.698    22.845    15.279
    234    C    26.649    22.374    16.110
    235    H    26.580    23.099    16.955
    236    N    25.352    22.323    15.367
    237    C    25.334    22.210    13.991
    238    H    26.311    22.146    13.511
    239    C    24.175    22.445    16.079
    240    O    24.143    22.557    17.299
    241    N    23.034    22.425    15.310
    242    H    22.174    22.586    15.813
    243    C    22.946    22.351    13.933
    244    O    21.850    22.389    13.376
    245    C    24.205    22.225    13.269
    246    H    24.217    22.177    12.184
    247    C    27.081    21.016    16.649
    248    H    26.222    20.319    16.740
    249    O    27.730    21.138    17.904
    250    H    27.990    20.236    18.142
    251    C    28.058    20.535    15.574
    252    H    27.500    20.196    14.668
    253    O    29.045    19.564    16.007
    254    P    28.582    18.075    16.240
    255    O    27.501    17.779    15.271
    256    O    29.762    17.191    16.188
    257    O    27.995    18.030    17.700
    258    C    27.074    16.960    18.060
    259    H    27.627    16.131    18.556
    260    H    26.555    16.519    17.174
    261    C    25.965    17.450    19.004
    262    H    26.351    17.566    20.040
    263    O    25.491    18.759    18.578
    264    C    24.081    18.804    18.657
    265    H    23.844    19.729    19.234
    266    N    23.437    18.883    17.320
    267    C    24.144    18.546    16.185
    268    H    25.183    18.233    16.329
    269    C    23.584    18.619    14.972
    270    H    24.126    18.360    14.065
    271    C    22.108    19.288    17.214
    272    O    21.472    19.566    18.243
    273    N    21.534    19.381    15.992
    274    C    22.232    19.054    14.891
    275    N    21.654    19.152    13.697
    276    H    20.702    19.462    13.638
    277    H    22.104    18.845    12.855
    278    C    23.646    17.591    19.444
    279    H    22.622    17.253    19.186
    280    O    23.725    17.870    20.829
    281    H    23.573    17.039    21.295
    282    C    24.699    16.574    19.018
    283    H    24.516    16.250    17.967
    284    O    24.880    15.466    19.922
    285    P    24.113    14.113    19.687
    286    O    24.273    13.694    18.273
    287    O    24.556    13.153    20.721
    288    O    22.603    14.486    19.952
    289    C    22.191    14.823    21.300
    290    H    22.805    15.648    21.725
    291    H    22.307    13.945    21.979
    292    C    20.721    15.255    21.338
    293    H    20.391    15.470    22.377
    294    O    20.535    16.472    20.560
    295    C    19.294    16.392    19.868
    296    H    18.708    17.293    20.158
    297    N    19.482    16.400    18.412
    298    C    18.527    16.728    17.489
    299    N    15.287    17.683    16.728
    300    H    14.845    17.709    17.624
    301    H    14.736    17.872    15.910
    302    N    17.257    17.080    17.761
    303    C    16.557    17.338    16.659
    304    N    17.091    17.268    15.399
    305    H    16.488    17.467    14.616
    306    C    18.396    16.907    15.087
    307    O    18.780    16.871    13.914
    308    C    19.146    16.613    16.259
    309    N    20.463    16.183    16.404
    310    C    20.615    16.068    17.702
    311    H    21.531    15.755    18.208
    312    C    18.572    15.146    20.349
    313    H    17.953    14.684    19.549
    314    O    17.758    15.461    21.470
    315    H    17.436    14.633    21.869
    316    C    19.744    14.247    20.719
    317    H    20.213    13.826    19.805
    318    O    19.422    13.208    21.660
    319    H    18.810    12.574    21.247
 $END
