!*** FMO 5.3 (Gamess) INPUT generated by Facio 22.1.1.32 ***
 $CONTRL RUNTYP=ENERGY NPRINT=-5 ISPHER=1 MAXIT=200 $END
 $SYSTEM MWORDS=63 MEMDDI=63 $END
 $GDDI NGROUP=1 $END
 $SCF DIRSCF=.TRUE. NPUNCH=0 $END
!*** NumCPU : 2  MemPerNode : 512MB
 $PCM SOLVNT=WATER IEF=-10 ICOMP=2 ICAV=1 IDISP=1 IFMO=-1 $END
 $PCMCAV RADII=SUAHF $END
 $TESCAV NTSALL=60 $END
 $FMOPRP
    NAODIR=200
    NGRFMO(1)=1, 1, 0, 0, 0,   0, 0, 0, 0, 0
    IPIEDA=1
    NPRINT=9
 $END
 $FMO
      SCFTYP(1)=RHF
      MODGRD=10
      MODMUL=0
      MAXCAO=5
      MAXBND=12
      NLAYER=1
      MPLEVL(1)=2
      NFRAG=10
      ICHARG(1)=-1, -1, -1, -1, -1, -1, -1, -1, -1, 0
      FRGNAM(1)=F1, F2, F3, F4, F5, F6, F7, F8, F9, F10
      indat(1)=0
               1   -33   0
               34   -67   0
               68   -97   0
               98   -127   0
               128   -160   0
               161   -193   0
               194   -227   0
               228   -257   0
               258   -288   0
               289   -319   0
 $END

 $FMOBND
   -34   33       6-31G*    MINI
   -68   67       6-31G*    MINI
   -98   97       6-31G*    MINI
   -128   127       6-31G*    MINI
   -161   160       6-31G*    MINI
   -194   193       6-31G*    MINI
   -228   227       6-31G*    MINI
   -258   257       6-31G*    MINI
   -289   288       6-31G*    MINI
 $END
 $FMOHYB
 6-31G*      15   5
   1 0  -0.065034   0.288264   0.000000   0.000000   0.604412
         0.290129   0.000000   0.000000   0.319045  -0.017106
        -0.017106   0.057934   0.000000   0.000000   0.000000
   0 1  -0.065040   0.288293   0.569832   0.000000  -0.201456
         0.290147   0.300783   0.000000  -0.106342   0.049598
        -0.017106  -0.008771   0.000000  -0.027223   0.000000
   0 1  -0.065039   0.288293  -0.284916  -0.493490  -0.201455
         0.290145  -0.150392  -0.260486  -0.106340  -0.000427
         0.032923  -0.008771   0.033353   0.013612   0.023576
   0 1  -0.065039   0.288293  -0.284916   0.493490  -0.201455
         0.290145  -0.150392   0.260486  -0.106340  -0.000427
         0.032923  -0.008771  -0.033353   0.013612  -0.023576
   0 1   1.010938  -0.011975   0.000000   0.000000   0.000000
        -0.054085   0.000000   0.000000  -0.000000  -0.003174
        -0.003174  -0.003174   0.000000   0.000000   0.000000
 MINI         5   5
   1 0  -0.104883   0.308874   0.000000   0.000000   0.521806
   0 1  -0.104883   0.308874   0.491961   0.000000  -0.173934
   0 1  -0.104883   0.308876  -0.245980  -0.426050  -0.173933
   0 1  -0.104883   0.308876  -0.245980   0.426050  -0.173933
   0 1   0.988209   0.063992   0.000000   0.000000   0.000000
 $END
 
 $DATA
 FMO calculation
 C1 
 H.1-1    1
      N31 6
   
 O.1-1    8
      N31 6
      d 1
      1 0.800 1.0
   
 C.1-1    6
      N31 6
      d 1
      1 0.800 1.0
   
 N.1-1    7
      N31 6
      d 1
      1 0.800 1.0
   
 P.1-1   15
      N31 6
      d 1
      1 0.550 1.0
   
 $END
 $FMOXYZ
    1    H    11.182    19.712    6.171
    2    O    11.317    19.561    7.126
    3    C    10.020    19.297    7.678
    4    H    9.602    18.374    7.216
    5    H    9.333    20.140    7.433
    6    C    10.040    19.123    9.199
    7    H    9.016    18.889    9.565
    8    O    10.907    18.020    9.603
    9    C    11.434    18.308    10.895
    10    H    11.014    17.524    11.565
    11    N    12.924    18.259    10.955
    12    C    13.665    18.574    9.838
    13    H    13.098    18.795    8.928
    14    C    15.005    18.567    9.872
    15    H    15.611    18.810    9.003
    16    C    13.575    17.973    12.159
    17    O    12.901    17.737    13.173
    18    N    14.929    17.948    12.208
    19    C    15.645    18.249    11.108
    20    N    16.979    18.249    11.178
    21    H    17.453    18.050    12.034
    22    H    17.533    18.542    10.401
    23    C    10.887    19.661    11.330
    24    H    11.641    20.260    11.885
    25    O    9.726    19.502    12.125
    26    H    9.435    20.398    12.358
    27    C    10.558    20.326    9.989
    28    H    11.488    20.665    9.480
    29    O    9.546    21.362    10.023
    30    P    9.931    22.795    10.558
    31    O    8.734    23.659    10.512
    32    O    11.137    23.274    9.848
    33    O    10.271    22.538    12.073
    34    C    11.181    23.403    12.786
    35    H    10.759    24.432    12.871
    36    H    12.161    23.468    12.255
    37    C    11.448    22.866    14.203
    38    H    10.521    22.860    14.813
    39    O    11.944    21.492    14.130
    40    C    13.064    21.347    14.993
    41    H    12.900    20.429    15.601
    42    N    14.314    21.212    14.228
    43    C    15.559    20.945    14.732
    44    N    17.659    20.400    17.436
    45    H    17.030    20.457    18.211
    46    H    18.646    20.429    17.609
    47    N    15.863    20.752    16.027
    48    C    17.165    20.558    16.223
    49    N    18.067    20.462    15.199
    50    H    19.033    20.323    15.448
    51    C    17.776    20.610    13.848
    52    O    18.661    20.496    12.998
    53    C    16.403    20.910    13.639
    54    N    15.709    21.190    12.465
    55    C    14.468    21.340    12.865
    56    H    13.615    21.556    12.216
    57    C    13.088    22.560    15.895
    58    H    14.110    22.817    16.250
    59    O    12.226    22.365    17.003
    60    H    12.099    23.225    17.431
    61    C    12.552    23.630    14.960
    62    H    13.326    23.895    14.201
    63    O    12.005    24.782    15.637
    64    P    12.861    26.097    15.751
    65    O    12.172    27.035    16.669
    66    O    13.138    26.596    14.389
    67    O    14.230    25.622    16.366
    68    C    14.388    25.352    17.773
    69    H    13.735    24.509    18.099
    70    H    14.121    26.251    18.375
    71    C    15.842    24.984    18.115
    72    H    15.921    24.749    19.197
    73    O    16.273    23.795    17.392
    74    C    17.678    23.877    17.164
    75    H    18.129    23.015    17.708
    76    N    18.030    23.804    15.715
    77    C    17.101    24.108    14.745
    78    H    16.101    24.355    15.114
    79    C    19.333    23.493    15.374
    80    O    20.214    23.301    16.197
    81    N    19.578    23.422    14.024
    82    H    20.494    23.114    13.736
    83    C    18.699    23.700    13.003
    84    O    19.075    23.644    11.836
    85    C    17.383    24.065    13.434
    86    H    16.635    24.289    12.675
    87    C    18.165    25.162    17.802
    88    H    18.997    25.633    17.234
    89    O    18.581    24.912    19.132
    90    H    18.863    25.763    19.490
    91    C    16.911    26.029    17.767
    92    H    16.692    26.376    16.732
    93    O    16.893    27.105    18.728
    94    P    17.613    28.461    18.373
    95    O    17.453    29.388    19.517
    96    O    17.123    28.945    17.064
    97    O    19.133    28.084    18.210
    98    C    20.011    27.960    19.352
    99    H    19.728    27.091    19.986
    100    H    19.957    28.877    19.989
    101    C    21.481    27.789    18.922
    102    H    22.138    27.728    19.817
    103    O    21.688    26.576    18.148
    104    C    22.835    26.745    17.317
    105    H    23.610    26.071    17.749
    106    N    22.575    26.367    15.897
    107    C    21.338    26.562    15.343
    108    H    20.584    26.954    16.031
    109    C    23.631    25.927    15.126
    110    O    24.766    25.827    15.571
    111    N    23.320    25.591    13.829
    112    H    24.103    25.307    13.247
    113    C    22.092    25.731    13.217
    114    O    21.941    25.393    12.045
    115    C    21.063    26.267    14.063
    116    H    20.069    26.425    13.645
    117    C    23.287    28.201    17.452
    118    H    23.558    28.651    16.475
    119    O    24.393    28.289    18.337
    120    H    25.127    27.752    17.991
    121    C    22.029    28.878    18.019
    122    H    21.275    29.013    17.208
    123    O    22.234    30.079    18.789
    124    P    22.339    31.456    18.044
    125    O    22.329    32.535    19.058
    126    O    21.306    31.517    16.986
    127    O    23.753    31.421    17.367
    128    C    24.110    32.480    16.453
    129    H    24.036    33.475    16.962
    130    H    23.427    32.474    15.572
    131    C    25.538    32.264    15.930
    132    H    25.812    33.049    15.193
    133    O    26.491    32.353    17.028
    134    C    27.574    31.467    16.779
    135    H    28.483    32.107    16.719
    136    N    27.764    30.502    17.863
    137    C    28.679    29.061    19.247
    138    N    27.420    29.342    19.756
    139    C    26.912    30.196    18.897
    140    H    25.917    30.646    18.962
    141    N    30.857    28.181    18.958
    142    C    30.897    28.860    17.808
    143    H    31.816    28.744    17.226
    144    N    29.989    29.695    17.293
    145    C    28.894    29.752    18.070
    146    C    29.744    28.271    19.726
    147    N    29.726    27.649    20.916
    148    H    28.892    27.594    21.468
    149    H    30.470    27.016    21.137
    150    C    27.341    30.806    15.437
    151    H    27.688    29.750    15.413
    152    O    27.994    31.550    14.424
    153    H    27.667    31.219    13.576
    154    C    25.823    30.886    15.300
    155    H    25.333    30.120    15.947
    156    O    25.344    30.853    13.939
    157    P    24.944    29.481    13.259
    158    O    24.706    29.788    11.824
    159    O    23.786    28.916    13.979
    160    O    26.208    28.566    13.455
    161    C    27.355    28.661    12.589
    162    H    27.807    29.678    12.608
    163    H    27.076    28.439    11.536
    164    C    28.417    27.629    12.973
    165    H    29.246    27.643    12.229
    166    O    29.021    27.921    14.269
    167    C    29.352    26.688    14.896
    168    H    30.447    26.725    15.086
    169    N    28.625    26.499    16.154
    170    C    28.042    25.836    18.165
    171    N    26.961    26.561    17.672
    172    C    27.349    26.910    16.467
    173    H    26.750    27.485    15.753
    174    N    29.455    24.554    19.579
    175    C    30.373    24.652    18.613
    176    H    31.333    24.172    18.832
    177    N    30.290    25.235    17.414
    178    C    29.078    25.801    17.246
    179    C    28.248    25.150    19.380
    180    N    27.318    25.072    20.349
    181    H    26.387    25.401    20.198
    182    H    27.479    24.475    21.135
    183    C    29.051    25.571    13.912
    184    H    28.699    24.642    14.414
    185    O    30.190    25.291    13.115
    186    H    29.930    24.612    12.478
    187    C    27.922    26.189    13.091
    188    H    26.974    26.203    13.680
    189    O    27.750    25.648    11.773
    190    P    26.737    24.485    11.493
    191    O    26.898    24.120    10.064
    192    O    25.382    24.894    11.943
    193    O    27.263    23.317    12.391
    194    C    28.480    22.593    12.129
    195    H    29.164    22.785    12.977
    196    H    29.002    22.934    11.201
    197    C    28.215    21.079    12.025
    198    H    27.708    20.696    12.937
    199    O    27.316    20.851    10.902
    200    C    27.674    19.670    10.210
    201    H    26.780    19.008    10.259
    202    N    27.971    19.937    8.794
    203    C    27.823    19.053    7.754
    204    N    26.915    15.920    6.552
    205    H    26.904    15.435    5.678
    206    H    26.751    15.411    7.396
    207    N    27.399    17.775    7.851
    208    C    27.297    17.183    6.658
    209    N    27.571    17.818    5.475
    210    H    27.488    17.297    4.620
    211    C    27.997    19.135    5.346
    212    O    28.211    19.628    4.234
    213    C    28.151    19.765    6.614
    214    N    28.537    21.068    6.936
    215    C    28.411    21.122    8.244
    216    H    28.592    22.002    8.867
    217    C    28.824    19.014    10.947
    218    H    29.575    18.572    10.254
    219    O    28.316    18.011    11.810
    220    H    29.021    17.799    12.444
    221    C    29.440    20.181    11.724
    222    H    30.114    20.759    11.053
    223    O    30.143    19.733    12.899
    224    P    30.739    20.632    14.032
    225    O    31.403    21.796    13.411
    226    O    31.589    19.780    14.889
    227    O    29.487    21.103    14.868
    228    C    29.729    21.955    16.015
    229    H    30.085    22.961    15.689
    230    H    30.503    21.510    16.685
    231    C    28.470    22.144    16.871
    232    H    28.735    22.624    17.836
    233    O    27.513    23.028    16.225
    234    C    26.235    22.788    16.803
    235    H    26.028    23.697    17.416
    236    N    25.155    22.591    15.797
    237    C    25.423    22.117    14.536
    238    H    26.483    21.959    14.317
    239    C    23.859    22.821    16.205
    240    O    23.566    23.142    17.348
    241    N    22.904    22.651    15.239
    242    H    21.971    22.853    15.562
    243    C    23.102    22.274    13.927
    244    O    22.145    22.243    13.154
    245    C    24.463    21.945    13.609
    246    H    24.707    21.627    12.598
    247    C    26.371    21.574    17.708
    248    H    25.505    20.886    17.610
    249    O    26.519    21.956    19.062
    250    H    26.476    21.126    19.554
    251    C    27.639    20.906    17.181
    252    H    27.447    20.407    16.206
    253    O    28.332    20.048    18.119
    254    P    27.825    18.564    18.287
    255    O    28.625    17.888    19.333
    256    O    27.820    17.892    16.967
    257    O    26.329    18.652    18.802
    258    C    26.084    18.888    20.212
    259    H    26.662    19.766    20.593
    260    H    26.381    17.996    20.810
    261    C    24.597    19.150    20.483
    262    H    24.444    19.454    21.540
    263    O    24.106    20.227    19.638
    264    C    22.731    20.010    19.371
    265    H    22.212    20.880    19.836
    266    N    22.404    19.932    17.922
    267    C    23.265    19.295    17.058
    268    H    24.223    18.983    17.482
    269    C    22.949    19.127    15.764
    270    H    23.620    18.643    15.058
    271    C    21.155    20.360    17.470
    272    O    20.348    20.841    18.279
    273    N    20.826    20.208    16.165
    274    C    21.667    19.581    15.326
    275    N    21.279    19.397    14.063
    276    H    20.399    19.750    13.748
    277    H    21.845    18.900    13.400
    278    C    22.321    18.745    20.095
    279    H    21.565    18.158    19.534
    280    O    21.827    19.051    21.384
    281    H    21.579    18.205    21.775
    282    C    23.643    17.988    20.182
    283    H    23.943    17.581    19.190
    284    O    23.713    16.995    21.229
    285    P    23.151    15.548    20.956
    286    O    23.354    14.722    22.165
    287    O    23.727    15.023    19.700
    288    O    21.606    15.749    20.723
    289    C    20.699    15.955    21.827
    290    H    21.012    16.812    22.470
    291    H    20.669    15.052    22.483
    292    C    19.270    16.221    21.328
    293    H    18.606    16.483    22.182
    294    O    19.222    17.327    20.380
    295    C    18.148    17.099    19.468
    296    H    17.433    17.943    19.606
    297    N    18.595    17.075    18.064
    298    C    17.785    17.214    16.963
    299    N    14.638    17.725    15.573
    300    H    14.055    17.775    16.383
    301    H    14.220    17.806    14.667
    302    N    16.446    17.384    16.980
    303    C    15.932    17.519    15.756
    304    N    16.691    17.478    14.616
    305    H    16.212    17.569    13.737
    306    C    18.069    17.282    14.569
    307    O    18.660    17.264    13.486
    308    C    18.625    17.128    15.870
    309    N    19.939    16.905    16.273
    310    C    19.872    16.873    17.585
    311    H    20.713    16.704    18.262
    312    C    17.477    15.793    19.862
    313    H    17.137    15.211    18.975
    314    O    16.376    16.041    20.725
    315    H    16.057    15.192    21.074
    316    C    18.622    15.067    20.563
    317    H    19.364    14.689    19.826
    318    O    18.206    14.023    21.459
    319    H    17.780    13.310    20.954
 $END
