!*** FMO 5.3 (Gamess) INPUT generated by Facio 22.1.1.32 ***
 $CONTRL RUNTYP=ENERGY NPRINT=-5 ISPHER=1 MAXIT=200 $END
 $SYSTEM MWORDS=63 MEMDDI=63 $END
 $GDDI NGROUP=1 $END
 $SCF DIRSCF=.TRUE. NPUNCH=0 $END
!*** NumCPU : 2  MemPerNode : 512MB
 $PCM SOLVNT=WATER IEF=-10 ICOMP=2 ICAV=1 IDISP=1 IFMO=-1 $END
 $PCMCAV RADII=SUAHF $END
 $TESCAV NTSALL=60 $END
 $FMOPRP
    NAODIR=200
    NGRFMO(1)=1, 1, 0, 0, 0,   0, 0, 0, 0, 0
    IPIEDA=1
    NPRINT=9
 $END
 $FMO
      SCFTYP(1)=RHF
      MODGRD=10
      MODMUL=0
      MAXCAO=5
      MAXBND=14
      NLAYER=1
      MPLEVL(1)=2
      NFRAG=12
      ICHARG(1)=-1, -1, -1, -1, -1, 0, -1, -1, -1, -1, -1, 0
      FRGNAM(1)=F1, F2, F3, F4, F5, F6, F7, F8, F9, F10, F11, F12
      indat(1)=0
               1   -33   0
               34   -67   0
               68   -101   0
               102   -134   0
               135   -165   0
               166   -198   0
               199   -229   0
               230   -263   0
               264   -297   0
               298   -330   0
               331   -361   0
               362   -392   0
 $END

 $FMOBND
   -34   33       6-31G*    MINI
   -68   67       6-31G*    MINI
   -102   101       6-31G*    MINI
   -135   134       6-31G*    MINI
   -166   165       6-31G*    MINI
   -199   198       6-31G*    MINI
   -230   229       6-31G*    MINI
   -264   263       6-31G*    MINI
   -298   297       6-31G*    MINI
   -331   330       6-31G*    MINI
   -362   361       6-31G*    MINI
 $END
 $FMOHYB
 6-31G*      15   5
   1 0  -0.065034   0.288264   0.000000   0.000000   0.604412
         0.290129   0.000000   0.000000   0.319045  -0.017106
        -0.017106   0.057934   0.000000   0.000000   0.000000
   0 1  -0.065040   0.288293   0.569832   0.000000  -0.201456
         0.290147   0.300783   0.000000  -0.106342   0.049598
        -0.017106  -0.008771   0.000000  -0.027223   0.000000
   0 1  -0.065039   0.288293  -0.284916  -0.493490  -0.201455
         0.290145  -0.150392  -0.260486  -0.106340  -0.000427
         0.032923  -0.008771   0.033353   0.013612   0.023576
   0 1  -0.065039   0.288293  -0.284916   0.493490  -0.201455
         0.290145  -0.150392   0.260486  -0.106340  -0.000427
         0.032923  -0.008771  -0.033353   0.013612  -0.023576
   0 1   1.010938  -0.011975   0.000000   0.000000   0.000000
        -0.054085   0.000000   0.000000  -0.000000  -0.003174
        -0.003174  -0.003174   0.000000   0.000000   0.000000
 MINI         5   5
   1 0  -0.104883   0.308874   0.000000   0.000000   0.521806
   0 1  -0.104883   0.308874   0.491961   0.000000  -0.173934
   0 1  -0.104883   0.308876  -0.245980  -0.426050  -0.173933
   0 1  -0.104883   0.308876  -0.245980   0.426050  -0.173933
   0 1   0.988209   0.063992   0.000000   0.000000   0.000000
 $END
 
 $DATA
 FMO calculation
 C1 
 H.1-1    1
      N31 6
   
 O.1-1    8
      N31 6
      d 1
      1 0.800 1.0
   
 C.1-1    6
      N31 6
      d 1
      1 0.800 1.0
   
 N.1-1    7
      N31 6
      d 1
      1 0.800 1.0
   
 P.1-1   15
      N31 6
      d 1
      1 0.550 1.0
   
 $END
 $FMOXYZ
    1    H    -40.370    111.715    -50.107
    2    O    -40.227    112.408    -50.779
    3    C    -39.041    113.117    -50.391
    4    H    -38.215    112.388    -50.234
    5    H    -39.230    113.631    -49.422
    6    C    -38.584    114.158    -51.418
    7    H    -37.700    114.716    -51.045
    8    O    -38.192    113.497    -52.655
    9    C    -38.617    114.287    -53.760
    10    H    -37.700    114.479    -54.366
    11    N    -39.620    113.595    -54.616
    12    C    -40.323    112.516    -54.129
    13    H    -40.100    112.215    -53.104
    14    C    -41.208    111.858    -54.889
    15    H    -41.753    110.991    -54.526
    16    C    -39.860    114.043    -55.913
    17    O    -39.239    115.030    -56.334
    18    N    -40.737    113.384    -56.700
    19    C    -41.400    112.314    -56.224
    20    N    -42.237    111.663    -57.029
    21    H    -42.416    112.014    -57.950
    22    H    -42.740    110.857    -56.717
    23    C    -39.122    115.602    -53.205
    24    H    -39.918    116.056    -53.832
    25    O    -38.039    116.502    -53.072
    26    H    -38.380    117.281    -52.617
    27    C    -39.655    115.172    -51.842
    28    H    -40.609    114.607    -51.963
    29    O    -39.745    116.220    -50.853
    30    P    -41.069    117.067    -50.734
    31    O    -42.220    116.162    -50.534
    32    O    -40.866    118.112    -49.708
    33    O    -41.204    117.753    -52.145
    34    C    -40.377    118.900    -52.456
    35    H    -39.297    118.635    -52.438
    36    H    -40.531    119.722    -51.713
    37    C    -40.696    119.455    -53.845
    38    H    -40.021    120.300    -54.104
    39    O    -40.513    118.427    -54.855
    40    C    -41.520    118.571    -55.841
    41    H    -40.990    118.694    -56.805
    42    N    -42.366    117.380    -55.935
    43    C    -43.125    117.019    -57.015
    44    N    -44.300    117.636    -60.219
    45    H    -43.868    118.501    -60.458
    46    H    -44.949    117.212    -60.858
    47    N    -43.232    117.700    -58.175
    48    C    -44.053    117.103    -59.033
    49    N    -44.659    115.903    -58.779
    50    H    -45.266    115.519    -59.486
    51    C    -44.546    115.165    -57.607
    52    O    -45.126    114.084    -57.462
    53    C    -43.715    115.819    -56.661
    54    N    -43.349    115.444    -55.370
    55    C    -42.543    116.405    -54.981
    56    H    -42.035    116.461    -54.017
    57    C    -42.309    119.829    -55.530
    58    H    -43.384    119.751    -55.810
    59    O    -41.713    120.937    -56.184
    60    H    -42.186    121.728    -55.884
    61    C    -42.145    119.926    -54.017
    62    H    -42.795    119.176    -53.510
    63    O    -42.291    121.254    -53.467
    64    P    -43.729    121.820    -53.173
    65    O    -44.510    120.772    -52.479
    66    O    -43.571    123.115    -52.477
    67    O    -44.359    122.109    -54.589
    68    C    -45.810    122.198    -54.696
    69    H    -46.193    123.079    -54.130
    70    H    -46.301    121.302    -54.258
    71    C    -46.279    122.336    -56.162
    72    H    -45.955    123.316    -56.577
    73    O    -45.663    121.311    -56.999
    74    C    -46.615    120.805    -57.922
    75    H    -46.128    120.888    -58.917
    76    N    -46.961    119.387    -57.671
    77    C    -46.856    118.651    -56.507
    78    N    -45.938    118.463    -53.177
    79    H    -45.962    117.811    -52.422
    80    H    -45.498    119.358    -53.039
    81    N    -46.411    119.093    -55.320
    82    C    -46.381    118.167    -54.388
    83    N    -46.835    116.893    -54.590
    84    H    -46.808    116.250    -53.820
    85    C    -47.337    116.406    -55.794
    86    O    -47.741    115.240    -55.893
    87    C    -47.312    117.391    -56.817
    88    N    -47.687    117.320    -58.152
    89    C    -47.472    118.524    -58.614
    90    H    -47.667    118.837    -59.641
    91    C    -47.823    121.713    -57.860
    92    H    -48.770    121.184    -58.089
    93    O    -47.660    122.801    -58.752
    94    H    -48.330    123.455    -58.510
    95    C    -47.796    122.174    -56.404
    96    H    -48.124    121.343    -55.736
    97    O    -48.497    123.424    -56.158
    98    P    -50.004    123.371    -55.688
    99    O    -50.114    122.408    -54.572
    100    O    -50.477    124.748    -55.427
    101    O    -50.787    122.792    -56.920
    102    C    -51.002    123.562    -58.124
    103    H    -50.033    123.863    -58.583
    104    H    -51.575    124.491    -57.900
    105    C    -51.789    122.743    -59.161
    106    H    -51.931    123.319    -60.101
    107    O    -51.036    121.539    -59.493
    108    C    -51.921    120.438    -59.597
    109    H    -51.746    119.991    -60.606
    110    N    -51.639    119.434    -58.563
    111    C    -51.548    117.553    -57.431
    112    N    -50.815    118.476    -56.699
    113    C    -50.892    119.571    -57.416
    114    H    -50.425    120.519    -57.155
    115    N    -52.658    115.579    -58.121
    116    C    -53.114    116.296    -59.147
    117    H    -53.774    115.765    -59.838
    118    N    -52.869    117.561    -59.480
    119    C    -52.069    118.135    -58.574
    120    C    -51.852    116.193    -57.210
    121    N    -51.387    115.514    -56.141
    122    H    -50.757    115.946    -55.492
    123    H    -51.506    114.521    -56.070
    124    C    -53.336    120.971    -59.526
    125    H    -54.044    120.261    -59.044
    126    O    -53.792    121.289    -60.827
    127    H    -54.656    121.714    -60.720
    128    C    -53.157    122.227    -58.680
    129    H    -53.030    121.952    -57.607
    130    O    -54.171    123.245    -58.874
    131    P    -55.541    123.082    -58.106
    132    O    -55.258    122.614    -56.730
    133    O    -56.309    124.346    -58.234
    134    O    -56.318    121.953    -58.894
    135    C    -57.359    121.219    -58.193
    136    H    -58.303    121.809    -58.184
    137    H    -57.083    121.006    -57.130
    138    C    -57.639    119.858    -58.846
    139    H    -58.016    119.979    -59.880
    140    O    -56.406    119.087    -58.918
    141    C    -56.672    117.731    -58.598
    142    H    -56.274    117.140    -59.454
    143    N    -55.988    117.291    -57.347
    144    C    -55.536    118.224    -56.438
    145    H    -55.713    119.274    -56.686
    146    C    -54.890    117.856    -55.325
    147    H    -54.510    118.586    -54.611
    148    C    -55.800    115.932    -57.092
    149    O    -56.213    115.099    -57.913
    150    N    -55.160    115.543    -55.967
    151    C    -54.691    116.462    -55.102
    152    N    -54.007    116.052    -54.034
    153    H    -53.882    115.070    -53.891
    154    H    -53.709    116.681    -53.313
    155    C    -58.180    117.569    -58.540
    156    H    -58.498    116.771    -57.839
    157    O    -58.686    117.292    -59.833
    158    H    -59.648    117.363    -59.785
    159    C    -58.606    118.952    -58.063
    160    H    -58.343    119.077    -56.986
    161    O    -59.976    119.308    -58.364
    162    P    -61.064    119.158    -57.232
    163    O    -60.536    119.706    -55.966
    164    O    -62.351    119.709    -57.705
    165    O    -61.205    117.595    -57.095
    166    C    -61.913    116.877    -58.136
    167    H    -61.439    117.034    -59.134
    168    H    -62.973    117.220    -58.202
    169    C    -61.941    115.375    -57.845
    170    H    -62.489    114.836    -58.648
    171    O    -60.588    114.841    -57.817
    172    C    -60.492    113.860    -56.795
    173    H    -60.127    112.925    -57.282
    174    N    -59.529    114.262    -55.759
    175    C    -58.922    113.434    -54.855
    176    N    -58.440    110.269    -53.533
    177    H    -59.085    109.715    -54.056
    178    H    -57.904    109.837    -52.802
    179    N    -59.126    112.108    -54.740
    180    C    -58.375    111.565    -53.785
    181    N    -57.497    112.283    -53.020
    182    H    -56.993    111.798    -52.293
    183    C    -57.291    113.657    -53.092
    184    O    -56.489    114.224    -52.344
    185    C    -58.088    114.244    -54.110
    186    N    -58.193    115.569    -54.517
    187    C    -59.063    115.532    -55.495
    188    H    -59.411    116.396    -56.063
    189    C    -61.886    113.630    -56.236
    190    H    -61.869    113.403    -55.147
    191    O    -62.526    112.571    -56.933
    192    H    -62.658    112.824    -57.863
    193    C    -62.543    114.985    -56.490
    194    H    -62.202    115.727    -55.736
    195    O    -63.979    114.958    -56.572
    196    H    -64.343    114.642    -55.729
    197    H    -51.938    107.441    -46.664
    198    O    -52.495    107.415    -47.465
    199    C    -53.208    106.170    -47.427
    200    H    -53.722    106.075    -46.443
    201    H    -52.476    105.337    -47.510
    202    C    -54.239    106.010    -48.551
    203    H    -54.675    104.987    -48.541
    204    O    -55.333    106.949    -48.356
    205    C    -55.761    107.443    -49.617
    206    H    -56.851    107.210    -49.684
    207    N    -55.555    108.907    -49.770
    208    C    -54.639    109.562    -48.981
    209    H    -54.123    108.955    -48.233
    210    C    -54.435    110.880    -49.097
    211    H    -53.731    111.419    -48.465
    212    C    -56.241    109.608    -50.758
    213    O    -57.029    108.997    -51.497
    214    N    -56.057    110.941    -50.886
    215    C    -55.176    111.579    -50.092
    216    N    -55.007    112.892    -50.239
    217    H    -55.500    113.376    -50.965
    218    H    -54.402    113.416    -49.632
    219    C    -55.029    106.652    -50.681
    220    H    -54.842    107.241    -51.603
    221    O    -55.761    105.488    -51.001
    222    H    -55.214    105.008    -51.629
    223    C    -53.726    106.307    -49.968
    224    H    -53.074    107.208    -49.900
    225    O    -53.030    105.150    -50.478
    226    P    -51.936    105.317    -51.597
    227    O    -51.045    106.443    -51.244
    228    O    -51.295    104.002    -51.805
    229    O    -52.772    105.714    -52.863
    230    C    -53.688    104.780    -53.480
    231    H    -54.402    104.337    -52.750
    232    H    -53.130    103.918    -53.907
    233    C    -54.448    105.452    -54.632
    234    H    -55.135    104.740    -55.136
    235    O    -55.259    106.563    -54.153
    236    C    -55.248    107.607    -55.123
    237    H    -56.308    107.800    -55.407
    238    N    -54.665    108.846    -54.575
    239    C    -54.846    110.128    -55.032
    240    N    -56.274    112.375    -57.257
    241    H    -56.773    111.784    -57.889
    242    H    -56.279    113.369    -57.409
    243    N    -55.589    110.498    -56.094
    244    C    -55.606    111.820    -56.262
    245    N    -54.933    112.689    -55.450
    246    H    -54.988    113.678    -55.647
    247    C    -54.156    112.342    -54.352
    248    O    -53.594    113.204    -53.673
    249    C    -54.127    110.934    -54.168
    250    N    -53.484    110.172    -53.202
    251    C    -53.826    108.939    -53.489
    252    H    -53.502    108.050    -52.946
    253    C    -54.484    107.095    -56.328
    254    H    -53.925    107.907    -56.833
    255    O    -55.364    106.483    -57.250
    256    H    -54.808    106.037    -57.910
    257    C    -53.537    106.077    -55.688
    258    H    -52.724    106.640    -55.172
    259    O    -53.053    105.049    -56.580
    260    P    -51.602    104.455    -56.403
    261    O    -50.681    105.478    -55.833
    262    O    -51.707    103.179    -55.678
    263    O    -51.130    104.082    -57.868
    264    C    -50.401    105.044    -58.675
    265    H    -49.673    104.494    -59.311
    266    H    -49.800    105.755    -58.062
    267    C    -51.317    105.859    -59.604
    268    H    -51.851    105.176    -60.293
    269    O    -52.338    106.544    -58.836
    270    C    -52.508    107.853    -59.309
    271    H    -53.603    107.996    -59.448
    272    N    -52.020    108.836    -58.336
    273    C    -52.278    110.172    -58.373
    274    N    -53.718    112.887    -59.947
    275    H    -53.905    113.845    -59.755
    276    H    -54.194    112.440    -60.702
    277    N    -52.991    110.807    -59.317
    278    C    -53.070    112.111    -59.095
    279    N    -52.538    112.721    -57.991
    280    H    -52.601    113.727    -57.924
    281    C    -51.798    112.085    -56.996
    282    O    -51.345    112.702    -56.029
    283    C    -51.674    110.697    -57.249
    284    N    -51.037    109.702    -56.518
    285    C    -51.273    108.607    -57.199
    286    H    -50.942    107.604    -56.920
    287    C    -51.804    107.930    -60.634
    288    H    -51.448    108.953    -60.870
    289    O    -52.674    107.479    -61.657
    290    H    -52.120    107.339    -62.435
    291    C    -50.644    106.960    -60.424
    292    H    -49.869    107.413    -59.762
    293    O    -50.096    106.394    -61.636
    294    P    -48.954    107.180    -62.378
    295    O    -47.942    107.577    -61.376
    296    O    -48.480    106.342    -63.500
    297    O    -49.679    108.471    -62.917
    298    C    -50.515    108.418    -64.095
    299    H    -51.463    107.877    -63.881
    300    H    -49.997    107.889    -64.928
    301    C    -50.876    109.820    -64.597
    302    H    -51.545    109.768    -65.483
    303    O    -51.583    110.554    -63.558
    304    C    -51.176    111.915    -63.585
    305    H    -52.101    112.519    -63.732
    306    N    -50.553    112.312    -62.321
    307    C    -49.742    113.481    -60.648
    308    N    -49.671    112.147    -60.262
    309    C    -50.160    111.497    -61.290
    310    H    -50.258    110.414    -61.370
    311    N    -49.564    115.840    -60.687
    312    C    -50.072    115.785    -61.916
    313    H    -50.180    116.757    -62.411
    314    N    -50.481    114.719    -62.612
    315    C    -50.281    113.591    -61.917
    316    C    -49.382    114.679    -60.004
    317    N    -48.873    114.722    -58.766
    318    H    -48.670    113.903    -58.230
    319    H    -48.479    115.598    -58.465
    320    C    -50.261    112.101    -64.775
    321    H    -49.463    112.851    -64.592
    322    O    -51.031    112.482    -65.897
    323    H    -50.471    112.377    -66.680
    324    C    -49.672    110.704    -64.944
    325    H    -48.899    110.511    -64.163
    326    O    -49.210    110.399    -66.278
    327    P    -47.700    110.597    -66.660
    328    O    -46.882    109.723    -65.797
    329    O    -47.559    110.430    -68.127
    330    O    -47.406    112.087    -66.267
    331    C    -47.759    113.182    -67.137
    332    H    -48.860    113.233    -67.286
    333    H    -47.280    113.065    -68.134
    334    C    -47.312    114.527    -66.551
    335    H    -47.604    115.362    -67.223
    336    O    -47.976    114.755    -65.275
    337    C    -47.081    115.423    -64.394
    338    H    -47.604    116.364    -64.103
    339    N    -46.777    114.636    -63.168
    340    C    -46.863    113.262    -63.184
    341    H    -47.204    112.819    -64.119
    342    C    -46.589    112.533    -62.093
    343    H    -46.674    111.446    -62.075
    344    C    -46.302    115.283    -62.029
    345    O    -46.116    116.510    -62.060
    346    N    -46.050    114.567    -60.912
    347    C    -46.191    113.230    -60.915
    348    N    -45.982    112.554    -59.786
    349    H    -45.680    113.056    -58.974
    350    H    -46.045    111.557    -59.747
    351    C    -45.834    115.780    -65.187
    352    H    -44.915    115.758    -64.566
    353    O    -45.975    117.061    -65.780
    354    H    -45.258    117.156    -66.426
    355    C    -45.818    114.671    -66.231
    356    H    -45.502    113.711    -65.757
    357    O    -45.088    114.995    -67.430
    358    P    -43.778    114.213    -67.810
    359    O    -43.873    112.798    -67.399
    360    O    -43.479    114.469    -69.237
    361    O    -42.698    114.919    -66.905
    362    C    -42.255    116.247    -67.270
    363    H    -43.117    116.946    -67.384
    364    H    -41.707    116.220    -68.246
    365    C    -41.316    116.827    -66.209
    366    H    -40.900    117.804    -66.545
    367    O    -42.052    117.061    -64.975
    368    C    -41.214    116.756    -63.869
    369    H    -41.177    117.667    -63.232
    370    N    -41.762    115.646    -63.076
    371    C    -41.431    115.337    -61.786
    372    N    -39.591    115.984    -58.924
    373    H    -39.039    116.767    -59.199
    374    H    -39.508    115.624    -57.991
    375    N    -40.531    115.989    -61.028
    376    C    -40.438    115.476    -59.803
    377    N    -41.180    114.407    -59.378
    378    H    -41.036    114.072    -58.437
    379    C    -42.112    113.709    -60.140
    380    O    -42.731    112.750    -59.670
    381    C    -42.209    114.245    -61.454
    382    N    -43.006    113.860    -62.527
    383    C    -42.702    114.719    -63.471
    384    H    -43.121    114.736    -64.480
    385    C    -39.822    116.451    -64.405
    386    H    -39.308    115.678    -63.797
    387    O    -39.035    117.637    -64.438
    388    H    -38.240    117.472    -64.975
    389    C    -40.148    115.922    -65.798
    390    H    -40.522    114.878    -65.733
    391    O    -39.069    116.023    -66.743
    392    H    -38.358    115.400    -66.505
 $END
