!*** FMO 5.3 (Gamess) INPUT generated by Facio 22.1.1.32 ***
 $CONTRL RUNTYP=ENERGY NPRINT=-5 ISPHER=1 MAXIT=200 $END
 $SYSTEM MWORDS=63 MEMDDI=63 $END
 $GDDI NGROUP=1 $END
 $SCF DIRSCF=.TRUE. NPUNCH=0 $END
!*** NumCPU : 2  MemPerNode : 512MB
 $PCM SOLVNT=WATER IEF=-10 ICOMP=2 ICAV=1 IDISP=1 IFMO=-1 $END
 $PCMCAV RADII=SUAHF $END
 $TESCAV NTSALL=60 $END
 $FMOPRP
    NAODIR=200
    NGRFMO(1)=1, 1, 0, 0, 0,   0, 0, 0, 0, 0
    IPIEDA=1
    NPRINT=9
 $END
 $FMO
      SCFTYP(1)=RHF
      MODGRD=10
      MODMUL=0
      MAXCAO=5
      MAXBND=14
      NLAYER=1
      MPLEVL(1)=2
      NFRAG=12
      ICHARG(1)=-1, -1, -1, -1, -1, 0, -1, -1, -1, -1, -1, 0
      FRGNAM(1)=F1, F2, F3, F4, F5, F6, F7, F8, F9, F10, F11, F12
      indat(1)=0
               1   -33   0
               34   -67   0
               68   -101   0
               102   -134   0
               135   -165   0
               166   -198   0
               199   -229   0
               230   -263   0
               264   -297   0
               298   -330   0
               331   -361   0
               362   -392   0
 $END

 $FMOBND
   -34   33       6-31G*    MINI
   -68   67       6-31G*    MINI
   -102   101       6-31G*    MINI
   -135   134       6-31G*    MINI
   -166   165       6-31G*    MINI
   -199   198       6-31G*    MINI
   -230   229       6-31G*    MINI
   -264   263       6-31G*    MINI
   -298   297       6-31G*    MINI
   -331   330       6-31G*    MINI
   -362   361       6-31G*    MINI
 $END
 $FMOHYB
 6-31G*      15   5
   1 0  -0.065034   0.288264   0.000000   0.000000   0.604412
         0.290129   0.000000   0.000000   0.319045  -0.017106
        -0.017106   0.057934   0.000000   0.000000   0.000000
   0 1  -0.065040   0.288293   0.569832   0.000000  -0.201456
         0.290147   0.300783   0.000000  -0.106342   0.049598
        -0.017106  -0.008771   0.000000  -0.027223   0.000000
   0 1  -0.065039   0.288293  -0.284916  -0.493490  -0.201455
         0.290145  -0.150392  -0.260486  -0.106340  -0.000427
         0.032923  -0.008771   0.033353   0.013612   0.023576
   0 1  -0.065039   0.288293  -0.284916   0.493490  -0.201455
         0.290145  -0.150392   0.260486  -0.106340  -0.000427
         0.032923  -0.008771  -0.033353   0.013612  -0.023576
   0 1   1.010938  -0.011975   0.000000   0.000000   0.000000
        -0.054085   0.000000   0.000000  -0.000000  -0.003174
        -0.003174  -0.003174   0.000000   0.000000   0.000000
 MINI         5   5
   1 0  -0.104883   0.308874   0.000000   0.000000   0.521806
   0 1  -0.104883   0.308874   0.491961   0.000000  -0.173934
   0 1  -0.104883   0.308876  -0.245980  -0.426050  -0.173933
   0 1  -0.104883   0.308876  -0.245980   0.426050  -0.173933
   0 1   0.988209   0.063992   0.000000   0.000000   0.000000
 $END
 
 $DATA
 FMO calculation
 C1 
 H.1-1    1
      N31 6
   
 O.1-1    8
      N31 6
      d 1
      1 0.800 1.0
   
 C.1-1    6
      N31 6
      d 1
      1 0.800 1.0
   
 N.1-1    7
      N31 6
      d 1
      1 0.800 1.0
   
 P.1-1   15
      N31 6
      d 1
      1 0.550 1.0
   
 $END
 $FMOXYZ
    1    H    -40.130    112.278    -49.686
    2    O    -40.029    113.010    -50.323
    3    C    -38.920    113.799    -49.867
    4    H    -38.055    113.131    -49.660
    5    H    -39.198    114.307    -48.914
    6    C    -38.481    114.870    -50.870
    7    H    -37.661    115.488    -50.448
    8    O    -37.964    114.241    -52.083
    9    C    -38.398    114.995    -53.213
    10    H    -37.470    115.267    -53.769
    11    N    -39.292    114.224    -54.123
    12    C    -39.936    113.094    -53.673
    13    H    -39.747    112.810    -52.637
    14    C    -40.722    112.371    -54.480
    15    H    -41.225    111.467    -54.144
    16    C    -39.495    114.655    -55.433
    17    O    -38.931    115.689    -55.822
    18    N    -40.280    113.934    -56.265
    19    C    -40.886    112.818    -55.821
    20    N    -41.643    112.114    -56.661
    21    H    -41.795    112.454    -57.592
    22    H    -42.098    111.270    -56.377
    23    C    -39.041    116.267    -52.690
    24    H    -39.842    116.647    -53.359
    25    O    -38.056    117.264    -52.506
    26    H    -38.489    117.989    -52.041
    27    C    -39.598    115.804    -51.348
    28    H    -40.498    115.164    -51.509
    29    O    -39.812    116.858    -50.367
    30    P    -41.241    117.541    -50.370
    31    O    -42.284    116.497    -50.287
    32    O    -41.256    118.577    -49.316
    33    O    -41.331    118.231    -51.776
    34    C    -40.608    119.456    -52.030
    35    H    -39.508    119.297    -51.973
    36    H    -40.881    120.242    -51.282
    37    C    -40.934    119.986    -53.431
    38    H    -40.343    120.905    -53.651
    39    O    -40.567    119.011    -54.450
    40    C    -41.524    119.059    -55.500
    41    H    -40.953    119.294    -56.428
    42    N    -42.204    117.767    -55.671
    43    C    -42.823    117.319    -56.807
    44    N    -43.882    117.830    -60.069
    45    H    -43.541    118.746    -60.275
    46    H    -44.443    117.348    -60.750
    47    N    -42.926    117.987    -57.974
    48    C    -43.644    117.316    -58.874
    49    N    -44.109    116.046    -58.667
    50    H    -44.668    115.623    -59.393
    51    C    -43.988    115.316    -57.492
    52    O    -44.435    114.166    -57.391
    53    C    -43.284    116.049    -56.496
    54    N    -42.968    115.715    -55.180
    55    C    -42.333    116.770    -54.730
    56    H    -41.926    116.885    -53.723
    57    C    -42.492    120.193    -55.204
    58    H    -43.530    119.972    -55.540
    59    O    -42.031    121.383    -55.813
    60    H    -42.646    122.085    -55.550
    61    C    -42.416    120.290    -53.680
    62    H    -43.010    119.477    -53.208
    63    O    -42.714    121.573    -53.112
    64    P    -44.135    122.198    -52.965
    65    O    -44.969    121.307    -52.124
    66    O    -43.948    123.587    -52.482
    67    O    -44.717    122.268    -54.419
    68    C    -46.158    122.352    -54.601
    69    H    -46.567    123.266    -54.108
    70    H    -46.671    121.477    -54.133
    71    C    -46.557    122.417    -56.096
    72    H    -46.387    123.439    -56.494
    73    O    -45.730    121.517    -56.909
    74    C    -46.549    120.819    -57.836
    75    H    -46.059    120.954    -58.824
    76    N    -46.651    119.364    -57.557
    77    C    -46.466    118.686    -56.371
    78    N    -45.787    118.746    -52.990
    79    H    -45.771    118.121    -52.211
    80    H    -45.582    119.720    -52.849
    81    N    -46.165    119.225    -55.184
    82    C    -46.080    118.348    -54.213
    83    N    -46.285    117.007    -54.393
    84    H    -46.221    116.402    -53.595
    85    C    -46.592    116.405    -55.607
    86    O    -46.758    115.177    -55.695
    87    C    -46.686    117.355    -56.657
    88    N    -47.001    117.193    -57.992
    89    C    -46.981    118.404    -58.487
    90    H    -47.186    118.649    -59.531
    91    C    -47.894    121.503    -57.845
    92    H    -48.724    120.813    -58.101
    93    O    -47.885    122.587    -58.755
    94    H    -48.687    123.087    -58.563
    95    C    -48.008    121.994    -56.404
    96    H    -48.237    121.141    -55.724
    97    O    -48.900    123.119    -56.219
    98    P    -50.432    122.859    -55.960
    99    O    -50.553    121.830    -54.908
    100    O    -51.086    124.160    -55.697
    101    O    -50.971    122.267    -57.317
    102    C    -51.238    123.114    -58.458
    103    H    -50.291    123.531    -58.870
    104    H    -51.889    123.973    -58.180
    105    C    -51.953    122.333    -59.575
    106    H    -52.097    122.974    -60.470
    107    O    -51.144    121.198    -59.990
    108    C    -51.992    120.095    -60.273
    109    H    -51.774    119.790    -61.323
    110    N    -51.706    118.972    -59.380
    111    C    -51.612    116.970    -58.486
    112    N    -50.856    117.798    -57.666
    113    C    -50.934    118.969    -58.245
    114    H    -50.463    119.883    -57.881
    115    N    -52.742    115.099    -59.392
    116    C    -53.215    115.929    -60.318
    117    H    -53.888    115.465    -61.041
    118    N    -52.972    117.231    -60.494
    119    C    -52.154    117.689    -59.536
    120    C    -51.915    115.595    -58.434
    121    N    -51.429    114.775    -57.489
    122    H    -50.790    115.079    -56.782
    123    H    -51.721    113.813    -57.513
    124    C    -53.430    120.567    -60.169
    125    H    -54.114    119.786    -59.768
    126    O    -53.890    120.991    -61.441
    127    H    -54.753    121.416    -61.311
    128    C    -53.309    121.724    -59.185
    129    H    -53.198    121.339    -58.145
    130    O    -54.345    122.716    -59.299
    131    P    -55.696    122.565    -58.506
    132    O    -55.383    122.341    -57.079
    133    O    -56.521    123.745    -58.844
    134    O    -56.391    121.282    -59.098
    135    C    -57.419    120.624    -58.309
    136    H    -58.353    121.234    -58.296
    137    H    -57.089    120.482    -57.251
    138    C    -57.752    119.228    -58.860
    139    H    -58.308    119.308    -59.823
    140    O    -56.522    118.497    -59.140
    141    C    -56.666    117.140    -58.748
    142    H    -56.399    116.540    -59.648
    143    N    -55.747    116.775    -57.632
    144    C    -55.152    117.764    -56.871
    145    H    -55.402    118.795    -57.132
    146    C    -54.301    117.464    -55.882
    147    H    -53.808    118.229    -55.286
    148    C    -55.487    115.435    -57.347
    149    O    -56.050    114.551    -58.014
    150    N    -54.632    115.121    -56.350
    151    C    -54.032    116.089    -55.634
    152    N    -53.163    115.751    -54.681
    153    H    -53.036    114.780    -54.473
    154    H    -52.686    116.437    -54.128
    155    C    -58.134    116.920    -58.418
    156    H    -58.284    116.139    -57.643
    157    O    -58.856    116.577    -59.593
    158    H    -59.802    116.629    -59.383
    159    C    -58.520    118.300    -57.897
    160    H    -58.062    118.445    -56.888
    161    O    -59.937    118.588    -57.938
    162    P    -60.737    118.822    -56.601
    163    O    -59.883    119.549    -55.637
    164    O    -62.044    119.449    -56.916
    165    O    -60.969    117.352    -56.081
    166    C    -61.988    116.523    -56.694
    167    H    -61.825    116.418    -57.793
    168    H    -62.997    116.960    -56.531
    169    C    -62.026    115.125    -56.067
    170    H    -62.850    114.514    -56.497
    171    O    -60.782    114.431    -56.349
    172    C    -60.417    113.655    -55.221
    173    H    -60.305    112.608    -55.579
    174    N    -59.135    114.103    -54.662
    175    C    -58.324    113.378    -53.834
    176    N    -57.665    110.487    -52.048
    177    H    -58.483    109.937    -52.211
    178    H    -56.936    110.123    -51.463
    179    N    -58.570    112.136    -53.380
    180    C    -57.588    111.681    -52.604
    181    N    -56.459    112.399    -52.322
    182    H    -55.770    111.985    -51.714
    183    C    -56.184    113.684    -52.768
    184    O    -55.136    114.253    -52.452
    185    C    -57.232    114.186    -53.585
    186    N    -57.360    115.406    -54.239
    187    C    -58.503    115.308    -54.875
    188    H    -58.950    116.077    -55.510
    189    C    -61.554    113.724    -54.213
    190    H    -61.185    113.694    -53.165
    191    O    -62.463    112.654    -54.440
    192    H    -63.242    112.771    -53.865
    193    C    -62.154    115.089    -54.537
    194    H    -61.517    115.897    -54.119
    195    O    -63.527    115.260    -54.140
    196    H    -63.616    115.208    -53.169
    197    H    -49.392    108.051    -47.260
    198    O    -50.234    107.996    -47.753
    199    C    -50.967    106.886    -47.214
    200    H    -51.125    107.055    -46.127
    201    H    -50.359    105.961    -47.334
    202    C    -52.335    106.663    -47.873
    203    H    -52.804    105.734    -47.478
    204    O    -53.229    107.765    -47.544
    205    C    -54.023    108.074    -48.685
    206    H    -55.085    108.016    -48.345
    207    N    -53.758    109.438    -49.221
    208    C    -52.577    110.086    -48.934
    209    H    -51.887    109.564    -48.269
    210    C    -52.331    111.320    -49.393
    211    H    -51.417    111.856    -49.138
    212    C    -54.679    110.038    -50.076
    213    O    -55.705    109.415    -50.390
    214    N    -54.464    111.293    -50.524
    215    C    -53.328    111.937    -50.201
    216    N    -53.155    113.185    -50.629
    217    H    -53.789    113.551    -51.314
    218    H    -52.315    113.691    -50.430
    219    C    -53.780    106.991    -49.714
    220    H    -53.885    107.360    -50.756
    221    O    -54.669    105.909    -49.500
    222    H    -54.365    105.185    -50.062
    223    C    -52.339    106.602    -49.407
    224    H    -51.640    107.391    -49.769
    225    O    -51.963    105.279    -49.840
    226    P    -51.380    105.067    -51.286
    227    O    -50.180    105.915    -51.448
    228    O    -51.203    103.612    -51.495
    229    O    -52.516    105.595    -52.242
    230    C    -53.649    104.743    -52.531
    231    H    -54.266    104.572    -51.623
    232    H    -53.313    103.748    -52.907
    233    C    -54.557    105.350    -53.604
    234    H    -55.407    104.669    -53.826
    235    O    -55.141    106.600    -53.144
    236    C    -55.212    107.504    -54.240
    237    H    -56.277    107.816    -54.327
    238    N    -54.379    108.698    -54.012
    239    C    -54.564    109.927    -54.586
    240    N    -56.252    111.996    -56.806
    241    H    -56.937    111.389    -57.202
    242    H    -56.143    112.927    -57.169
    243    N    -55.536    110.258    -55.457
    244    C    -55.430    111.517    -55.883
    245    N    -54.525    112.403    -55.370
    246    H    -54.473    113.320    -55.790
    247    C    -53.536    112.106    -54.437
    248    O    -52.758    112.970    -54.025
    249    C    -53.575    110.735    -54.058
    250    N    -52.753    110.011    -53.199
    251    C    -53.270    108.804    -53.202
    252    H    -52.900    107.953    -52.627
    253    C    -54.799    106.750    -55.493
    254    H    -54.267    107.396    -56.228
    255    O    -55.934    106.158    -56.109
    256    H    -55.603    105.581    -56.814
    257    C    -53.859    105.695    -54.918
    258    H    -52.879    106.154    -54.653
    259    O    -53.712    104.494    -55.703
    260    P    -52.694    104.463    -56.888
    261    O    -51.383    104.963    -56.416
    262    O    -52.741    103.103    -57.476
    263    O    -53.298    105.443    -57.956
    264    C    -52.395    105.970    -58.966
    265    H    -51.948    105.157    -59.582
    266    H    -51.548    106.499    -58.475
    267    C    -53.083    106.981    -59.910
    268    H    -53.745    106.449    -60.620
    269    O    -53.925    107.906    -59.151
    270    C    -53.757    109.220    -59.655
    271    H    -54.784    109.600    -59.842
    272    N    -53.073    110.135    -58.713
    273    C    -52.203    109.869    -57.669
    274    N    -50.464    107.581    -55.743
    275    H    -49.783    107.572    -55.016
    276    H    -50.812    106.709    -56.108
    277    N    -51.779    108.661    -57.269
    278    C    -50.938    108.705    -56.256
    279    N    -50.467    109.879    -55.733
    280    H    -49.846    109.840    -54.946
    281    C    -50.855    111.152    -56.141
    282    O    -50.376    112.164    -55.616
    283    C    -51.834    111.095    -57.169
    284    N    -52.497    112.111    -57.831
    285    C    -53.206    111.505    -58.745
    286    H    -53.844    112.015    -59.472
    287    C    -53.016    109.103    -60.963
    288    H    -52.415    110.004    -61.206
    289    O    -53.932    108.850    -62.010
    290    H    -53.397    108.578    -62.764
    291    C    -52.125    107.895    -60.704
    292    H    -51.293    108.164    -60.011
    293    O    -51.667    107.223    -61.899
    294    P    -50.331    107.684    -62.597
    295    O    -49.265    107.751    -61.576
    296    O    -50.078    106.796    -63.750
    297    O    -50.652    109.136    -63.129
    298    C    -51.474    109.289    -64.318
    299    H    -52.513    108.935    -64.133
    300    H    -51.074    108.680    -65.156
    301    C    -51.559    110.753    -64.786
    302    H    -52.269    110.864    -65.632
    303    O    -52.061    111.577    -63.697
    304    C    -51.354    112.802    -63.667
    305    H    -52.123    113.604    -63.723
    306    N    -50.603    112.955    -62.421
    307    C    -49.453    113.819    -60.768
    308    N    -49.648    112.482    -60.442
    309    C    -50.348    112.017    -61.450
    310    H    -50.704    110.992    -61.547
    311    N    -48.731    116.076    -60.744
    312    C    -49.297    116.185    -61.946
    313    H    -49.205    117.162    -62.419
    314    N    -49.990    115.286    -62.644
    315    C    -50.027    114.117    -61.993
    316    C    -48.794    114.874    -60.108
    317    N    -48.215    114.734    -58.905
    318    H    -48.321    113.917    -58.336
    319    H    -47.754    115.548    -58.536
    320    C    -50.467    112.871    -64.896
    321    H    -49.507    113.398    -64.704
    322    O    -51.159    113.514    -65.953
    323    H    -50.627    113.404    -66.756
    324    C    -50.220    111.395    -65.190
    325    H    -49.459    110.984    -64.487
    326    O    -49.924    111.093    -66.573
    327    P    -48.438    111.169    -67.088
    328    O    -47.568    110.405    -66.168
    329    O    -48.408    110.747    -68.504
    330    O    -48.074    112.703    -67.012
    331    C    -46.664    113.074    -66.994
    332    H    -46.234    112.989    -68.017
    333    H    -46.072    112.412    -66.316
    334    C    -46.423    114.513    -66.494
    335    H    -46.762    115.251    -67.252
    336    O    -47.206    114.762    -65.293
    337    C    -46.434    115.511    -64.366
    338    H    -47.060    116.392    -64.095
    339    N    -46.119    114.738    -63.133
    340    C    -46.232    113.363    -63.125
    341    H    -46.577    112.899    -64.052
    342    C    -45.950    112.650    -62.027
    343    H    -46.035    111.565    -62.003
    344    C    -45.654    115.400    -61.998
    345    O    -45.488    116.630    -62.037
    346    N    -45.387    114.695    -60.879
    347    C    -45.525    113.358    -60.866
    348    N    -45.250    112.692    -59.747
    349    H    -44.920    113.208    -58.954
    350    H    -45.297    111.694    -59.698
    351    C    -45.189    115.987    -65.093
    352    H    -44.315    116.104    -64.419
    353    O    -45.449    117.214    -65.749
    354    H    -44.722    117.375    -66.369
    355    C    -44.978    114.852    -66.084
    356    H    -44.587    113.962    -65.537
    357    O    -44.193    115.214    -67.243
    358    P    -42.806    114.524    -67.511
    359    O    -42.857    113.111    -67.073
    360    O    -42.384    114.770    -68.909
    361    O    -41.844    115.320    -66.542
    362    C    -41.519    116.693    -66.877
    363    H    -42.440    117.312    -67.019
    364    H    -40.936    116.729    -67.827
    365    C    -40.662    117.350    -65.786
    366    H    -40.314    118.354    -66.117
    367    O    -41.464    117.546    -64.586
    368    C    -40.658    117.302    -63.441
    369    H    -40.719    118.207    -62.795
    370    N    -41.152    116.141    -62.686
    371    C    -40.871    115.858    -61.379
    372    N    -39.251    116.650    -58.425
    373    H    -38.741    117.469    -58.674
    374    H    -39.173    116.284    -57.493
    375    N    -40.089    116.592    -60.569
    376    C    -40.009    116.079    -59.344
    377    N    -40.665    114.938    -58.963
    378    H    -40.537    114.608    -58.019
    379    C    -41.468    114.152    -59.783
    380    O    -42.011    113.129    -59.352
    381    C    -41.552    114.690    -61.096
    382    N    -42.242    114.236    -62.217
    383    C    -41.977    115.133    -63.137
    384    H    -42.352    115.129    -64.163
    385    C    -39.222    117.114    -63.912
    386    H    -38.668    116.394    -63.273
    387    O    -38.546    118.365    -63.930
    388    H    -37.673    118.260    -64.353
    389    C    -39.442    116.545    -65.311
    390    H    -39.734    115.474    -65.248
    391    O    -38.334    116.718    -66.211
    392    H    -37.565    116.217    -65.885
 $END
