!*** FMO 5.3 (Gamess) INPUT generated by Facio 22.1.1.32 ***
 $CONTRL RUNTYP=ENERGY NPRINT=-5 ISPHER=1 MAXIT=200 $END
 $SYSTEM MWORDS=63 MEMDDI=63 $END
 $GDDI NGROUP=1 $END
 $SCF DIRSCF=.TRUE. NPUNCH=0 $END
!*** NumCPU : 2  MemPerNode : 512MB
 $PCM SOLVNT=WATER IEF=-10 ICOMP=2 ICAV=1 IDISP=1 IFMO=-1 $END
 $PCMCAV RADII=SUAHF $END
 $TESCAV NTSALL=60 $END
 $FMOPRP
    NAODIR=200
    NGRFMO(1)=1, 1, 0, 0, 0,   0, 0, 0, 0, 0
    IPIEDA=1
    NPRINT=9
 $END
 $FMO
      SCFTYP(1)=RHF
      MODGRD=10
      MODMUL=0
      MAXCAO=5
      MAXBND=14
      NLAYER=1
      MPLEVL(1)=2
      NFRAG=12
      ICHARG(1)=-1, -1, -1, -1, -1, 0, -1, -1, -1, -1, -1, 0
      FRGNAM(1)=F1, F2, F3, F4, F5, F6, F7, F8, F9, F10, F11, F12
      indat(1)=0
               1   -33   0
               34   -67   0
               68   -101   0
               102   -134   0
               135   -165   0
               166   -198   0
               199   -229   0
               230   -263   0
               264   -297   0
               298   -330   0
               331   -361   0
               362   -392   0
 $END

 $FMOBND
   -34   33       6-31G*    MINI
   -68   67       6-31G*    MINI
   -102   101       6-31G*    MINI
   -135   134       6-31G*    MINI
   -166   165       6-31G*    MINI
   -199   198       6-31G*    MINI
   -230   229       6-31G*    MINI
   -264   263       6-31G*    MINI
   -298   297       6-31G*    MINI
   -331   330       6-31G*    MINI
   -362   361       6-31G*    MINI
 $END
 $FMOHYB
 6-31G*      15   5
   1 0  -0.065034   0.288264   0.000000   0.000000   0.604412
         0.290129   0.000000   0.000000   0.319045  -0.017106
        -0.017106   0.057934   0.000000   0.000000   0.000000
   0 1  -0.065040   0.288293   0.569832   0.000000  -0.201456
         0.290147   0.300783   0.000000  -0.106342   0.049598
        -0.017106  -0.008771   0.000000  -0.027223   0.000000
   0 1  -0.065039   0.288293  -0.284916  -0.493490  -0.201455
         0.290145  -0.150392  -0.260486  -0.106340  -0.000427
         0.032923  -0.008771   0.033353   0.013612   0.023576
   0 1  -0.065039   0.288293  -0.284916   0.493490  -0.201455
         0.290145  -0.150392   0.260486  -0.106340  -0.000427
         0.032923  -0.008771  -0.033353   0.013612  -0.023576
   0 1   1.010938  -0.011975   0.000000   0.000000   0.000000
        -0.054085   0.000000   0.000000  -0.000000  -0.003174
        -0.003174  -0.003174   0.000000   0.000000   0.000000
 MINI         5   5
   1 0  -0.104883   0.308874   0.000000   0.000000   0.521806
   0 1  -0.104883   0.308874   0.491961   0.000000  -0.173934
   0 1  -0.104883   0.308876  -0.245980  -0.426050  -0.173933
   0 1  -0.104883   0.308876  -0.245980   0.426050  -0.173933
   0 1   0.988209   0.063992   0.000000   0.000000   0.000000
 $END
 
 $DATA
 FMO calculation
 C1 
 H.1-1    1
      N31 6
   
 O.1-1    8
      N31 6
      d 1
      1 0.800 1.0
   
 C.1-1    6
      N31 6
      d 1
      1 0.800 1.0
   
 N.1-1    7
      N31 6
      d 1
      1 0.800 1.0
   
 P.1-1   15
      N31 6
      d 1
      1 0.550 1.0
   
 $END
 $FMOXYZ
    1    H    -39.802    110.325    -51.634
    2    O    -39.749    111.102    -52.219
    3    C    -38.739    111.966    -51.675
    4    H    -37.773    111.413    -51.626
    5    H    -39.032    112.247    -50.641
    6    C    -38.527    113.254    -52.480
    7    H    -37.751    113.900    -52.013
    8    O    -38.056    112.927    -53.822
    9    C    -38.667    113.804    -54.761
    10    H    -37.825    114.288    -55.311
    11    N    -39.532    113.086    -55.743
    12    C    -40.003    111.821    -55.465
    13    H    -39.697    111.391    -54.510
    14    C    -40.761    111.148    -56.339
    15    H    -41.138    110.145    -56.136
    16    C    -39.897    113.704    -56.936
    17    O    -39.490    114.854    -57.171
    18    N    -40.648    113.036    -57.840
    19    C    -41.079    111.790    -57.569
    20    N    -41.802    111.144    -58.482
    21    H    -42.083    111.623    -59.316
    22    H    -42.142    110.215    -58.316
    23    C    -39.421    114.862    -53.973
    24    H    -40.323    115.227    -54.505
    25    O    -38.572    115.952    -53.675
    26    H    -39.098    116.569    -53.150
    27    C    -39.791    114.096    -52.709
    28    H    -40.605    113.370    -52.939
    29    O    -40.056    114.922    -51.546
    30    P    -41.560    115.184    -51.134
    31    O    -42.349    113.957    -51.357
    32    O    -41.610    115.747    -49.765
    33    O    -42.002    116.294    -52.154
    34    C    -41.384    117.602    -52.092
    35    H    -40.272    117.529    -52.030
    36    H    -41.733    118.151    -51.186
    37    C    -41.752    118.438    -53.322
    38    H    -41.255    119.433    -53.291
    39    O    -41.281    117.766    -54.523
    40    C    -42.226    117.956    -55.564
    41    H    -41.674    118.426    -56.411
    42    N    -42.795    116.681    -56.020
    43    C    -43.374    116.458    -57.237
    44    N    -44.475    117.587    -60.330
    45    H    -44.275    118.566    -60.307
    46    H    -44.937    117.209    -61.138
    47    N    -43.540    117.370    -58.216
    48    C    -44.169    116.853    -59.275
    49    N    -44.517    115.536    -59.370
    50    H    -44.993    115.245    -60.210
    51    C    -44.330    114.573    -58.390
    52    O    -44.680    113.404    -58.569
    53    C    -43.721    115.118    -57.236
    54    N    -43.393    114.515    -56.031
    55    C    -42.857    115.487    -55.332
    56    H    -42.478    115.400    -54.312
    57    C    -43.284    118.911    -55.062
    58    H    -44.289    118.695    -55.489
    59    O    -42.899    120.243    -55.361
    60    H    -43.416    120.829    -54.788
    61    C    -43.257    118.651    -53.561
    62    H    -43.761    117.683    -53.325
    63    O    -43.739    119.756    -52.761
    64    P    -45.236    119.759    -52.259
    65    O    -45.455    118.579    -51.399
    66    O    -45.535    121.080    -51.659
    67    O    -46.114    119.587    -53.547
    68    C    -46.261    120.567    -54.594
    69    H    -45.277    120.820    -55.035
    70    H    -46.683    121.514    -54.200
    71    C    -47.160    120.093    -55.759
    72    H    -47.047    120.779    -56.627
    73    O    -46.824    118.737    -56.175
    74    C    -47.850    117.850    -55.760
    75    H    -48.415    117.602    -56.686
    76    N    -47.289    116.635    -55.161
    77    C    -47.235    115.399    -55.747
    78    N    -47.939    113.272    -58.362
    79    H    -47.902    112.282    -58.498
    80    H    -48.515    113.799    -58.991
    81    N    -47.705    115.074    -56.965
    82    C    -47.518    113.788    -57.236
    83    N    -46.909    112.901    -56.389
    84    H    -46.747    111.963    -56.709
    85    C    -46.401    113.222    -55.140
    86    O    -45.855    112.371    -54.434
    87    C    -46.617    114.583    -54.819
    88    N    -46.288    115.291    -53.676
    89    C    -46.698    116.507    -53.923
    90    H    -46.593    117.343    -53.234
    91    C    -48.756    118.607    -54.811
    92    H    -48.373    118.586    -53.768
    93    O    -50.085    118.144    -54.853
    94    H    -50.496    118.625    -55.592
    95    C    -48.651    120.017    -55.380
    96    H    -48.812    120.752    -54.553
    97    O    -49.515    120.268    -56.527
    98    P    -50.825    121.121    -56.296
    99    O    -51.618    120.451    -55.249
    100    O    -50.441    122.530    -56.055
    101    O    -51.607    120.975    -57.652
    102    C    -51.564    122.009    -58.658
    103    H    -50.525    122.389    -58.808
    104    H    -52.207    122.865    -58.349
    105    C    -52.084    121.493    -60.005
    106    H    -52.039    122.282    -60.786
    107    O    -51.239    120.388    -60.448
    108    C    -52.053    119.341    -60.951
    109    H    -51.659    119.098    -61.965
    110    N    -51.978    118.142    -60.102
    111    C    -52.160    116.081    -59.340
    112    N    -51.411    116.777    -58.406
    113    C    -51.321    117.989    -58.903
    114    H    -50.786    118.822    -58.442
    115    N    -53.293    114.378    -60.517
    116    C    -53.577    115.297    -61.434
    117    H    -54.155    114.931    -62.293
    118    N    -53.224    116.581    -61.473
    119    C    -52.513    116.915    -60.390
    120    C    -52.578    114.733    -59.422
    121    N    -52.320    113.764    -58.520
    122    H    -51.680    113.862    -57.747
    123    H    -52.648    112.845    -58.717
    124    C    -53.458    119.881    -61.093
    125    H    -54.232    119.097    -60.956
    126    O    -53.619    120.483    -62.365
    127    H    -54.424    121.022    -62.333
    128    C    -53.508    120.903    -59.977
    129    H    -53.611    120.381    -58.997
    130    O    -54.502    121.931    -60.192
    131    P    -55.734    122.036    -59.222
    132    O    -55.241    121.954    -57.834
    133    O    -56.533    123.227    -59.581
    134    O    -56.578    120.745    -59.541
    135    C    -57.143    120.492    -60.846
    136    H    -56.397    120.657    -61.658
    137    H    -57.998    121.181    -61.034
    138    C    -57.665    119.050    -60.965
    139    H    -58.224    118.911    -61.917
    140    O    -56.534    118.130    -60.998
    141    C    -56.830    116.982    -60.212
    142    H    -56.628    116.105    -60.869
    143    N    -55.977    116.873    -58.988
    144    C    -55.319    117.983    -58.511
    145    H    -55.435    118.891    -59.095
    146    C    -54.545    117.935    -57.422
    147    H    -54.005    118.804    -57.050
    148    C    -55.857    115.663    -58.303
    149    O    -56.475    114.666    -58.712
    150    N    -55.061    115.589    -57.213
    151    C    -54.428    116.685    -56.760
    152    N    -53.684    116.601    -55.663
    153    H    -53.632    115.728    -55.168
    154    H    -53.224    117.396    -55.274
    155    C    -58.312    117.037    -59.899
    156    H    -58.563    116.522    -58.952
    157    O    -59.049    116.463    -60.963
    158    H    -59.981    116.630    -60.784
    159    C    -58.544    118.545    -59.807
    160    H    -58.093    118.937    -58.867
    161    O    -59.914    118.982    -60.001
    162    P    -60.826    119.204    -58.731
    163    O    -60.106    120.021    -57.733
    164    O    -62.149    119.703    -59.166
    165    O    -60.986    117.755    -58.151
    166    C    -61.801    116.793    -58.854
    167    H    -61.439    116.628    -59.894
    168    H    -62.854    117.147    -58.918
    169    C    -61.794    115.450    -58.124
    170    H    -62.434    114.715    -58.658
    171    O    -60.446    114.908    -58.089
    172    C    -60.228    114.261    -56.846
    173    H    -59.920    113.216    -57.081
    174    N    -59.153    114.915    -56.086
    175    C    -58.445    114.360    -55.057
    176    N    -57.830    111.704    -52.923
    177    H    -58.519    111.037    -53.197
    178    H    -57.220    111.486    -52.156
    179    N    -58.622    113.126    -54.554
    180    C    -57.796    112.869    -53.542
    181    N    -56.864    113.768    -53.090
    182    H    -56.276    113.493    -52.318
    183    C    -56.658    115.050    -53.591
    184    O    -55.794    115.799    -53.123
    185    C    -57.547    115.334    -54.660
    186    N    -57.694    116.485    -55.424
    187    C    -58.661    116.189    -56.258
    188    H    -59.064    116.857    -57.019
    189    C    -61.547    114.250    -56.091
    190    H    -61.407    114.342    -54.990
    191    O    -62.260    113.057    -56.375
    192    H    -62.479    113.027    -57.321
    193    C    -62.230    115.494    -56.657
    194    H    -61.812    116.414    -56.191
    195    O    -63.665    115.482    -56.577
    196    H    -63.936    115.467    -55.642
    197    H    -50.545    110.723    -46.372
    198    O    -51.288    110.553    -46.980
    199    C    -51.947    109.370    -46.507
    200    H    -52.350    109.558    -45.487
    201    H    -51.197    108.554    -46.428
    202    C    -53.090    108.896    -47.416
    203    H    -53.506    107.932    -47.039
    204    O    -54.179    109.864    -47.400
    205    C    -54.720    109.977    -48.711
    206    H    -55.811    109.768    -48.606
    207    N    -54.534    111.337    -49.297
    208    C    -53.544    112.171    -48.828
    209    H    -52.944    111.791    -48.001
    210    C    -53.358    113.394    -49.340
    211    H    -52.586    114.066    -48.969
    212    C    -55.340    111.756    -50.351
    213    O    -56.213    110.986    -50.784
    214    N    -55.198    113.004    -50.854
    215    C    -54.215    113.806    -50.400
    216    N    -54.064    115.019    -50.934
    217    H    -54.602    115.275    -51.740
    218    H    -53.357    115.649    -50.608
    219    C    -54.092    108.889    -49.565
    220    H    -53.997    109.190    -50.628
    221    O    -54.841    107.693    -49.485
    222    H    -54.335    107.021    -49.958
    223    C    -52.728    108.737    -48.901
    224    H    -52.084    109.608    -49.169
    225    O    -52.079    107.461    -49.106
    226    P    -50.953    107.323    -50.197
    227    O    -50.025    108.470    -50.110
    228    O    -50.354    105.978    -50.055
    229    O    -51.749    107.392    -51.550
    230    C    -52.522    106.234    -51.955
    231    H    -53.249    105.933    -51.163
    232    H    -51.851    105.364    -52.147
    233    C    -53.304    106.515    -53.242
    234    H    -53.858    105.610    -53.576
    235    O    -54.289    107.554    -52.980
    236    C    -54.405    108.384    -54.128
    237    H    -55.477    108.369    -54.431
    238    N    -54.007    109.765    -53.865
    239    C    -54.414    110.861    -54.577
    240    N    -56.150    112.264    -57.230
    241    H    -56.549    111.465    -57.678
    242    H    -56.229    113.162    -57.672
    243    N    -55.261    110.862    -55.630
    244    C    -55.383    112.073    -56.168
    245    N    -54.792    113.190    -55.645
    246    H    -54.948    114.070    -56.115
    247    C    -53.946    113.219    -54.543
    248    O    -53.451    114.275    -54.141
    249    C    -53.769    111.931    -53.990
    250    N    -52.975    111.516    -52.931
    251    C    -53.132    110.217    -52.907
    252    H    -52.657    109.530    -52.207
    253    C    -53.561    107.778    -55.221
    254    H    -53.114    108.557    -55.880
    255    O    -54.340    106.880    -55.989
    256    H    -53.730    106.333    -56.507
    257    C    -52.480    107.052    -54.425
    258    H    -51.747    107.781    -54.010
    259    O    -51.840    105.959    -55.122
    260    P    -50.590    106.222    -56.053
    261    O    -49.384    106.488    -55.241
    262    O    -50.513    105.116    -57.031
    263    O    -50.911    107.553    -56.808
    264    C    -51.644    107.625    -58.045
    265    H    -52.732    107.523    -57.846
    266    H    -51.357    106.811    -58.753
    267    C    -51.461    108.981    -58.753
    268    H    -52.207    109.063    -59.567
    269    O    -51.633    110.102    -57.840
    270    C    -50.384    110.725    -57.618
    271    H    -50.413    111.675    -58.199
    272    N    -50.192    111.003    -56.187
    273    C    -50.308    112.230    -55.590
    274    N    -50.798    115.635    -55.821
    275    H    -50.648    116.438    -55.243
    276    H    -50.915    115.799    -56.804
    277    N    -50.595    113.388    -56.215
    278    C    -50.601    114.417    -55.379
    279    N    -50.373    114.311    -54.037
    280    H    -50.513    115.125    -53.463
    281    C    -50.136    113.125    -53.356
    282    O    -49.962    113.141    -52.135
    283    C    -50.061    112.014    -54.247
    284    N    -49.801    110.663    -54.003
    285    C    -49.906    110.101    -55.184
    286    H    -49.801    109.032    -55.374
    287    C    -49.310    109.825    -58.198
    288    H    -48.972    109.057    -57.469
    289    O    -48.215    110.542    -58.716
    290    H    -48.515    110.776    -59.613
    291    C    -50.062    109.170    -59.347
    292    H    -49.628    108.151    -59.503
    293    O    -50.080    109.976    -60.563
    294    P    -49.786    109.253    -61.932
    295    O    -48.353    108.879    -61.956
    296    O    -50.774    108.165    -62.120
    297    O    -50.039    110.412    -62.972
    298    C    -51.064    110.263    -63.988
    299    H    -51.991    109.798    -63.572
    300    H    -50.692    109.609    -64.808
    301    C    -51.483    111.612    -64.597
    302    H    -52.300    111.475    -65.340
    303    O    -52.005    112.455    -63.533
    304    C    -51.521    113.777    -63.676
    305    H    -52.414    114.444    -63.663
    306    N    -50.629    114.145    -62.566
    307    C    -49.369    115.275    -61.153
    308    N    -49.446    113.984    -60.664
    309    C    -50.205    113.352    -61.526
    310    H    -50.498    112.301    -61.457
    311    N    -48.893    117.573    -61.395
    312    C    -49.606    117.522    -62.520
    313    H    -49.691    118.477    -63.049
    314    N    -50.255    116.492    -63.066
    315    C    -50.097    115.387    -62.327
    316    C    -48.739    116.444    -60.666
    317    N    -48.010    116.537    -59.536
    318    H    -48.023    115.856    -58.794
    319    H    -47.623    117.428    -59.314
    320    C    -50.850    113.874    -65.024
    321    H    -50.001    114.585    -65.018
    322    O    -51.796    114.266    -66.000
    323    H    -51.407    114.085    -66.869
    324    C    -50.364    112.447    -65.241
    325    H    -49.453    112.255    -64.630
    326    O    -50.202    112.095    -66.634
    327    P    -48.762    111.863    -67.233
    328    O    -48.069    110.824    -66.445
    329    O    -48.898    111.621    -68.683
    330    O    -48.010    113.239    -67.032
    331    C    -48.429    114.415    -67.762
    332    H    -49.533    114.562    -67.711
    333    H    -48.160    114.305    -68.835
    334    C    -47.764    115.699    -67.233
    335    H    -48.022    116.566    -67.876
    336    O    -48.276    115.997    -65.900
    337    C    -47.211    116.442    -65.068
    338    H    -47.554    117.408    -64.628
    339    N    -46.892    115.489    -63.959
    340    C    -47.295    114.179    -64.056
    341    H    -47.871    113.927    -64.940
    342    C    -47.036    113.285    -63.097
    343    H    -47.375    112.253    -63.159
    344    C    -46.144    115.892    -62.853
    345    O    -45.724    117.059    -62.801
    346    N    -45.899    115.009    -61.853
    347    C    -46.312    113.732    -61.959
    348    N    -46.056    112.866    -60.979
    349    H    -45.559    113.161    -60.160
    350    H    -46.241    111.890    -61.083
    351    C    -46.030    116.708    -65.975
    352    H    -45.061    116.570    -65.457
    353    O    -46.115    118.021    -66.500
    354    H    -45.413    118.100    -67.156
    355    C    -46.234    115.662    -67.066
    356    H    -45.984    114.650    -66.671
    357    O    -45.582    115.962    -68.330
    358    P    -44.174    115.324    -68.628
    359    O    -44.206    113.889    -68.284
    360    O    -43.754    115.653    -70.012
    361    O    -43.216    116.049    -67.603
    362    C    -42.955    117.466    -67.733
    363    H    -43.897    118.051    -67.814
    364    H    -42.350    117.664    -68.649
    365    C    -42.158    118.006    -66.538
    366    H    -41.957    119.093    -66.658
    367    O    -42.907    117.845    -65.304
    368    C    -42.006    117.533    -64.248
    369    H    -42.143    118.310    -63.462
    370    N    -42.295    116.214    -63.674
    371    C    -41.884    115.757    -62.451
    372    N    -40.169    116.237    -59.480
    373    H    -39.733    117.123    -59.628
    374    H    -39.941    115.708    -58.657
    375    N    -41.133    116.436    -61.565
    376    C    -40.905    115.737    -60.454
    377    N    -41.377    114.464    -60.262
    378    H    -41.123    113.986    -59.410
    379    C    -42.132    113.730    -61.169
    380    O    -42.508    112.581    -60.913
    381    C    -42.391    114.476    -62.348
    382    N    -43.098    114.129    -63.491
    383    C    -43.014    115.192    -64.252
    384    H    -43.453    115.298    -65.247
    385    C    -40.595    117.614    -64.806
    386    H    -39.915    116.862    -64.347
    387    O    -40.072    118.919    -64.617
    388    H    -39.256    119.002    -65.138
    389    C    -40.832    117.292    -66.277
    390    H    -40.989    116.199    -66.416
    391    O    -39.812    117.783    -67.165
    392    H    -38.996    117.264    -67.046
 $END
