!*** FMO 5.3 (Gamess) INPUT generated by Facio 22.1.1.32 ***
 $CONTRL RUNTYP=ENERGY NPRINT=-5 ISPHER=1 MAXIT=200 $END
 $SYSTEM MWORDS=63 MEMDDI=63 $END
 $GDDI NGROUP=1 $END
 $SCF DIRSCF=.TRUE. NPUNCH=0 $END
!*** NumCPU : 2  MemPerNode : 512MB
 $PCM SOLVNT=WATER IEF=-10 ICOMP=2 ICAV=1 IDISP=1 IFMO=-1 $END
 $PCMCAV RADII=SUAHF $END
 $TESCAV NTSALL=60 $END
 $FMOPRP
    NAODIR=200
    NGRFMO(1)=1, 1, 0, 0, 0,   0, 0, 0, 0, 0
    IPIEDA=1
    NPRINT=9
 $END
 $FMO
      SCFTYP(1)=RHF
      MODGRD=10
      MODMUL=0
      MAXCAO=5
      MAXBND=14
      NLAYER=1
      MPLEVL(1)=2
      NFRAG=12
      ICHARG(1)=-1, -1, -1, -1, -1, 0, -1, -1, -1, -1, -1, 0
      FRGNAM(1)=F1, F2, F3, F4, F5, F6, F7, F8, F9, F10, F11, F12
      indat(1)=0
               1   -33   0
               34   -67   0
               68   -101   0
               102   -134   0
               135   -165   0
               166   -198   0
               199   -229   0
               230   -263   0
               264   -297   0
               298   -330   0
               331   -361   0
               362   -392   0
 $END

 $FMOBND
   -34   33       6-31G*    MINI
   -68   67       6-31G*    MINI
   -102   101       6-31G*    MINI
   -135   134       6-31G*    MINI
   -166   165       6-31G*    MINI
   -199   198       6-31G*    MINI
   -230   229       6-31G*    MINI
   -264   263       6-31G*    MINI
   -298   297       6-31G*    MINI
   -331   330       6-31G*    MINI
   -362   361       6-31G*    MINI
 $END
 $FMOHYB
 6-31G*      15   5
   1 0  -0.065034   0.288264   0.000000   0.000000   0.604412
         0.290129   0.000000   0.000000   0.319045  -0.017106
        -0.017106   0.057934   0.000000   0.000000   0.000000
   0 1  -0.065040   0.288293   0.569832   0.000000  -0.201456
         0.290147   0.300783   0.000000  -0.106342   0.049598
        -0.017106  -0.008771   0.000000  -0.027223   0.000000
   0 1  -0.065039   0.288293  -0.284916  -0.493490  -0.201455
         0.290145  -0.150392  -0.260486  -0.106340  -0.000427
         0.032923  -0.008771   0.033353   0.013612   0.023576
   0 1  -0.065039   0.288293  -0.284916   0.493490  -0.201455
         0.290145  -0.150392   0.260486  -0.106340  -0.000427
         0.032923  -0.008771  -0.033353   0.013612  -0.023576
   0 1   1.010938  -0.011975   0.000000   0.000000   0.000000
        -0.054085   0.000000   0.000000  -0.000000  -0.003174
        -0.003174  -0.003174   0.000000   0.000000   0.000000
 MINI         5   5
   1 0  -0.104883   0.308874   0.000000   0.000000   0.521806
   0 1  -0.104883   0.308874   0.491961   0.000000  -0.173934
   0 1  -0.104883   0.308876  -0.245980  -0.426050  -0.173933
   0 1  -0.104883   0.308876  -0.245980   0.426050  -0.173933
   0 1   0.988209   0.063992   0.000000   0.000000   0.000000
 $END
 
 $DATA
 FMO calculation
 C1 
 H.1-1    1
      N31 6
   
 O.1-1    8
      N31 6
      d 1
      1 0.800 1.0
   
 C.1-1    6
      N31 6
      d 1
      1 0.800 1.0
   
 N.1-1    7
      N31 6
      d 1
      1 0.800 1.0
   
 P.1-1   15
      N31 6
      d 1
      1 0.550 1.0
   
 $END
 $FMOXYZ
    1    H    -39.964    111.778    -50.259
    2    O    -39.953    112.515    -50.897
    3    C    -38.961    113.450    -50.450
    4    H    -37.997    112.919    -50.287
    5    H    -39.284    113.883    -49.478
    6    C    -38.727    114.599    -51.438
    7    H    -37.994    115.330    -51.030
    8    O    -38.171    114.084    -52.688
    9    C    -38.753    114.793    -53.777
    10    H    -37.900    115.214    -54.358
    11    N    -39.564    113.919    -54.674
    12    C    -40.018    112.696    -54.233
    13    H    -39.745    112.419    -53.213
    14    C    -40.714    111.877    -55.033
    15    H    -41.050    110.894    -54.709
    16    C    -39.898    114.349    -55.956
    17    O    -39.524    115.470    -56.333
    18    N    -40.601    113.538    -56.778
    19    C    -40.993    112.323    -56.356
    20    N    -41.637    111.522    -57.206
    21    H    -41.875    111.863    -58.118
    22    H    -41.972    110.621    -56.927
    23    C    -39.559    115.937    -53.192
    24    H    -40.433    116.201    -53.822
    25    O    -38.745    117.079    -53.008
    26    H    -39.325    117.741    -52.611
    27    C    -39.995    115.354    -51.850
    28    H    -40.791    114.589    -52.007
    29    O    -40.333    116.321    -50.824
    30    P    -41.826    116.827    -50.745
    31    O    -42.716    115.649    -50.718
    32    O    -41.912    117.765    -49.602
    33    O    -42.035    117.631    -52.083
    34    C    -41.421    118.933    -52.250
    35    H    -40.314    118.891    -52.132
    36    H    -41.814    119.653    -51.495
    37    C    -41.712    119.500    -53.644
    38    H    -41.161    120.454    -53.807
    39    O    -41.262    118.562    -54.662
    40    C    -42.180    118.564    -55.745
    41    H    -41.593    118.820    -56.657
    42    N    -42.811    117.244    -55.925
    43    C    -43.440    116.784    -57.053
    44    N    -44.552    117.282    -60.296
    45    H    -44.248    118.218    -60.488
    46    H    -45.066    116.781    -60.997
    47    N    -43.601    117.463    -58.205
    48    C    -44.264    116.759    -59.117
    49    N    -44.688    115.472    -58.910
    50    H    -45.162    114.997    -59.664
    51    C    -44.512    114.732    -57.746
    52    O    -44.919    113.569    -57.653
    53    C    -43.845    115.495    -56.750
    54    N    -43.498    115.161    -55.447
    55    C    -42.888    116.230    -54.998
    56    H    -42.472    116.343    -53.997
    57    C    -43.201    119.653    -55.483
    58    H    -44.202    119.385    -55.874
    59    O    -42.783    120.873    -56.060
    60    H    -43.414    121.548    -55.767
    61    C    -43.198    119.722    -53.962
    62    H    -43.731    118.828    -53.562
    63    O    -43.662    120.984    -53.418
    64    P    -44.874    121.036    -52.412
    65    O    -45.318    119.666    -52.080
    66    O    -44.526    121.921    -51.280
    67    O    -46.044    121.694    -53.233
    68    C    -45.961    123.005    -53.825
    69    H    -44.919    123.403    -53.844
    70    H    -46.575    123.711    -53.223
    71    C    -46.499    123.013    -55.265
    72    H    -46.324    124.004    -55.739
    73    O    -45.799    122.016    -56.065
    74    C    -46.719    121.411    -56.964
    75    H    -46.294    121.523    -57.987
    76    N    -46.893    119.975    -56.664
    77    C    -47.317    119.009    -57.535
    78    N    -48.418    118.068    -60.677
    79    H    -48.415    118.943    -61.168
    80    H    -48.527    117.231    -61.199
    81    N    -47.680    119.202    -58.814
    82    C    -48.019    118.067    -59.419
    83    N    -47.962    116.841    -58.805
    84    H    -48.285    116.030    -59.315
    85    C    -47.594    116.614    -57.485
    86    O    -47.570    115.477    -57.005
    87    C    -47.264    117.822    -56.826
    88    N    -46.859    118.041    -55.522
    89    C    -46.664    119.336    -55.465
    90    H    -46.329    119.874    -54.582
    91    C    -48.019    122.178    -56.871
    92    H    -48.900    121.541    -57.071
    93    O    -48.024    123.269    -57.771
    94    H    -48.829    123.764    -57.575
    95    C    -47.989    122.659    -55.427
    96    H    -48.182    121.809    -54.734
    97    O    -48.819    123.817    -55.159
    98    P    -50.269    123.601    -54.578
    99    O    -50.242    122.504    -53.588
    100    O    -50.793    124.903    -54.116
    101    O    -51.108    123.116    -55.814
    102    C    -51.433    124.006    -56.901
    103    H    -50.524    124.526    -57.285
    104    H    -52.156    124.783    -56.563
    105    C    -52.070    123.233    -58.061
    106    H    -52.306    123.908    -58.912
    107    O    -51.130    122.227    -58.540
    108    C    -51.839    121.056    -58.898
    109    H    -51.577    120.832    -59.959
    110    N    -51.452    119.921    -58.050
    111    C    -51.082    117.889    -57.298
    112    N    -50.603    118.752    -56.325
    113    C    -50.848    119.942    -56.817
    114    H    -50.615    120.884    -56.320
    115    N    -51.714    115.945    -58.489
    116    C    -52.212    116.769    -59.411
    117    H    -52.682    116.290    -60.272
    118    N    -52.200    118.100    -59.450
    119    C    -51.620    118.601    -58.355
    120    C    -51.118    116.480    -57.390
    121    N    -50.599    115.665    -56.452
    122    H    -50.151    116.018    -55.625
    123    H    -50.665    114.669    -56.561
    124    C    -53.315    121.372    -58.800
    125    H    -53.922    120.489    -58.514
    126    O    -53.776    121.896    -60.030
    127    H    -54.663    122.244    -59.870
    128    C    -53.338    122.433    -57.708
    129    H    -53.164    121.974    -56.708
    130    O    -54.500    123.294    -57.731
    131    P    -55.792    122.883    -56.921
    132    O    -55.417    122.656    -55.509
    133    O    -56.848    123.884    -57.184
    134    O    -56.236    121.507    -57.536
    135    C    -56.919    121.435    -58.809
    136    H    -56.335    121.937    -59.612
    137    H    -57.908    121.943    -58.751
    138    C    -57.158    119.984    -59.255
    139    H    -57.581    119.967    -60.281
    140    O    -55.905    119.244    -59.294
    141    C    -56.131    117.906    -58.868
    142    H    -55.784    117.263    -59.707
    143    N    -55.356    117.551    -57.642
    144    C    -54.965    118.541    -56.769
    145    H    -55.250    119.555    -57.042
    146    C    -54.247    118.269    -55.673
    147    H    -53.907    119.048    -54.993
    148    C    -55.044    116.223    -57.355
    149    O    -55.428    115.328    -58.126
    150    N    -54.313    115.928    -56.256
    151    C    -53.913    116.908    -55.425
    152    N    -53.167    116.596    -54.369
    153    H    -52.942    115.635    -54.198
    154    H    -52.898    117.275    -53.684
    155    C    -57.630    117.725    -58.706
    156    H    -57.885    117.009    -57.899
    157    O    -58.206    117.286    -59.925
    158    H    -59.166    117.330    -59.813
    159    C    -58.064    119.144    -58.353
    160    H    -57.754    119.386    -57.312
    161    O    -59.448    119.448    -58.633
    162    P    -60.479    119.482    -57.445
    163    O    -59.876    120.144    -56.269
    164    O    -61.769    120.020    -57.926
    165    O    -60.652    117.953    -57.121
    166    C    -61.425    117.129    -58.025
    167    H    -61.008    117.155    -59.061
    168    H    -62.482    117.484    -58.071
    169    C    -61.444    115.676    -57.546
    170    H    -62.064    115.043    -58.211
    171    O    -60.092    115.138    -57.564
    172    C    -59.924    114.275    -56.450
    173    H    -59.622    113.287    -56.860
    174    N    -58.865    114.760    -55.556
    175    C    -58.177    114.015    -54.637
    176    N    -57.648    111.020    -52.980
    177    H    -58.349    110.427    -53.373
    178    H    -57.054    110.662    -52.254
    179    N    -58.370    112.709    -54.375
    180    C    -57.570    112.267    -53.405
    181    N    -56.635    113.055    -52.786
    182    H    -56.077    112.643    -52.054
    183    C    -56.398    114.397    -53.054
    184    O    -55.529    115.030    -52.446
    185    C    -57.271    114.887    -54.061
    186    N    -57.402    116.163    -54.595
    187    C    -58.365    116.041    -55.474
    188    H    -58.766    116.848    -56.091
    189    C    -61.263    114.143    -55.748
    190    H    -61.153    114.046    -54.643
    191    O    -61.972    113.027    -56.264
    192    H    -62.888    113.058    -55.938
    193    C    -61.925    115.469    -56.103
    194    H    -61.512    116.288    -55.474
    195    O    -63.362    115.446    -56.044
    196    H    -63.662    115.351    -55.120
    197    H    -50.533    108.836    -46.548
    198    O    -51.218    108.730    -47.235
    199    C    -51.917    107.507    -46.957
    200    H    -52.327    107.545    -45.922
    201    H    -51.198    106.660    -47.012
    202    C    -53.070    107.234    -47.936
    203    H    -53.516    106.232    -47.756
    204    O    -54.130    108.220    -47.746
    205    C    -54.661    108.586    -49.015
    206    H    -55.759    108.397    -48.952
    207    N    -54.434    110.018    -49.361
    208    C    -53.469    110.751    -48.710
    209    H    -52.903    110.225    -47.938
    210    C    -53.255    112.041    -49.002
    211    H    -52.502    112.634    -48.488
    212    C    -55.186    110.619    -50.368
    213    O    -56.037    109.945    -50.969
    214    N    -55.000    111.925    -50.665
    215    C    -54.062    112.636    -50.014
    216    N    -53.902    113.924    -50.317
    217    H    -54.447    114.328    -51.055
    218    H    -53.228    114.497    -49.845
    219    C    -54.068    107.645    -50.044
    220    H    -53.960    108.117    -51.043
    221    O    -54.864    106.480    -50.157
    222    H    -54.406    105.892    -50.772
    223    C    -52.708    107.345    -49.424
    224    H    -52.042    108.234    -49.525
    225    O    -52.088    106.116    -49.867
    226    P    -51.108    106.177    -51.101
    227    O    -50.175    107.309    -50.926
    228    O    -50.497    104.845    -51.287
    229    O    -52.047    106.482    -52.316
    230    C    -52.956    105.482    -52.830
    231    H    -53.608    105.075    -52.023
    232    H    -52.390    104.621    -53.257
    233    C    -53.848    106.056    -53.940
    234    H    -54.593    105.304    -54.277
    235    O    -54.593    107.209    -53.445
    236    C    -54.688    108.187    -54.473
    237    H    -55.772    108.400    -54.618
    238    N    -53.994    109.436    -54.107
    239    C    -54.171    110.665    -54.690
    240    N    -55.656    112.677    -57.097
    241    H    -56.232    112.026    -57.600
    242    H    -55.618    113.633    -57.400
    243    N    -55.004    110.947    -55.712
    244    C    -54.947    112.227    -56.076
    245    N    -54.151    113.147    -55.450
    246    H    -54.178    114.103    -55.774
    247    C    -53.295    112.892    -54.386
    248    O    -52.603    113.782    -53.883
    249    C    -53.319    111.520    -54.019
    250    N    -52.595    110.838    -53.051
    251    C    -53.025    109.602    -53.142
    252    H    -52.681    108.768    -52.529
    253    C    -54.119    107.579    -55.738
    254    H    -53.625    108.343    -56.373
    255    O    -55.124    106.923    -56.489
    256    H    -54.666    106.475    -57.217
    257    C    -53.104    106.590    -55.178
    258    H    -52.213    107.146    -54.801
    259    O    -52.782    105.513    -56.084
    260    P    -51.315    105.152    -56.511
    261    O    -50.354    105.995    -55.776
    262    O    -51.126    103.685    -56.441
    263    O    -51.267    105.576    -58.031
    264    C    -52.138    104.971    -59.022
    265    H    -52.978    104.390    -58.569
    266    H    -51.550    104.256    -59.640
    267    C    -52.738    106.010    -59.979
    268    H    -53.465    105.536    -60.673
    269    O    -53.450    107.020    -59.213
    270    C    -53.232    108.292    -59.806
    271    H    -54.240    108.718    -60.004
    272    N    -52.485    109.186    -58.901
    273    C    -52.467    110.554    -58.938
    274    N    -53.453    113.527    -60.394
    275    H    -53.455    114.500    -60.199
    276    H    -54.002    113.194    -61.157
    277    N    -53.118    111.330    -59.824
    278    C    -52.935    112.624    -59.586
    279    N    -52.224    113.102    -58.515
    280    H    -52.093    114.100    -58.427
    281    C    -51.554    112.324    -57.580
    282    O    -50.931    112.829    -56.644
    283    C    -51.687    110.943    -57.864
    284    N    -51.173    109.841    -57.198
    285    C    -51.661    108.821    -57.856
    286    H    -51.509    107.779    -57.592
    287    C    -52.511    108.074    -61.117
    288    H    -51.842    108.917    -61.374
    289    O    -53.438    107.883    -62.170
    290    H    -52.904    107.696    -62.953
    291    C    -51.723    106.805    -60.830
    292    H    -50.870    107.025    -60.149
    293    O    -51.336    106.058    -62.014
    294    P    -49.888    106.264    -62.611
    295    O    -48.935    106.451    -61.498
    296    O    -49.592    105.151    -63.546
    297    O    -49.963    107.618    -63.407
    298    C    -50.788    107.802    -64.578
    299    H    -51.824    107.419    -64.415
    300    H    -50.358    107.257    -65.452
    301    C    -50.873    109.294    -64.941
    302    H    -51.489    109.444    -65.853
    303    O    -51.519    110.018    -63.852
    304    C    -50.914    111.295    -63.720
    305    H    -51.736    112.043    -63.811
    306    N    -50.265    111.456    -62.419
    307    C    -49.391    112.328    -60.600
    308    N    -49.325    110.953    -60.443
    309    C    -49.845    110.482    -61.551
    310    H    -49.959    109.423    -61.795
    311    N    -49.175    114.659    -60.263
    312    C    -49.718    114.804    -61.473
    313    H    -49.839    115.836    -61.814
    314    N    -50.154    113.872    -62.320
    315    C    -49.961    112.646    -61.819
    316    C    -48.996    113.404    -59.773
    317    N    -48.475    113.228    -58.545
    318    H    -48.374    112.316    -58.135
    319    H    -48.208    114.016    -57.983
    320    C    -49.953    111.471    -64.869
    321    H    -49.077    112.098    -64.602
    322    O    -50.629    112.036    -65.979
    323    H    -50.027    111.966    -66.731
    324    C    -49.536    110.033    -65.139
    325    H    -48.849    109.666    -64.342
    326    O    -49.028    109.806    -66.472
    327    P    -47.483    109.942    -66.736
    328    O    -46.760    109.123    -65.743
    329    O    -47.218    109.649    -68.166
    330    O    -47.169    111.451    -66.438
    331    C    -47.509    112.518    -67.347
    332    H    -48.591    112.498    -67.595
    333    H    -46.942    112.414    -68.301
    334    C    -47.192    113.905    -66.755
    335    H    -47.548    114.712    -67.433
    336    O    -47.864    114.091    -65.473
    337    C    -47.019    114.833    -64.597
    338    H    -47.613    115.733    -64.309
    339    N    -46.641    114.074    -63.367
    340    C    -46.592    112.699    -63.401
    341    H    -46.882    112.234    -64.342
    342    C    -46.253    111.980    -62.324
    343    H    -46.248    110.891    -62.330
    344    C    -46.260    114.743    -62.203
    345    O    -46.246    115.985    -62.191
    346    N    -45.921    114.034    -61.103
    347    C    -45.913    112.689    -61.136
    348    N    -45.617    112.014    -60.028
    349    H    -45.367    112.516    -59.198
    350    H    -45.607    111.014    -60.007
    351    C    -45.806    115.271    -65.400
    352    H    -44.886    115.320    -64.784
    353    O    -46.038    116.535    -65.996
    354    H    -45.300    116.700    -66.596
    355    C    -45.715    114.163    -66.448
    356    H    -45.333    113.227    -65.978
    357    O    -45.023    114.521    -67.665
    358    P    -43.548    114.024    -67.897
    359    O    -43.407    112.640    -67.407
    360    O    -43.127    114.284    -69.293
    361    O    -42.737    114.962    -66.932
    362    C    -42.572    116.356    -67.279
    363    H    -43.554    116.863    -67.410
    364    H    -42.003    116.463    -68.231
    365    C    -41.783    117.089    -66.194
    366    H    -41.587    118.141    -66.488
    367    O    -42.563    117.123    -64.963
    368    C    -41.683    116.960    -63.858
    369    H    -41.841    117.834    -63.188
    370    N    -41.978    115.728    -63.108
    371    C    -41.620    115.469    -61.811
    372    N    -40.007    116.412    -58.897
    373    H    -39.605    117.290    -59.145
    374    H    -39.855    116.042    -57.976
    375    N    -40.921    116.290    -61.006
    376    C    -40.713    115.764    -59.803
    377    N    -41.205    114.543    -59.426
    378    H    -40.986    114.207    -58.500
    379    C    -41.937    113.677    -60.229
    380    O    -42.338    112.594    -59.796
    381    C    -42.126    114.214    -61.531
    382    N    -42.765    113.677    -62.644
    383    C    -42.645    114.610    -63.558
    384    H    -43.023    114.550    -64.580
    385    C    -40.259    116.979    -64.390
    386    H    -39.588    116.315    -63.806
    387    O    -39.759    118.307    -64.379
    388    H    -38.935    118.340    -64.895
    389    C    -40.451    116.438    -65.802
    390    H    -40.584    115.331    -65.772
    391    O    -39.411    116.802    -66.729
    392    H    -38.585    116.338    -66.499
 $END
