!*** FMO 5.3 (Gamess) INPUT generated by Facio 22.1.1.32 ***
 $CONTRL RUNTYP=ENERGY NPRINT=-5 ISPHER=1 MAXIT=200 $END
 $SYSTEM MWORDS=63 MEMDDI=63 $END
 $GDDI NGROUP=1 $END
 $SCF DIRSCF=.TRUE. NPUNCH=0 $END
!*** NumCPU : 2  MemPerNode : 512MB
 $PCM SOLVNT=WATER IEF=-10 ICOMP=2 ICAV=1 IDISP=1 IFMO=-1 $END
 $PCMCAV RADII=SUAHF $END
 $TESCAV NTSALL=60 $END
 $FMOPRP
    NAODIR=200
    NGRFMO(1)=1, 1, 0, 0, 0,   0, 0, 0, 0, 0
    IPIEDA=1
    NPRINT=9
 $END
 $FMO
      SCFTYP(1)=RHF
      MODGRD=10
      MODMUL=0
      MAXCAO=5
      MAXBND=19
      NLAYER=1
      MPLEVL(1)=2
      NFRAG=17
      ICHARG(1)=-1, -1, -1, -1, -1, -1, -1, -1, -1, -1, 0, -1, -1, -1,
-1, -1, 0
      FRGNAM(1)=F1, F2, F3, F4, F5, F6, F7, F8, F9, F10, F11, F12, F13,
F14, F15, F16, F17
      indat(1)=0
               1   -35   0
               36   -69   0
               70   -103   0
               104   -136   0
               137   -169   0
               170   -200   0
               201   -230   0
               231   -263   0
               264   -294   0
               295   -324   0
               325   -357   0
               358   -388   0
               389   -421   0
               422   -455   0
               456   -486   0
               487   -517   0
               518   -544   0
 $END

 $FMOBND
   -36   35       6-31G*    MINI
   -70   69       6-31G*    MINI
   -104   103       6-31G*    MINI
   -137   136       6-31G*    MINI
   -170   169       6-31G*    MINI
   -201   200       6-31G*    MINI
   -231   230       6-31G*    MINI
   -264   263       6-31G*    MINI
   -295   294       6-31G*    MINI
   -325   324       6-31G*    MINI
   -358   357       6-31G*    MINI
   -389   388       6-31G*    MINI
   -422   421       6-31G*    MINI
   -456   455       6-31G*    MINI
   -487   486       6-31G*    MINI
   -518   517       6-31G*    MINI
 $END
 $FMOHYB
 6-31G*      15   5
   1 0  -0.065034   0.288264   0.000000   0.000000   0.604412
         0.290129   0.000000   0.000000   0.319045  -0.017106
        -0.017106   0.057934   0.000000   0.000000   0.000000
   0 1  -0.065040   0.288293   0.569832   0.000000  -0.201456
         0.290147   0.300783   0.000000  -0.106342   0.049598
        -0.017106  -0.008771   0.000000  -0.027223   0.000000
   0 1  -0.065039   0.288293  -0.284916  -0.493490  -0.201455
         0.290145  -0.150392  -0.260486  -0.106340  -0.000427
         0.032923  -0.008771   0.033353   0.013612   0.023576
   0 1  -0.065039   0.288293  -0.284916   0.493490  -0.201455
         0.290145  -0.150392   0.260486  -0.106340  -0.000427
         0.032923  -0.008771  -0.033353   0.013612  -0.023576
   0 1   1.010938  -0.011975   0.000000   0.000000   0.000000
        -0.054085   0.000000   0.000000  -0.000000  -0.003174
        -0.003174  -0.003174   0.000000   0.000000   0.000000
 MINI         5   5
   1 0  -0.104883   0.308874   0.000000   0.000000   0.521806
   0 1  -0.104883   0.308874   0.491961   0.000000  -0.173934
   0 1  -0.104883   0.308876  -0.245980  -0.426050  -0.173933
   0 1  -0.104883   0.308876  -0.245980   0.426050  -0.173933
   0 1   0.988209   0.063992   0.000000   0.000000   0.000000
 $END
 
 $DATA
 FMO calculation
 C1 
 H.1-1    1
      N31 6
   
 O.1-1    8
      N31 6
      d 1
      1 0.800 1.0
   
 C.1-1    6
      N31 6
      d 1
      1 0.800 1.0
   
 N.1-1    7
      N31 6
      d 1
      1 0.800 1.0
   
 P.1-1   15
      N31 6
      d 1
      1 0.550 1.0
   
 $END
 $FMOXYZ
    1    H    18.031    7.497    2.052
    2    O    18.233    8.327    1.576
    3    C    19.140    9.071    2.403
    4    H    20.036    8.444    2.615
    5    H    18.652    9.302    3.377
    6    C    19.600    10.382    1.758
    7    H    20.266    10.948    2.445
    8    O    20.368    10.096    0.552
    9    C    20.077    11.079    -0.428
    10    H    21.054    11.527    -0.718
    11    N    19.450    10.485    -1.617
    12    C    18.720    10.100    -3.658
    13    N    18.421    8.962    -2.918
    14    C    18.871    9.242    -1.717
    15    H    18.819    8.579    -0.850
    16    N    18.932    11.651    -5.438
    17    C    19.495    12.475    -4.546
    18    H    19.813    13.446    -4.942
    19    N    19.779    12.262    -3.257
    20    C    19.350    11.047    -2.869
    21    C    18.524    10.425    -5.019
    22    N    17.979    9.573    -5.909
    23    H    17.642    8.670    -5.626
    24    H    17.809    9.862    -6.855
    25    C    19.212    12.133    0.226
    26    H    18.510    12.610    -0.486
    27    O    20.032    13.123    0.814
    28    H    19.435    13.767    1.214
    29    C    18.477    11.318    1.287
    30    H    17.698    10.675    0.813
    31    O    17.974    12.078    2.410
    32    P    16.508    12.661    2.351
    33    O    15.586    11.609    1.875
    34    O    16.198    13.239    3.678
    35    O    16.604    13.792    1.265
    36    C    17.332    15.011    1.539
    37    H    18.375    14.805    1.868
    38    H    16.835    15.582    2.353
    39    C    17.388    15.907    0.295
    40    H    17.976    16.830    0.494
    41    O    18.048    15.200    -0.796
    42    C    17.415    15.539    -2.023
    43    H    18.199    15.953    -2.699
    44    N    16.810    14.362    -2.672
    45    C    16.474    14.236    -3.996
    46    N    16.189    15.581    -7.176
    47    H    16.528    16.513    -7.046
    48    H    15.838    15.309    -8.077
    49    N    16.618    15.180    -4.946
    50    C    16.162    14.773    -6.128
    51    N    15.678    13.514    -6.357
    52    H    15.361    13.288    -7.287
    53    C    15.539    12.515    -5.405
    54    O    15.082    11.407    -5.704
    55    C    15.973    12.952    -4.127
    56    N    15.981    12.288    -2.906
    57    C    16.476    13.169    -2.072
    58    H    16.627    13.010    -1.003
    59    C    16.399    16.614    -1.719
    60    H    15.519    16.561    -2.389
    61    O    17.002    17.888    -1.806
    62    H    16.317    18.522    -1.562
    63    C    16.019    16.303    -0.279
    64    H    15.379    15.391    -0.232
    65    O    15.471    17.429    0.456
    66    P    13.903    17.613    0.471
    67    O    13.270    16.303    0.726
    68    O    13.567    18.714    1.403
    69    O    13.537    18.060    -0.995
    70    C    13.945    19.350    -1.512
    71    H    15.015    19.560    -1.288
    72    H    13.346    20.163    -1.041
    73    C    13.748    19.431    -3.036
    74    H    14.159    20.379    -3.445
    75    O    14.451    18.333    -3.690
    76    C    13.690    17.861    -4.785
    77    H    14.346    17.933    -5.683
    78    N    13.272    16.456    -4.618
    79    C    12.852    15.625    -5.623
    80    N    12.028    15.111    -8.955
    81    H    12.205    16.002    -9.368
    82    H    11.612    14.385    -9.510
    83    N    12.736    15.955    -6.923
    84    C    12.279    14.954    -7.669
    85    N    12.026    13.708    -7.163
    86    H    11.680    13.008    -7.803
    87    C    12.164    13.328    -5.836
    88    O    11.906    12.173    -5.492
    89    C    12.600    14.409    -5.021
    90    N    12.839    14.474    -3.650
    91    C    13.227    15.715    -3.456
    92    H    13.495    16.153    -2.494
    93    C    12.520    18.791    -4.941
    94    H    11.621    18.264    -5.306
    95    O    12.864    19.851    -5.813
    96    H    12.147    20.495    -5.760
    97    C    12.297    19.289    -3.518
    98    H    11.821    18.499    -2.892
    99    O    11.611    20.557    -3.428
    100    P    10.037    20.621    -3.462
    101    O    9.531    19.900    -2.277
    102    O    9.619    22.031    -3.617
    103    O    9.606    19.811    -4.742
    104    C    9.621    20.406    -6.061
    105    H    10.609    20.855    -6.295
    106    H    8.856    21.213    -6.141
    107    C    9.283    19.383    -7.156
    108    H    9.447    19.812    -8.170
    109    O    10.119    18.199    -7.058
    110    C    9.340    17.053    -7.335
    111    H    9.853    16.511    -8.162
    112    N    9.231    16.176    -6.167
    113    C    8.927    14.402    -4.905
    114    N    9.289    15.429    -4.049
    115    C    9.454    16.462    -4.841
    116    H    9.748    17.463    -4.524
    117    N    8.383    12.288    -5.786
    118    C    8.375    12.866    -6.983
    119    H    8.136    12.206    -7.825
    120    N    8.600    14.139    -7.308
    121    C    8.886    14.857    -6.212
    122    C    8.637    13.036    -4.691
    123    N    8.589    12.453    -3.479
    124    H    8.935    12.896    -2.648
    125    H    8.272    11.495    -3.399
    126    C    7.997    17.527    -7.818
    127    H    7.181    16.836    -7.535
    128    O    8.024    17.688    -9.227
    129    H    7.247    18.208    -9.475
    130    C    7.858    18.849    -7.082
    131    H    7.632    18.687    -6.002
    132    O    6.969    19.782    -7.701
    133    P    5.463    19.867    -7.288
    134    O    5.380    20.406    -5.913
    135    O    4.779    20.633    -8.348
    136    O    4.942    18.380    -7.285
    137    C    4.575    17.731    -8.526
    138    H    5.436    17.698    -9.230
    139    H    3.742    18.273    -9.032
    140    C    4.133    16.282    -8.284
    141    H    3.919    15.771    -9.247
    142    O    5.210    15.537    -7.638
    143    C    4.655    14.651    -6.686
    144    H    5.037    13.647    -6.965
    145    N    5.082    14.934    -5.333
    146    C    5.559    14.758    -3.204
    147    N    5.897    16.056    -3.582
    148    C    5.583    16.110    -4.850
    149    H    5.702    16.979    -5.500
    150    N    5.253    12.772    -1.952
    151    C    4.784    12.227    -3.077
    152    H    4.465    11.182    -2.999
    153    N    4.595    12.795    -4.273
    154    C    5.043    14.057    -4.277
    155    C    5.662    14.066    -1.981
    156    N    6.173    14.620    -0.869
    157    H    6.457    15.582    -0.819
    158    H    6.180    14.083    -0.023
    159    C    3.161    14.692    -6.809
    160    H    2.652    14.576    -5.834
    161    O    2.751    13.666    -7.676
    162    H    1.859    13.866    -7.980
    163    C    2.927    16.084    -7.370
    164    H    3.043    16.833    -6.551
    165    O    1.697    16.226    -8.117
    166    P    0.527    17.104    -7.538
    167    O    1.094    18.356    -7.023
    168    O    -0.565    17.187    -8.522
    169    O    0.040    16.250    -6.312
    170    C    -0.567    14.960    -6.480
    171    H    -0.037    14.344    -7.243
    172    H    -1.620    15.091    -6.821
    173    C    -0.603    14.178    -5.164
    174    H    -1.058    13.177    -5.330
    175    O    0.735    13.961    -4.657
    176    C    0.747    14.103    -3.251
    177    H    1.167    13.145    -2.872
    178    N    1.627    15.204    -2.785
    179    C    1.877    16.292    -3.590
    180    H    1.432    16.263    -4.583
    181    C    2.663    17.298    -3.184
    182    H    2.883    18.162    -3.811
    183    C    2.137    15.170    -1.489
    184    O    1.808    14.245    -0.731
    185    N    2.963    16.159    -1.077
    186    C    3.227    17.201    -1.879
    187    N    4.026    18.160    -1.424
    188    H    4.402    18.072    -0.499
    189    H    4.287    18.951    -1.972
    190    C    -0.693    14.235    -2.791
    191    H    -0.808    14.875    -1.891
    192    O    -1.226    12.947    -2.549
    193    H    -1.664    12.651    -3.362
    194    C    -1.336    14.876    -4.018
    195    H    -1.045    15.950    -4.072
    196    O    -2.751    14.655    -4.165
    197    P    -3.802    15.658    -3.561
    198    O    -5.027    15.559    -4.384
    199    O    -3.965    15.401    -2.117
    200    O    -3.178    17.088    -3.752
    201    C    -3.003    17.688    -5.061
    202    H    -3.784    17.355    -5.789
    203    H    -2.022    17.380    -5.479
    204    C    -3.037    19.239    -5.021
    205    H    -4.078    19.558    -5.219
    206    O    -2.650    19.784    -3.721
    207    C    -1.410    20.466    -3.835
    208    H    -1.683    21.546    -3.842
    209    N    -0.491    20.170    -2.703
    210    C    -0.669    19.051    -1.917
    211    H    -1.514    18.414    -2.194
    212    C    0.514    21.076    -2.428
    213    O    0.675    22.115    -3.060
    214    N    1.310    20.748    -1.362
    215    H    2.014    21.429    -1.125
    216    C    1.147    19.695    -0.488
    217    O    1.886    19.587    0.490
    218    C    0.085    18.797    -0.835
    219    H    -0.113    17.954    -0.175
    220    C    -0.829    20.109    -5.186
    221    H    -0.256    19.156    -5.142
    222    O    -0.038    21.159    -5.702
    223    H    -0.656    21.867    -5.935
    224    C    -2.095    19.951    -6.018
    225    H    -1.879    19.268    -6.874
    226    O    -2.624    21.234    -6.450
    227    P    -3.540    21.399    -7.716
    228    O    -4.919    21.081    -7.285
    229    O    -3.329    22.758    -8.275
    230    O    -3.060    20.340    -8.773
    231    C    -1.773    20.403    -9.426
    232    H    -1.155    19.543    -9.093
    233    H    -1.205    21.328    -9.174
    234    C    -1.956    20.320    -10.944
    235    H    -2.589    21.157    -11.305
    236    O    -0.651    20.453    -11.591
    237    C    -0.622    19.621    -12.750
    238    H    -0.380    20.286    -13.612
    239    N    0.413    18.582    -12.643
    240    C    1.777    16.918    -13.115
    241    N    2.114    17.346    -11.835
    242    C    1.282    18.337    -11.598
    243    H    1.253    18.931    -10.676
    244    N    1.749    15.763    -15.186
    245    C    0.729    16.556    -15.527
    246    H    0.318    16.389    -16.528
    247    N    0.178    17.562    -14.841
    248    C    0.736    17.674    -13.624
    249    C    2.307    15.914    -13.957
    250    N    3.341    15.121    -13.622
    251    H    3.835    15.237    -12.761
    252    H    3.683    14.453    -14.284
    253    C    -2.014    19.038    -12.938
    254    H    -2.005    18.011    -13.364
    255    O    -2.787    19.889    -13.768
    256    H    -3.715    19.635    -13.653
    257    C    -2.536    19.016    -11.510
    258    H    -2.065    18.189    -10.930
    259    O    -3.972    19.024    -11.427
    260    P    -4.778    17.715    -11.108
    261    O    -4.478    17.268    -9.733
    262    O    -6.198    17.986    -11.437
    263    O    -4.229    16.646    -12.125
    264    C    -4.711    16.614    -13.492
    265    H    -4.415    17.539    -14.035
    266    H    -5.825    16.537    -13.516
    267    C    -4.163    15.403    -14.268
    268    H    -4.627    15.339    -15.278
    269    O    -2.730    15.556    -14.477
    270    C    -2.093    14.291    -14.334
    271    H    -1.520    14.126    -15.276
    272    N    -1.151    14.256    -13.182
    273    C    -1.312    15.154    -12.160
    274    H    -2.126    15.867    -12.263
    275    C    -0.490    15.172    -11.108
    276    H    -0.597    15.895    -10.309
    277    C    -0.139    13.298    -13.110
    278    O    -0.032    12.459    -14.011
    279    N    0.709    13.306    -12.053
    280    C    0.566    14.223    -11.085
    281    N    1.444    14.272    -10.102
    282    H    2.172    13.582    -10.030
    283    H    1.483    15.068    -9.493
    284    C    -3.182    13.245    -14.229
    285    H    -2.880    12.377    -13.609
    286    O    -3.554    12.798    -15.520
    287    H    -4.315    12.216    -15.402
    288    C    -4.304    14.040    -13.569
    289    H    -4.068    14.214    -12.491
    290    O    -5.629    13.508    -13.788
    291    P    -6.321    12.646    -12.668
    292    O    -5.945    13.179    -11.342
    293    O    -7.764    12.544    -12.953
    294    O    -5.666    11.233    -12.816
    295    C    -5.740    10.472    -14.036
    296    H    -5.471    11.080    -14.928
    297    H    -6.783    10.124    -14.189
    298    C    -4.809    9.247    -13.977
    299    H    -4.928    8.614    -14.883
    300    O    -3.422    9.702    -13.946
    301    C    -2.657    8.874    -13.080
    302    H    -1.811    8.485    -13.697
    303    N    -2.127    9.637    -11.906
    304    C    -2.702    10.830    -11.529
    305    H    -3.547    11.148    -12.131
    306    C    -1.057    9.128    -11.201
    307    O    -0.535    8.052    -11.482
    308    N    -0.611    9.917    -10.173
    309    H    0.141    9.530    -9.613
    310    C    -1.110    11.139    -9.773
    311    O    -0.588    11.752    -8.845
    312    C    -2.233    11.591    -10.533
    313    H    -2.684    12.551    -10.291
    314    C    -3.553    7.715    -12.675
    315    H    -3.319    7.334    -11.662
    316    O    -3.434    6.666    -13.616
    317    H    -4.099    6.005    -13.390
    318    C    -4.938    8.353    -12.729
    319    H    -5.069    9.036    -11.858
    320    O    -6.032    7.415    -12.895
    321    P    -6.844    6.961    -11.624
    322    O    -7.107    8.119    -10.748
    323    O    -8.030    6.179    -12.045
    324    O    -5.842    6.012    -10.875
    325    C    -5.501    4.728    -11.445
    326    H    -5.086    4.843    -12.469
    327    H    -6.402    4.072    -11.515
    328    C    -4.455    4.014    -10.586
    329    H    -4.201    3.016    -11.001
    330    O    -3.232    4.802    -10.556
    331    C    -2.653    4.717    -9.262
    332    H    -1.620    4.326    -9.393
    333    N    -2.570    6.041    -8.623
    334    C    -1.763    6.376    -7.569
    335    N    0.615    5.492    -5.207
    336    H    0.709    4.509    -5.351
    337    H    1.112    5.921    -4.447
    338    N    -0.932    5.543    -6.915
    339    C    -0.242    6.158    -5.959
    340    N    -0.393    7.488    -5.668
    341    H    0.155    7.876    -4.915
    342    C    -1.252    8.368    -6.313
    343    O    -1.325    9.549    -5.962
    344    C    -1.993    7.719    -7.340
    345    N    -2.953    8.219    -8.220
    346    C    -3.270    7.181    -8.960
    347    H    -4.003    7.177    -9.768
    348    C    -3.467    3.723    -8.455
    349    H    -3.513    3.992    -7.376
    350    O    -2.922    2.422    -8.611
    351    H    -3.533    1.782    -8.205
    352    C    -4.837    3.847    -9.107
    353    H    -5.345    4.776    -8.767
    354    O    -5.686    2.699    -8.919
    355    H    -5.968    2.651    -7.988
    356    H    5.356    11.363    1.095
    357    O    5.103    10.598    0.549
    358    C    5.665    9.431    1.160
    359    H    5.219    9.301    2.173
    360    H    6.763    9.569    1.284
    361    C    5.402    8.155    0.357
    362    H    5.893    7.290    0.849
    363    O    3.967    7.882    0.336
    364    C    3.604    7.368    -0.936
    365    H    3.081    6.402    -0.743
    366    N    2.693    8.277    -1.697
    367    C    2.596    9.610    -1.369
    368    H    3.204    9.946    -0.529
    369    C    1.776    10.438    -2.032
    370    H    1.676    11.487    -1.766
    371    C    1.959    7.779    -2.775
    372    O    2.080    6.592    -3.092
    373    N    1.119    8.598    -3.449
    374    C    1.020    9.892    -3.110
    375    N    0.195    10.676    -3.798
    376    H    -0.341    10.292    -4.556
    377    H    0.057    11.628    -3.533
    378    C    4.890    7.091    -1.681
    379    H    4.775    7.194    -2.776
    380    O    5.372    5.797    -1.373
    381    H    6.238    5.750    -1.795
    382    C    5.816    8.169    -1.125
    383    H    5.539    9.172    -1.530
    384    O    7.233    7.879    -1.254
    385    P    7.963    8.355    -2.575
    386    O    7.684    9.787    -2.799
    387    O    9.391    7.965    -2.499
    388    O    7.261    7.485    -3.691
    389    C    7.599    6.075    -3.824
    390    H    7.393    5.521    -2.883
    391    H    8.684    5.945    -4.045
    392    C    6.805    5.380    -4.944
    393    H    6.996    4.286    -4.952
    394    O    5.376    5.565    -4.744
    395    C    4.747    5.766    -5.999
    396    H    3.953    4.989    -6.085
    397    N    4.133    7.090    -6.079
    398    C    2.895    8.796    -6.677
    399    N    3.616    9.208    -5.566
    400    C    4.346    8.170    -5.259
    401    H    5.049    8.113    -4.427
    402    N    1.429    8.749    -8.537
    403    C    1.851    7.499    -8.740
    404    H    1.406    6.991    -9.604
    405    N    2.702    6.769    -8.015
    406    C    3.207    7.492    -7.003
    407    C    1.938    9.442    -7.485
    408    N    1.512    10.689    -7.229
    409    H    1.985    11.251    -6.552
    410    H    0.840    11.129    -7.831
    411    C    5.784    5.552    -7.079
    412    H    5.630    6.202    -7.970
    413    O    5.791    4.195    -7.475
    414    H    6.553    4.090    -8.057
    415    C    7.069    5.920    -6.353
    416    H    7.150    7.023    -6.231
    417    O    8.263    5.325    -6.904
    418    P    9.134    6.139    -7.935
    419    O    9.359    7.500    -7.406
    420    O    10.332    5.331    -8.241
    421    O    8.213    6.241    -9.213
    422    C    8.040    5.092    -10.076
    423    H    7.634    4.227    -9.505
    424    H    9.016    4.784    -10.516
    425    C    7.066    5.385    -11.232
    426    H    6.840    4.453    -11.792
    427    O    5.801    5.881    -10.709
    428    C    5.251    6.824    -11.618
    429    H    4.256    6.431    -11.926
    430    N    5.065    8.130    -10.990
    431    C    4.145    9.078    -11.356
    432    N    1.606    10.205    -13.447
    433    H    1.523    9.471    -14.116
    434    H    1.090    11.054    -13.585
    435    N    3.255    8.983    -12.368
    436    C    2.508    10.083    -12.494
    437    N    2.651    11.171    -11.690
    438    H    2.040    11.959    -11.835
    439    C    3.552    11.294    -10.655
    440    O    3.583    12.348    -10.028
    441    C    4.354    10.134    -10.496
    442    N    5.389    9.855    -9.602
    443    C    5.784    8.652    -9.938
    444    H    6.593    8.087    -9.466
    445    C    6.162    6.898    -12.829
    446    H    6.254    7.929    -13.234
    447    O    5.699    6.018    -13.844
    448    H    6.420    5.918    -14.487
    449    C    7.499    6.454    -12.248
    450    H    7.955    7.285    -11.661
    451    O    8.381    5.901    -13.244
    452    P    9.869    6.367    -13.409
    453    O    10.652    5.960    -12.223
    454    O    10.358    5.874    -14.716
    455    O    9.781    7.937    -13.436
    456    C    9.269    8.663    -14.576
    457    H    8.168    8.518    -14.666
    458    H    9.738    8.302    -15.521
    459    C    9.546    10.174    -14.458
    460    H    9.186    10.717    -15.358
    461    O    8.827    10.719    -13.309
    462    C    9.650    11.685    -12.654
    463    H    9.049    12.621    -12.607
    464    N    10.034    11.287    -11.269
    465    C    9.890    9.983    -10.858
    466    H    9.447    9.291    -11.578
    467    C    10.226    9.600    -9.620
    468    H    10.100    8.578    -9.283
    469    C    10.559    12.235    -10.389
    470    O    10.704    13.403    -10.768
    471    N    10.908    11.859    -9.134
    472    C    10.742    10.588    -8.738
    473    N    11.068    10.243    -7.496
    474    H    11.317    10.954    -6.834
    475    H    10.781    9.351    -7.146
    476    C    10.855    11.922    -13.543
    477    H    11.758    12.200    -12.967
    478    O    10.565    12.935    -14.489
    479    H    11.320    12.985    -15.090
    480    C    11.015    10.561    -14.206
    481    H    11.399    9.819    -13.471
    482    O    11.763    10.574    -15.448
    483    P    13.314    10.280    -15.395
    484    O    13.578    9.223    -14.393
    485    O    13.818    10.046    -16.762
    486    O    13.939    11.602    -14.842
    487    C    13.949    12.843    -15.574
    488    H    12.931    13.102    -15.943
    489    H    14.624    12.771    -16.458
    490    C    14.448    13.992    -14.680
    491    H    14.419    14.956    -15.230
    492    O    13.584    14.127    -13.509
    493    C    14.377    14.476    -12.375
    494    H    13.942    15.423    -11.979
    495    N    14.355    13.443    -11.291
    496    C    13.986    12.153    -11.583
    497    H    13.699    11.963    -12.615
    498    C    13.933    11.203    -10.640
    499    H    13.600    10.191    -10.851
    500    C    14.772    13.759    -9.995
    501    O    15.176    14.900    -9.746
    502    N    14.721    12.810    -9.025
    503    C    14.305    11.568    -9.315
    504    N    14.239    10.658    -8.344
    505    H    14.537    10.901    -7.416
    506    H    13.946    9.717    -8.520
    507    C    15.778    14.755    -12.883
    508    H    16.556    14.514    -12.133
    509    O    15.895    16.112    -13.263
    510    H    16.786    16.223    -13.614
    511    C    15.861    13.829    -14.092
    512    H    15.946    12.769    -13.761
    513    O    16.853    14.199    -15.075
    514    P    18.275    13.529    -15.070
    515    O    18.117    12.078    -14.838
    516    O    18.987    13.933    -16.301
    517    O    18.994    14.171    -13.820
    518    C    19.284    15.589    -13.790
    519    H    18.381    16.198    -14.012
    520    H    20.053    15.841    -14.557
    521    C    19.825    16.025    -12.416
    522    H    20.120    17.095    -12.427
    523    O    18.795    15.878    -11.394
    524    C    19.389    15.426    -10.181
    525    H    19.119    16.180    -9.405
    526    N    18.884    14.076    -9.783
    527    C    18.289    13.242    -10.701
    528    H    18.259    13.621    -11.721
    529    C    19.037    13.678    -8.473
    530    O    19.569    14.385    -7.625
    531    N    18.554    12.427    -8.187
    532    H    18.682    12.117    -7.230
    533    C    17.929    11.551    -9.047
    534    O    17.535    10.459    -8.638
    535    C    17.802    12.034    -10.388
    536    H    17.322    11.404    -11.133
    537    C    20.899    15.439    -10.387
    538    H    21.396    14.622    -9.823
    539    O    21.443    16.692    -9.996
    540    H    22.374    16.731    -10.279
    541    C    21.008    15.204    -11.889
    542    H    20.822    14.134    -12.126
    543    O    22.243    15.655    -12.475
    544    H    22.983    15.125    -12.130
 $END
