!*** FMO 5.3 (Gamess) INPUT generated by Facio 22.1.1.32 ***
 $CONTRL RUNTYP=ENERGY NPRINT=-5 ISPHER=1 MAXIT=200 $END
 $SYSTEM MWORDS=63 MEMDDI=63 $END
 $GDDI NGROUP=1 $END
 $SCF DIRSCF=.TRUE. NPUNCH=0 $END
!*** NumCPU : 2  MemPerNode : 512MB
 $PCM SOLVNT=WATER IEF=-10 ICOMP=2 ICAV=1 IDISP=1 IFMO=-1 $END
 $PCMCAV RADII=SUAHF $END
 $TESCAV NTSALL=60 $END
 $FMOPRP
    NAODIR=200
    NGRFMO(1)=1, 1, 0, 0, 0,   0, 0, 0, 0, 0
    IPIEDA=1
    NPRINT=9
 $END
 $FMO
      SCFTYP(1)=RHF
      MODGRD=10
      MODMUL=0
      MAXCAO=5
      MAXBND=19
      NLAYER=1
      MPLEVL(1)=2
      NFRAG=17
      ICHARG(1)=-1, -1, -1, -1, -1, -1, -1, -1, -1, -1, 0, -1, -1, -1,
-1, -1, 0
      FRGNAM(1)=F1, F2, F3, F4, F5, F6, F7, F8, F9, F10, F11, F12, F13,
F14, F15, F16, F17
      indat(1)=0
               1   -35   0
               36   -69   0
               70   -103   0
               104   -136   0
               137   -169   0
               170   -200   0
               201   -230   0
               231   -263   0
               264   -294   0
               295   -324   0
               325   -357   0
               358   -388   0
               389   -421   0
               422   -455   0
               456   -486   0
               487   -517   0
               518   -544   0
 $END

 $FMOBND
   -36   35       6-31G*    MINI
   -70   69       6-31G*    MINI
   -104   103       6-31G*    MINI
   -137   136       6-31G*    MINI
   -170   169       6-31G*    MINI
   -201   200       6-31G*    MINI
   -231   230       6-31G*    MINI
   -264   263       6-31G*    MINI
   -295   294       6-31G*    MINI
   -325   324       6-31G*    MINI
   -358   357       6-31G*    MINI
   -389   388       6-31G*    MINI
   -422   421       6-31G*    MINI
   -456   455       6-31G*    MINI
   -487   486       6-31G*    MINI
   -518   517       6-31G*    MINI
 $END
 $FMOHYB
 6-31G*      15   5
   1 0  -0.065034   0.288264   0.000000   0.000000   0.604412
         0.290129   0.000000   0.000000   0.319045  -0.017106
        -0.017106   0.057934   0.000000   0.000000   0.000000
   0 1  -0.065040   0.288293   0.569832   0.000000  -0.201456
         0.290147   0.300783   0.000000  -0.106342   0.049598
        -0.017106  -0.008771   0.000000  -0.027223   0.000000
   0 1  -0.065039   0.288293  -0.284916  -0.493490  -0.201455
         0.290145  -0.150392  -0.260486  -0.106340  -0.000427
         0.032923  -0.008771   0.033353   0.013612   0.023576
   0 1  -0.065039   0.288293  -0.284916   0.493490  -0.201455
         0.290145  -0.150392   0.260486  -0.106340  -0.000427
         0.032923  -0.008771  -0.033353   0.013612  -0.023576
   0 1   1.010938  -0.011975   0.000000   0.000000   0.000000
        -0.054085   0.000000   0.000000  -0.000000  -0.003174
        -0.003174  -0.003174   0.000000   0.000000   0.000000
 MINI         5   5
   1 0  -0.104883   0.308874   0.000000   0.000000   0.521806
   0 1  -0.104883   0.308874   0.491961   0.000000  -0.173934
   0 1  -0.104883   0.308876  -0.245980  -0.426050  -0.173933
   0 1  -0.104883   0.308876  -0.245980   0.426050  -0.173933
   0 1   0.988209   0.063992   0.000000   0.000000   0.000000
 $END
 
 $DATA
 FMO calculation
 C1 
 H.1-1    1
      N31 6
   
 O.1-1    8
      N31 6
      d 1
      1 0.800 1.0
   
 C.1-1    6
      N31 6
      d 1
      1 0.800 1.0
   
 N.1-1    7
      N31 6
      d 1
      1 0.800 1.0
   
 P.1-1   15
      N31 6
      d 1
      1 0.550 1.0
   
 $END
 $FMOXYZ
    1    H    16.308    4.546    1.407
    2    O    16.888    5.243    1.051
    3    C    17.926    5.448    2.019
    4    H    18.520    4.512    2.126
    5    H    17.466    5.665    3.008
    6    C    18.873    6.591    1.646
    7    H    19.646    6.734    2.434
    8    O    19.571    6.277    0.405
    9    C    19.704    7.462    -0.363
    10    H    20.790    7.584    -0.582
    11    N    18.968    7.359    -1.630
    12    C    18.274    7.650    -3.698
    13    N    17.542    6.579    -3.191
    14    C    17.991    6.449    -1.963
    15    H    17.653    5.698    -1.243
    16    N    19.145    9.327    -5.134
    17    C    19.920    9.693    -4.107
    18    H    20.589    10.541    -4.298
    19    N    20.013    9.158    -2.885
    20    C    19.152    8.138    -2.744
    21    C    18.296    8.279    -4.964
    22    N    17.546    7.881    -6.011
    23    H    16.898    7.119    -5.935
    24    H    17.563    8.395    -6.872
    25    C    19.232    8.617    0.493
    26    H    18.786    9.436    -0.104
    27    O    20.308    9.119    1.259
    28    H    19.947    9.860    1.761
    29    C    18.192    7.943    1.386
    30    H    17.264    7.730    0.808
    31    O    17.932    8.611    2.648
    32    P    16.775    9.677    2.712
    33    O    15.568    9.105    2.081
    34    O    16.629    10.148    4.105
    35    O    17.319    10.848    1.814
    36    C    18.408    11.678    2.289
    37    H    19.296    11.070    2.582
    38    H    18.094    12.266    3.183
    39    C    18.848    12.676    1.212
    40    H    19.722    13.272    1.547
    41    O    19.234    11.963    0.003
    42    C    18.822    12.711    -1.132
    43    H    19.737    12.905    -1.740
    44    N    17.858    11.973    -1.963
    45    C    17.551    12.234    -3.273
    46    N    17.927    14.156    -6.130
    47    H    18.557    14.870    -5.833
    48    H    17.523    14.220    -7.046
    49    N    18.062    13.227    -4.022
    50    C    17.577    13.227    -5.260
    51    N    16.687    12.294    -5.719
    52    H    16.379    12.366    -6.676
    53    C    16.157    11.247    -4.975
    54    O    15.360    10.441    -5.469
    55    C    16.639    11.262    -3.639
    56    N    16.355    10.418    -2.571
    57    C    17.095    10.888    -1.594
    58    H    17.135    10.487    -0.579
    59    C    18.271    14.024    -0.633
    60    H    17.461    14.422    -1.278
    61    O    19.326    14.960    -0.540
    62    H    18.959    15.739    -0.104
    63    C    17.753    13.644    0.747
    64    H    16.819    13.043    0.660
    65    O    17.633    14.745    1.680
    66    P    16.271    15.542    1.733
    67    O    15.159    14.565    1.809
    68    O    16.341    16.544    2.812
    69    O    16.169    16.276    0.344
    70    C    17.033    17.380    -0.010
    71    H    18.105    17.125    0.148
    72    H    16.818    18.271    0.622
    73    C    16.862    17.785    -1.483
    74    H    17.596    18.571    -1.761
    75    O    17.108    16.648    -2.354
    76    C    16.263    16.738    -3.493
    77    H    16.936    16.760    -4.382
    78    N    15.359    15.586    -3.613
    79    C    14.690    15.198    -4.746
    80    N    13.873    15.710    -8.070
    81    H    14.412    16.520    -8.293
    82    H    13.312    15.286    -8.787
    83    N    14.738    15.809    -5.944
    84    C    13.965    15.215    -6.848
    85    N    13.221    14.095    -6.582
    86    H    12.713    13.673    -7.344
    87    C    13.170    13.429    -5.365
    88    O    12.482    12.415    -5.213
    89    C    13.979    14.069    -4.387
    90    N    14.197    13.752    -3.050
    91    C    15.018    14.687    -2.629
    92    H    15.409    14.781    -1.612
    93    C    15.511    18.049    -3.397
    94    H    14.485    17.981    -3.823
    95    O    16.232    19.077    -4.052
    96    H    15.778    19.910    -3.858
    97    C    15.469    18.283    -1.889
    98    H    14.733    17.608    -1.397
    99    O    15.306    19.661    -1.489
    100    P    13.876    20.329    -1.562
    101    O    12.962    19.550    -0.696
    102    O    14.040    21.765    -1.258
    103    O    13.431    20.196    -3.072
    104    C    12.026    20.232    -3.417
    105    H    11.597    21.236    -3.194
    106    H    11.448    19.476    -2.838
    107    C    11.813    19.944    -4.911
    108    H    12.387    20.669    -5.527
    109    O    12.309    18.613    -5.249
    110    C    11.515    18.071    -6.292
    111    H    12.208    17.853    -7.138
    112    N    10.863    16.826    -5.870
    113    C    9.780    14.912    -5.852
    114    N    10.208    15.128    -4.549
    115    C    10.836    16.276    -4.607
    116    H    11.299    16.782    -3.754
    117    N    8.778    13.966    -7.776
    118    C    9.240    15.025    -8.441
    119    H    8.997    15.049    -9.509
    120    N    9.935    16.072    -7.986
    121    C    10.182    15.947    -6.676
    122    C    9.040    13.870    -6.445
    123    N    8.614    12.805    -5.738
    124    H    8.809    12.696    -4.762
    125    H    8.139    12.038    -6.199
    126    C    10.523    19.137    -6.711
    127    H    9.551    18.715    -7.039
    128    O    11.084    19.921    -7.749
    129    H    10.524    20.702    -7.855
    130    C    10.363    19.937    -5.423
    131    H    9.764    19.369    -4.674
    132    O    9.888    21.284    -5.622
    133    P    8.346    21.598    -5.538
    134    O    7.846    21.100    -4.235
    135    O    8.146    23.034    -5.830
    136    O    7.680    20.731    -6.673
    137    C    7.820    21.069    -8.072
    138    H    8.892    21.162    -8.355
    139    H    7.328    22.046    -8.284
    140    C    7.186    20.009    -8.990
    141    H    7.404    20.221    -10.058
    142    O    7.727    18.694    -8.689
    143    C    6.701    17.721    -8.782
    144    H    7.055    16.956    -9.511
    145    N    6.476    17.082    -7.488
    146    C    5.931    15.678    -5.899
    147    N    6.583    16.730    -5.273
    148    C    6.882    17.538    -6.254
    149    H    7.405    18.488    -6.142
    150    N    4.778    13.649    -6.280
    151    C    4.789    13.974    -7.575
    152    H    4.299    13.249    -8.232
    153    N    5.278    15.072    -8.174
    154    C    5.849    15.884    -7.264
    155    C    5.370    14.493    -5.403
    156    N    5.391    14.133    -4.108
    157    H    5.742    14.718    -3.373
    158    H    4.941    13.280    -3.852
    159    C    5.464    18.405    -9.315
    160    H    4.525    17.978    -8.901
    161    O    5.443    18.331    -10.730
    162    H    4.809    18.992    -11.045
    163    C    5.672    19.835    -8.830
    164    H    5.468    19.909    -7.737
    165    O    4.975    20.828    -9.609
    166    P    3.598    21.390    -9.088
    167    O    3.818    22.012    -7.766
    168    O    3.004    22.233    -10.143
    169    O    2.723    20.109    -8.871
    170    C    2.092    19.417    -9.966
    171    H    2.853    18.991    -10.658
    172    H    1.436    20.108    -10.548
    173    C    1.231    18.260    -9.446
    174    H    0.705    17.764    -10.290
    175    O    2.072    17.257    -8.809
    176    C    1.382    16.696    -7.700
    177    H    1.319    15.603    -7.917
    178    N    2.095    16.891    -6.420
    179    C    2.819    18.041    -6.225
    180    H    2.869    18.725    -7.072
    181    C    3.474    18.264    -5.079
    182    H    4.084    19.149    -4.920
    183    C    1.926    15.985    -5.372
    184    O    1.170    15.015    -5.514
    185    N    2.589    16.189    -4.211
    186    C    3.358    17.278    -4.053
    187    N    4.027    17.428    -2.914
    188    H    3.962    16.711    -2.218
    189    H    4.624    18.209    -2.745
    190    C    -0.009    17.286    -7.667
    191    H    -0.407    17.429    -6.642
    192    O    -0.862    16.438    -8.387
    193    H    -1.018    16.840    -9.252
    194    C    0.196    18.622    -8.372
    195    H    0.722    19.316    -7.677
    196    O    -0.996    19.190    -8.976
    197    P    -1.647    20.462    -8.295
    198    O    -0.606    21.264    -7.615
    199    O    -2.440    21.163    -9.325
    200    O    -2.591    19.859    -7.181
    201    C    -3.767    19.080    -7.488
    202    H    -3.743    18.133    -6.901
    203    H    -3.810    18.778    -8.560
    204    C    -5.058    19.836    -7.121
    205    H    -5.073    20.076    -6.038
    206    O    -5.132    21.098    -7.849
    207    C    -6.432    21.306    -8.365
    208    H    -6.730    22.327    -8.027
    209    N    -6.458    21.238    -9.858
    210    C    -5.420    20.679    -10.577
    211    H    -4.585    20.300    -9.983
    212    C    -7.549    21.775    -10.504
    213    O    -8.490    22.278    -9.899
    214    N    -7.503    21.720    -11.875
    215    H    -8.305    22.097    -12.355
    216    C    -6.501    21.188    -12.657
    217    O    -6.595    21.216    -13.884
    218    C    -5.403    20.639    -11.918
    219    H    -4.565    20.216    -12.467
    220    C    -7.330    20.278    -7.713
    221    H    -8.169    19.972    -8.374
    222    O    -7.847    20.786    -6.490
    223    H    -7.109    20.925    -5.877
    224    C    -6.359    19.122    -7.497
    225    H    -6.160    18.620    -8.470
    226    O    -6.775    18.222    -6.461
    227    P    -6.866    16.667    -6.594
    228    O    -5.543    16.123    -6.223
    229    O    -8.027    16.187    -5.818
    230    O    -7.121    16.355    -8.118
    231    C    -8.305    16.831    -8.804
    232    H    -8.595    17.859    -8.490
    233    H    -9.168    16.172    -8.572
    234    C    -8.107    16.843    -10.328
    235    H    -8.985    17.289    -10.843
    236    O    -6.939    17.643    -10.682
    237    C    -6.230    16.999    -11.730
    238    H    -6.131    17.743    -12.553
    239    N    -4.900    16.581    -11.287
    240    C    -2.797    15.948    -11.231
    241    N    -3.209    16.070    -9.920
    242    C    -4.453    16.445    -9.998
    243    H    -5.088    16.666    -9.140
    244    N    -1.490    15.571    -13.162
    245    C    -2.603    15.814    -13.863
    246    H    -2.499    15.737    -14.949
    247    N    -3.810    16.198    -13.429
    248    C    -3.837    16.247    -12.089
    249    C    -1.552    15.613    -11.809
    250    N    -0.446    15.319    -11.099
    251    H    -0.499    15.124    -10.117
    252    H    0.397    15.089    -11.591
    253    C    -7.063    15.829    -12.200
    254    H    -6.445    14.973    -12.540
    255    O    -7.924    16.242    -13.243
    256    H    -8.582    15.544    -13.365
    257    C    -7.831    15.462    -10.939
    258    H    -7.156    14.941    -10.220
    259    O    -9.070    14.754    -11.178
    260    P    -9.118    13.185    -11.016
    261    O    -8.594    12.835    -9.676
    262    O    -10.482    12.725    -11.346
    263    O    -8.099    12.638    -12.080
    264    C    -8.354    12.716    -13.496
    265    H    -8.568    13.761    -13.811
    266    H    -9.235    12.091    -13.762
    267    C    -7.149    12.209    -14.302
    268    H    -7.369    12.231    -15.392
    269    O    -6.007    13.093    -14.084
    270    C    -4.820    12.313    -13.994
    271    H    -4.137    12.727    -14.770
    272    N    -4.149    12.418    -12.663
    273    C    -4.865    12.783    -11.548
    274    H    -5.918    13.007    -11.710
    275    C    -4.283    12.895    -10.343
    276    H    -4.835    13.206    -9.457
    277    C    -2.800    12.090    -12.535
    278    O    -2.180    11.684    -13.523
    279    N    -2.191    12.216    -11.333
    280    C    -2.886    12.618    -10.257
    281    N    -2.254    12.753    -9.089
    282    H    -1.264    12.595    -9.046
    283    H    -2.720    13.074    -8.264
    284    C    -5.181    10.888    -14.376
    285    H    -4.557    10.138    -13.853
    286    O    -5.059    10.708    -15.775
    287    H    -5.405    9.828    -15.975
    288    C    -6.637    10.810    -13.938
    289    H    -6.694    10.736    -12.827
    290    O    -7.417    9.806    -14.629
    291    P    -7.788    8.462    -13.905
    292    O    -8.036    8.749    -12.476
    293    O    -8.875    7.802    -14.657
    294    O    -6.477    7.605    -14.027
    295    C    -6.021    7.107    -15.305
    296    H    -6.000    7.917    -16.069
    297    H    -6.705    6.300    -15.665
    298    C    -4.601    6.517    -15.209
    299    H    -4.283    6.115    -16.196
    300    O    -3.642    7.555    -14.842
    301    C    -2.684    7.015    -13.934
    302    H    -1.686    7.215    -14.392
    303    N    -2.767    7.657    -12.585
    304    C    -3.909    8.302    -12.175
    305    H    -4.713    8.320    -12.902
    306    C    -1.667    7.590    -11.757
    307    O    -0.640    7.018    -12.075
    308    N    -1.810    8.251    -10.557
    309    H    -1.030    8.169    -9.913
    310    C    -2.905    8.947    -10.103
    311    O    -2.873    9.525    -9.017
    312    C    -4.012    8.945    -11.004
    313    H    -4.912    9.487    -10.722
    314    C    -2.912    5.513    -13.881
    315    H    -2.644    5.083    -12.896
    316    O    -2.169    4.858    -14.888
    317    H    -2.455    3.937    -14.882
    318    C    -4.408    5.420    -14.152
    319    H    -4.972    5.757    -13.251
    320    O    -4.855    4.143    -14.674
    321    P    -5.522    3.124    -13.670
    322    O    -6.453    3.824    -12.765
    323    O    -6.090    2.018    -14.481
    324    O    -4.308    2.588    -12.830
    325    C    -3.317    1.742    -13.459
    326    H    -2.868    2.232    -14.357
    327    H    -3.780    0.781    -13.787
    328    C    -2.201    1.409    -12.461
    329    H    -1.458    0.715    -12.907
    330    O    -1.497    2.631    -12.096
    331    C    -1.146    2.570    -10.720
    332    H    -0.040    2.701    -10.669
    333    N    -1.780    3.653    -9.956
    334    C    -1.380    4.118    -8.733
    335    N    0.775    3.976    -6.022
    336    H    1.347    3.192    -6.248
    337    H    0.917    4.456    -5.152
    338    N    -0.363    3.631    -8.000
    339    C    -0.183    4.314    -6.868
    340    N    -0.982    5.363    -6.491
    341    H    -0.793    5.813    -5.609
    342    C    -2.055    5.870    -7.218
    343    O    -2.740    6.806    -6.792
    344    C    -2.244    5.154    -8.431
    345    N    -3.194    5.317    -9.435
    346    C    -2.882    4.397    -10.317
    347    H    -3.404    4.212    -11.257
    348    C    -1.509    1.192    -10.202
    349    H    -1.832    1.216    -9.139
    350    O    -0.406    0.313    -10.353
    351    H    -0.716    -0.598    -10.210
    352    C    -2.667    0.818    -11.120
    353    H    -3.592    1.347    -10.805
    354    O    -2.898    -0.602    -11.220
    355    H    -3.230    -0.943    -10.367
    356    H    1.311    10.135    1.620
    357    O    1.545    9.471    0.947
    358    C    2.465    8.557    1.562
    359    H    1.980    8.105    2.457
    360    H    3.360    9.120    1.909
    361    C    2.928    7.429    0.629
    362    H    3.690    6.790    1.125
    363    O    1.796    6.570    0.288
    364    C    1.893    6.191    -1.082
    365    H    1.864    5.078    -1.101
    366    N    0.774    6.718    -1.920
    367    C    0.023    7.785    -1.486
    368    H    0.281    8.191    -0.507
    369    C    -0.990    8.273    -2.216
    370    H    -1.598    9.106    -1.877
    371    C    0.528    6.175    -3.181
    372    O    1.256    5.271    -3.605
    373    N    -0.511    6.631    -3.918
    374    C    -1.260    7.650    -3.469
    375    N    -2.283    8.076    -4.210
    376    H    -2.462    7.651    -5.101
    377    H    -2.862    8.834    -3.911
    378    C    3.249    6.649    -1.576
    379    H    3.249    6.898    -2.655
    380    O    4.224    5.654    -1.322
    381    H    5.071    6.026    -1.600
    382    C    3.483    7.888    -0.726
    383    H    2.830    8.722    -1.075
    384    O    4.871    8.273    -0.586
    385    P    5.459    9.312    -1.611
    386    O    4.535    10.465    -1.669
    387    O    6.856    9.602    -1.224
    388    O    5.430    8.529    -2.978
    389    C    6.404    7.482    -3.211
    390    H    6.355    6.700    -2.422
    391    H    7.438    7.899    -3.204
    392    C    6.182    6.795    -4.564
    393    H    6.901    5.956    -4.702
    394    O    4.842    6.225    -4.632
    395    C    4.331    6.398    -5.943
    396    H    4.025    5.391    -6.311
    397    N    3.171    7.285    -5.956
    398    C    1.344    8.340    -6.561
    399    N    1.672    8.825    -5.299
    400    C    2.768    8.173    -4.992
    401    H    3.332    8.297    -4.067
    402    N    0.270    7.968    -8.639
    403    C    1.239    7.096    -8.899
    404    H    1.143    6.603    -9.867
    405    N    2.263    6.715    -8.134
    406    C    2.267    7.396    -6.975
    407    C    0.287    8.627    -7.450
    408    N    -0.711    9.481    -7.163
    409    H    -0.741    9.997    -6.303
    410    H    -1.484    9.549    -7.800
    411    C    5.453    6.939    -6.796
    412    H    5.096    7.599    -7.614
    413    O    6.200    5.867    -7.336
    414    H    6.961    6.271    -7.771
    415    C    6.268    7.725    -5.780
    416    H    5.756    8.674    -5.494
    417    O    7.648    7.924    -6.137
    418    P    8.102    9.151    -7.009
    419    O    7.545    10.390    -6.430
    420    O    9.571    9.083    -7.144
    421    O    7.435    8.926    -8.406
    422    C    7.922    7.935    -9.333
    423    H    7.945    6.922    -8.871
    424    H    8.960    8.171    -9.660
    425    C    7.003    7.877    -10.562
    426    H    7.295    7.040    -11.229
    427    O    5.624    7.635    -10.145
    428    C    4.737    8.344    -10.996
    429    H    4.038    7.594    -11.427
    430    N    3.948    9.349    -10.264
    431    C    2.753    9.888    -10.670
    432    N    0.161    10.103    -12.970
    433    H    0.494    9.551    -13.733
    434    H    -0.665    10.655    -13.101
    435    N    2.102    9.599    -11.815
    436    C    0.930    10.229    -11.902
    437    N    0.471    11.092    -10.944
    438    H    -0.425    11.532    -11.090
    439    C    1.119    11.417    -9.760
    440    O    0.610    12.215    -8.968
    441    C    2.373    10.750    -9.657
    442    N    3.330    10.778    -8.648
    443    C    4.247    9.927    -9.051
    444    H    5.158    9.663    -8.507
    445    C    5.565    8.951    -12.106
    446    H    5.153    9.923    -12.454
    447    O    5.642    8.038    -13.190
    448    H    6.271    8.411    -13.843
    449    C    6.926    9.151    -11.417
    450    H    6.882    10.014    -10.711
    451    O    8.093    9.248    -12.278
    452    P    8.010    10.200    -13.530
    453    O    7.441    9.414    -14.651
    454    O    7.283    11.424    -13.143
    455    O    9.514    10.546    -13.856
    456    C    9.803    11.483    -14.928
    457    H    8.886    11.840    -15.460
    458    H    10.423    10.961    -15.689
    459    C    10.555    12.743    -14.457
    460    H    10.499    13.536    -15.234
    461    O    9.954    13.289    -13.239
    462    C    10.979    13.763    -12.381
    463    H    10.714    14.821    -12.161
    464    N    11.073    13.020    -11.085
    465    C    10.460    11.800    -10.924
    466    H    9.905    11.427    -11.781
    467    C    10.523    11.127    -9.765
    468    H    10.025    10.171    -9.619
    469    C    11.807    13.564    -10.029
    470    O    12.367    14.655    -10.180
    471    N    11.891    12.891    -8.856
    472    C    11.256    11.720    -8.699
    473    N    11.337    11.082    -7.533
    474    H    10.740    10.283    -7.357
    475    H    11.758    11.533    -6.744
    476    C    12.274    13.726    -13.171
    477    H    13.159    13.555    -12.527
    478    O    12.438    14.934    -13.890
    479    H    13.275    14.860    -14.362
    480    C    12.037    12.546    -14.115
    481    H    12.087    11.584    -13.553
    482    O    12.839    12.544    -15.333
    483    P    14.232    11.802    -15.282
    484    O    14.044    10.515    -14.580
    485    O    14.793    11.716    -16.646
    486    O    15.141    12.721    -14.398
    487    C    15.598    14.007    -14.862
    488    H    14.745    14.650    -15.177
    489    H    16.272    13.891    -15.744
    490    C    16.360    14.737    -13.747
    491    H    16.676    15.745    -14.094
    492    O    15.496    14.926    -12.588
    493    C    16.268    14.776    -11.400
    494    H    16.136    15.725    -10.830
    495    N    15.814    13.632    -10.550
    496    C    15.133    12.581    -11.115
    497    H    14.933    12.664    -12.180
    498    C    14.701    11.545    -10.384
    499    H    14.131    10.727    -10.816
    500    C    16.154    13.576    -9.200
    501    O    16.859    14.471    -8.719
    502    N    15.710    12.547    -8.438
    503    C    14.995    11.556    -8.992
    504    N    14.563    10.564    -8.221
    505    H    14.819    10.542    -7.251
    506    H    14.063    9.783    -8.593
    507    C    17.723    14.653    -11.813
    508    H    18.306    14.017    -11.120
    509    O    18.332    15.929    -11.895
    510    H    19.232    15.782    -12.213
    511    C    17.593    14.009    -13.189
    512    H    17.306    12.937    -13.084
    513    O    18.721    14.214    -14.068
    514    P    19.820    13.095    -14.176
    515    O    19.158    11.773    -14.217
    516    O    20.724    13.421    -15.299
    517    O    20.604    13.230    -12.825
    518    C    21.382    14.415    -12.545
    519    H    20.782    15.350    -12.650
    520    H    22.240    14.489    -13.253
    521    C    21.956    14.343    -11.121
    522    H    22.615    15.214    -10.922
    523    O    20.882    14.378    -10.128
    524    C    21.212    13.505    -9.047
    525    H    21.177    14.133    -8.125
    526    N    20.247    12.369    -8.929
    527    C    19.476    11.973    -9.999
    528    H    19.626    12.544    -10.911
    529    C    20.152    11.717    -7.718
    530    O    20.838    12.021    -6.748
    531    N    19.233    10.700    -7.679
    532    H    19.183    10.195    -6.801
    533    C    18.405    10.275    -8.697
    534    O    17.605    9.362    -8.500
    535    C    18.561    10.996    -9.924
    536    H    17.927    10.745    -10.771
    537    C    22.643    13.026    -9.269
    538    H    22.795    11.993    -8.892
    539    O    23.558    13.915    -8.642
    540    H    24.458    13.692    -8.933
    541    C    22.739    13.066    -10.792
    542    H    22.208    12.192    -11.240
    543    O    24.082    13.167    -11.290
    544    H    24.566    12.341    -11.106
 $END
