!*** FMO 5.3 (Gamess) INPUT generated by Facio 22.1.1.32 ***
 $CONTRL RUNTYP=ENERGY NPRINT=-5 ISPHER=1 MAXIT=200 $END
 $SYSTEM MWORDS=63 MEMDDI=63 $END
 $GDDI NGROUP=1 $END
 $SCF DIRSCF=.TRUE. NPUNCH=0 $END
!*** NumCPU : 2  MemPerNode : 512MB
 $PCM SOLVNT=WATER IEF=-10 ICOMP=2 ICAV=1 IDISP=1 IFMO=-1 $END
 $PCMCAV RADII=SUAHF $END
 $TESCAV NTSALL=60 $END
 $FMOPRP
    NAODIR=200
    NGRFMO(1)=1, 1, 0, 0, 0,   0, 0, 0, 0, 0
    IPIEDA=1
    NPRINT=9
 $END
 $FMO
      SCFTYP(1)=RHF
      MODGRD=10
      MODMUL=0
      MAXCAO=5
      MAXBND=19
      NLAYER=1
      MPLEVL(1)=2
      NFRAG=17
      ICHARG(1)=-1, -1, -1, -1, -1, -1, -1, -1, -1, -1, 0, -1, -1, -1,
-1, -1, 0
      FRGNAM(1)=F1, F2, F3, F4, F5, F6, F7, F8, F9, F10, F11, F12, F13,
F14, F15, F16, F17
      indat(1)=0
               1   -35   0
               36   -69   0
               70   -103   0
               104   -136   0
               137   -169   0
               170   -200   0
               201   -230   0
               231   -263   0
               264   -294   0
               295   -324   0
               325   -357   0
               358   -388   0
               389   -421   0
               422   -455   0
               456   -486   0
               487   -517   0
               518   -544   0
 $END

 $FMOBND
   -36   35       6-31G*    MINI
   -70   69       6-31G*    MINI
   -104   103       6-31G*    MINI
   -137   136       6-31G*    MINI
   -170   169       6-31G*    MINI
   -201   200       6-31G*    MINI
   -231   230       6-31G*    MINI
   -264   263       6-31G*    MINI
   -295   294       6-31G*    MINI
   -325   324       6-31G*    MINI
   -358   357       6-31G*    MINI
   -389   388       6-31G*    MINI
   -422   421       6-31G*    MINI
   -456   455       6-31G*    MINI
   -487   486       6-31G*    MINI
   -518   517       6-31G*    MINI
 $END
 $FMOHYB
 6-31G*      15   5
   1 0  -0.065034   0.288264   0.000000   0.000000   0.604412
         0.290129   0.000000   0.000000   0.319045  -0.017106
        -0.017106   0.057934   0.000000   0.000000   0.000000
   0 1  -0.065040   0.288293   0.569832   0.000000  -0.201456
         0.290147   0.300783   0.000000  -0.106342   0.049598
        -0.017106  -0.008771   0.000000  -0.027223   0.000000
   0 1  -0.065039   0.288293  -0.284916  -0.493490  -0.201455
         0.290145  -0.150392  -0.260486  -0.106340  -0.000427
         0.032923  -0.008771   0.033353   0.013612   0.023576
   0 1  -0.065039   0.288293  -0.284916   0.493490  -0.201455
         0.290145  -0.150392   0.260486  -0.106340  -0.000427
         0.032923  -0.008771  -0.033353   0.013612  -0.023576
   0 1   1.010938  -0.011975   0.000000   0.000000   0.000000
        -0.054085   0.000000   0.000000  -0.000000  -0.003174
        -0.003174  -0.003174   0.000000   0.000000   0.000000
 MINI         5   5
   1 0  -0.104883   0.308874   0.000000   0.000000   0.521806
   0 1  -0.104883   0.308874   0.491961   0.000000  -0.173934
   0 1  -0.104883   0.308876  -0.245980  -0.426050  -0.173933
   0 1  -0.104883   0.308876  -0.245980   0.426050  -0.173933
   0 1   0.988209   0.063992   0.000000   0.000000   0.000000
 $END
 
 $DATA
 FMO calculation
 C1 
 H.1-1    1
      N31 6
   
 O.1-1    8
      N31 6
      d 1
      1 0.800 1.0
   
 C.1-1    6
      N31 6
      d 1
      1 0.800 1.0
   
 N.1-1    7
      N31 6
      d 1
      1 0.800 1.0
   
 P.1-1   15
      N31 6
      d 1
      1 0.550 1.0
   
 $END
 $FMOXYZ
    1    H    16.793    7.669    2.668
    2    O    17.147    8.308    2.019
    3    C    18.567    8.363    2.204
    4    H    19.009    7.370    1.957
    5    H    18.784    8.572    3.275
    6    C    19.234    9.447    1.352
    7    H    20.217    9.741    1.780
    8    O    19.508    8.914    0.029
    9    C    19.299    9.927    -0.932
    10    H    20.248    10.028    -1.510
    11    N    18.213    9.552    -1.839
    12    C    16.933    9.356    -3.610
    13    N    16.415    8.478    -2.667
    14    C    17.207    8.634    -1.631
    15    H    17.120    8.090    -0.685
    16    N    17.318    10.559    -5.606
    17    C    18.318    11.169    -4.962
    18    H    18.866    11.927    -5.531
    19    N    18.779    10.954    -3.729
    20    C    18.033    10.030    -3.104
    21    C    16.588    9.622    -4.949
    22    N    15.585    9.008    -5.606
    23    H    14.941    8.397    -5.127
    24    H    15.382    9.259    -6.549
    25    C    19.021    11.217    -0.195
    26    H    18.317    11.864    -0.750
    27    O    20.215    11.930    0.050
    28    H    19.932    12.760    0.457
    29    C    18.400    10.715    1.098
    30    H    17.350    10.402    0.902
    31    O    18.520    11.607    2.227
    32    P    17.351    12.590    2.606
    33    O    17.667    13.183    3.922
    34    O    16.045    11.910    2.456
    35    O    17.442    13.707    1.504
    36    C    18.569    14.605    1.413
    37    H    19.541    14.085    1.590
    38    H    18.479    15.401    2.181
    39    C    18.633    15.284    0.038
    40    H    19.535    15.928    -0.034
    41    O    18.751    14.286    -1.001
    42    C    18.076    14.732    -2.162
    43    H    18.836    14.762    -2.977
    44    N    17.002    13.812    -2.547
    45    C    16.504    13.675    -3.808
    46    N    16.484    14.627    -7.121
    47    H    17.166    15.351    -7.146
    48    H    15.970    14.422    -7.961
    49    N    16.908    14.369    -4.882
    50    C    16.268    14.006    -5.985
    51    N    15.341    13.005    -6.015
    52    H    14.926    12.797    -6.911
    53    C    14.914    12.258    -4.924
    54    O    14.064    11.372    -5.063
    55    C    15.557    12.676    -3.728
    56    N    15.433    12.215    -2.426
    57    C    16.302    12.932    -1.754
    58    H    16.495    12.861    -0.681
    59    C    17.569    16.128    -1.896
    60    H    16.601    16.323    -2.394
    61    O    18.517    17.087    -2.325
    62    H    18.146    17.954    -2.099
    63    C    17.422    16.128    -0.382
    64    H    16.512    15.561    -0.073
    65    O    17.511    17.442    0.205
    66    P    16.250    18.171    0.777
    67    O    16.725    19.400    1.455
    68    O    15.467    17.230    1.601
    69    O    15.428    18.562    -0.515
    70    C    15.629    19.872    -1.114
    71    H    16.662    20.265    -0.930
    72    H    14.907    20.597    -0.674
    73    C    15.447    19.887    -2.644
    74    H    16.039    20.721    -3.078
    75    O    15.955    18.661    -3.240
    76    C    15.129    18.294    -4.331
    77    H    15.794    18.167    -5.214
    78    N    14.412    17.039    -4.081
    79    C    13.814    16.255    -5.030
    80    N    12.910    15.671    -8.329
    81    H    13.355    16.416    -8.819
    82    H    12.434    14.959    -8.853
    83    N    13.766    16.507    -6.353
    84    C    13.112    15.566    -7.030
    85    N    12.602    14.448    -6.435
    86    H    12.069    13.814    -7.014
    87    C    12.626    14.178    -5.069
    88    O    12.146    13.145    -4.603
    89    C    13.289    15.187    -4.341
    90    N    13.506    15.312    -2.975
    91    C    14.160    16.440    -2.865
    92    H    14.515    16.878    -1.929
    93    C    14.170    19.427    -4.579
    94    H    13.196    19.061    -4.953
    95    O    14.716    20.349    -5.503
    96    H    14.108    21.102    -5.516
    97    C    14.022    20.027    -3.189
    98    H    13.373    19.383    -2.550
    99    O    13.633    21.414    -3.206
    100    P    12.252    21.894    -2.641
    101    O    12.289    23.373    -2.544
    102    O    11.947    21.146    -1.407
    103    O    11.215    21.482    -3.758
    104    C    11.036    22.319    -4.934
    105    H    11.917    22.980    -5.121
    106    H    10.152    22.979    -4.789
    107    C    10.813    21.518    -6.229
    108    H    11.120    22.127    -7.112
    109    O    11.618    20.308    -6.229
    110    C    10.948    19.276    -6.914
    111    H    11.603    18.981    -7.767
    112    N    10.697    18.096    -6.067
    113    C    10.116    16.078    -5.411
    114    N    10.547    16.749    -4.276
    115    C    10.863    17.946    -4.709
    116    H    11.232    18.767    -4.087
    117    N    9.302    14.417    -6.887
    118    C    9.424    15.319    -7.855
    119    H    9.124    14.983    -8.854
    120    N    9.864    16.578    -7.778
    121    C    10.202    16.897    -6.519
    122    C    9.636    14.766    -5.624
    123    N    9.522    13.839    -4.665
    124    H    9.798    13.994    -3.713
    125    H    9.096    12.961    -4.878
    126    C    9.660    19.856    -7.429
    127    H    8.870    19.106    -7.337
    128    O    9.787    20.257    -8.775
    129    H    8.988    20.763    -8.987
    130    C    9.392    21.031    -6.498
    131    H    8.988    20.684    -5.517
    132    O    8.606    22.076    -7.114
    133    P    7.173    22.464    -6.614
    134    O    6.640    23.518    -7.503
    135    O    7.256    22.793    -5.173
    136    O    6.318    21.141    -6.805
    137    C    5.730    20.852    -8.109
    138    H    6.310    21.324    -8.941
    139    H    4.700    21.272    -8.158
    140    C    5.659    19.341    -8.447
    141    H    5.632    19.195    -9.551
    142    O    6.834    18.673    -7.950
    143    C    6.542    17.373    -7.510
    144    H    7.183    16.692    -8.111
    145    N    6.843    17.182    -6.074
    146    C    7.192    16.282    -4.087
    147    N    7.481    17.639    -3.965
    148    C    7.247    18.125    -5.160
    149    H    7.365    19.174    -5.444
    150    N    6.789    13.993    -3.607
    151    C    6.428    13.870    -4.889
    152    H    6.110    12.866    -5.193
    153    N    6.450    14.787    -5.864
    154    C    6.790    15.993    -5.381
    155    C    7.229    15.203    -3.168
    156    N    7.739    15.271    -1.922
    157    H    7.947    16.150    -1.491
    158    H    7.623    14.483    -1.313
    159    C    5.105    17.133    -7.836
    160    H    4.625    16.533    -7.072
    161    O    4.962    16.472    -9.076
    162    H    4.013    16.423    -9.245
    163    C    4.512    18.538    -7.841
    164    H    4.366    18.931    -6.815
    165    O    3.338    18.674    -8.642
    166    P    1.914    18.138    -8.251
    167    O    1.346    17.488    -9.439
    168    O    1.168    19.284    -7.690
    169    O    2.105    17.077    -7.106
    170    C    2.116    15.643    -7.233
    171    H    2.792    15.336    -8.062
    172    H    1.099    15.288    -7.466
    173    C    2.562    14.867    -5.961
    174    H    2.841    13.827    -6.233
    175    O    3.727    15.478    -5.415
    176    C    3.665    15.652    -4.034
    177    H    4.536    15.075    -3.665
    178    N    3.888    17.060    -3.624
    179    C    3.519    18.058    -4.473
    180    H    3.023    17.739    -5.366
    181    C    3.764    19.344    -4.216
    182    H    3.471    20.137    -4.900
    183    C    4.540    17.377    -2.438
    184    O    4.895    16.462    -1.684
    185    N    4.789    18.677    -2.139
    186    C    4.434    19.644    -3.006
    187    N    4.714    20.908    -2.720
    188    H    5.166    21.120    -1.855
    189    H    4.433    21.658    -3.319
    190    C    2.420    14.997    -3.522
    191    H    1.876    15.614    -2.777
    192    O    2.802    13.762    -2.952
    193    H    2.954    13.141    -3.676
    194    C    1.570    14.810    -4.800
    195    H    0.901    15.685    -4.944
    196    O    0.845    13.572    -4.887
    197    P    -0.310    13.185    -3.899
    198    O    0.168    13.056    -2.508
    199    O    -1.040    12.019    -4.428
    200    O    -1.219    14.456    -3.980
    201    C    -2.273    14.577    -4.951
    202    H    -2.679    13.588    -5.276
    203    H    -1.863    15.087    -5.846
    204    C    -3.461    15.367    -4.379
    205    H    -4.080    14.692    -3.753
    206    O    -3.032    16.492    -3.557
    207    C    -3.270    17.701    -4.243
    208    H    -4.154    18.146    -3.726
    209    N    -2.069    18.556    -4.185
    210    C    -0.893    18.114    -4.745
    211    H    -0.926    17.114    -5.185
    212    C    -2.155    19.787    -3.581
    213    O    -3.199    20.216    -3.092
    214    N    -0.988    20.504    -3.567
    215    H    -1.027    21.402    -3.106
    216    C    0.219    20.145    -4.127
    217    O    1.177    20.913    -4.065
    218    C    0.224    18.854    -4.748
    219    H    1.132    18.512    -5.234
    220    C    -3.669    17.364    -5.662
    221    H    -2.771    17.264    -6.308
    222    O    -4.548    18.322    -6.219
    223    H    -4.812    17.995    -7.096
    224    C    -4.322    15.999    -5.475
    225    H    -4.172    15.364    -6.375
    226    O    -5.704    16.050    -5.087
    227    P    -6.873    15.909    -6.122
    228    O    -7.781    17.062    -5.935
    229    O    -7.463    14.569    -5.926
    230    O    -6.168    15.985    -7.547
    231    C    -6.649    16.919    -8.543
    232    H    -7.041    17.857    -8.085
    233    H    -7.490    16.457    -9.107
    234    C    -5.579    17.374    -9.557
    235    H    -5.853    18.377    -9.950
    236    O    -4.252    17.501    -8.973
    237    C    -3.281    17.357    -10.010
    238    H    -2.817    18.361    -10.130
    239    N    -2.230    16.402    -9.660
    240    C    -0.435    15.137    -9.660
    241    N    -1.071    14.927    -8.439
    242    C    -2.111    15.707    -8.492
    243    H    -2.862    15.802    -7.715
    244    N    1.023    14.931    -11.520
    245    C    0.207    15.783    -12.144
    246    H    0.492    16.029    -13.172
    247    N    -0.887    16.401    -11.691
    248    C    -1.149    16.036    -10.426
    249    C    0.724    14.579    -10.247
    250    N    1.533    13.688    -9.651
    251    H    1.339    13.299    -8.750
    252    H    2.357    13.387    -10.134
    253    C    -4.014    16.964    -11.286
    254    H    -3.509    16.147    -11.843
    255    O    -4.136    18.086    -12.134
    256    H    -4.779    17.850    -12.817
    257    C    -5.369    16.489    -10.772
    258    H    -5.300    15.442    -10.392
    259    O    -6.440    16.704    -11.708
    260    P    -7.312    15.533    -12.254
    261    O    -8.449    16.117    -12.997
    262    O    -7.645    14.615    -11.141
    263    O    -6.316    14.813    -13.233
    264    C    -5.759    15.510    -14.368
    265    H    -5.357    16.512    -14.086
    266    H    -6.551    15.673    -15.133
    267    C    -4.630    14.701    -15.019
    268    H    -4.440    15.046    -16.058
    269    O    -3.403    14.935    -14.281
    270    C    -2.619    13.752    -14.283
    271    H    -1.675    14.035    -14.807
    272    N    -2.310    13.279    -12.920
    273    C    -3.203    13.496    -11.899
    274    H    -4.107    14.052    -12.169
    275    C    -2.941    13.086    -10.653
    276    H    -3.615    13.279    -9.817
    277    C    -1.146    12.547    -12.692
    278    O    -0.382    12.313    -13.634
    279    N    -0.882    12.107    -11.445
    280    C    -1.717    12.383    -10.434
    281    N    -1.373    12.012    -9.207
    282    H    -0.440    11.700    -9.033
    283    H    -1.932    12.270    -8.422
    284    C    -3.338    12.699    -15.108
    285    H    -3.230    11.683    -14.677
    286    O    -2.870    12.682    -16.441
    287    H    -3.463    12.086    -16.917
    288    C    -4.783    13.170    -15.031
    289    H    -5.210    12.865    -14.047
    290    O    -5.586    12.772    -16.159
    291    P    -6.769    11.760    -16.005
    292    O    -7.642    11.838    -17.194
    293    O    -7.404    11.927    -14.680
    294    O    -6.041    10.368    -16.005
    295    C    -5.365    9.893    -17.192
    296    H    -4.783    10.703    -17.695
    297    H    -6.115    9.508    -17.922
    298    C    -4.392    8.750    -16.870
    299    H    -3.963    8.322    -17.803
    300    O    -3.285    9.276    -16.088
    301    C    -2.876    8.311    -15.136
    302    H    -1.799    8.113    -15.359
    303    N    -3.055    8.810    -13.750
    304    C    -4.097    9.642    -13.421
    305    H    -4.713    9.964    -14.256
    306    C    -2.195    8.331    -12.792
    307    O    -1.314    7.532    -13.039
    308    N    -2.426    8.831    -11.535
    309    H    -1.778    8.465    -10.849
    310    C    -3.426    9.680    -11.128
    311    O    -3.496    10.043    -9.956
    312    C    -4.296    10.107    -12.180
    313    H    -5.088    10.815    -11.957
    314    C    -3.684    7.050    -15.388
    315    H    -3.906    6.509    -14.450
    316    O    -3.001    6.184    -16.275
    317    H    -3.544    5.388    -16.330
    318    C    -4.956    7.604    -16.015
    319    H    -5.608    8.060    -15.236
    320    O    -5.657    6.676    -16.862
    321    P    -6.842    5.802    -16.317
    322    O    -7.462    5.093    -17.458
    323    O    -7.729    6.653    -15.493
    324    O    -6.152    4.747    -15.373
    325    C    -5.750    3.454    -15.891
    326    H    -5.350    3.539    -16.929
    327    H    -6.629    2.768    -15.924
    328    C    -4.651    2.784    -15.042
    329    H    -4.103    2.031    -15.649
    330    O    -3.673    3.765    -14.584
    331    C    -3.292    3.460    -13.249
    332    H    -2.181    3.398    -13.244
    333    N    -3.711    4.513    -12.310
    334    C    -3.138    4.770    -11.095
    335    N    -0.926    3.918    -8.564
    336    H    -0.424    3.153    -8.962
    337    H    -0.756    4.186    -7.618
    338    N    -2.124    4.084    -10.538
    339    C    -1.824    4.531    -9.318
    340    N    -2.420    5.630    -8.762
    341    H    -2.164    5.885    -7.820
    342    C    -3.449    6.368    -9.328
    343    O    -3.955    7.337    -8.755
    344    C    -3.829    5.853    -10.587
    345    N    -4.841    6.254    -11.447
    346    C    -4.744    5.417    -12.449
    347    H    -5.384    5.425    -13.331
    348    C    -3.877    2.106    -12.894
    349    H    -4.142    2.035    -11.817
    350    O    -2.950    1.084    -13.233
    351    H    -3.383    0.212    -13.169
    352    C    -5.129    2.077    -13.767
    353    H    -5.936    2.697    -13.322
    354    O    -5.599    0.754    -14.074
    355    H    -5.873    0.305    -13.255
    356    H    1.198    8.999    -0.762
    357    O    1.023    8.196    -1.290
    358    C    1.087    7.078    -0.390
    359    H    0.293    7.192    0.378
    360    H    2.065    7.099    0.142
    361    C    0.922    5.703    -1.061
    362    H    1.137    4.892    -0.334
    363    O    -0.459    5.517    -1.500
    364    C    -0.467    4.944    -2.807
    365    H    -1.126    4.046    -2.739
    366    N    -1.024    5.862    -3.839
    367    C    -1.110    7.211    -3.572
    368    H    -0.761    7.539    -2.592
    369    C    -1.633    8.068    -4.449
    370    H    -1.733    9.132    -4.243
    371    C    -1.404    5.387    -5.099
    372    O    -1.237    4.193    -5.379
    373    N    -1.960    6.242    -5.989
    374    C    -2.106    7.543    -5.677
    375    N    -2.747    8.348    -6.512
    376    H    -3.105    7.998    -7.383
    377    H    -2.808    9.330    -6.340
    378    C    0.943    4.489    -3.120
    379    H    1.185    4.561    -4.202
    380    O    1.131    3.160    -2.677
    381    H    2.086    3.011    -2.665
    382    C    1.780    5.469    -2.309
    383    H    1.835    6.445    -2.849
    384    O    3.071    4.957    -1.909
    385    P    4.368    5.492    -2.607
    386    O    5.541    4.789    -2.027
    387    O    4.384    6.963    -2.562
    388    O    4.172    5.026    -4.092
    389    C    4.248    3.614    -4.407
    390    H    3.508    3.023    -3.820
    391    H    5.263    3.212    -4.186
    392    C    3.956    3.386    -5.894
    393    H    4.076    2.315    -6.170
    394    O    2.578    3.742    -6.176
    395    C    2.492    4.300    -7.471
    396    H    1.851    3.604    -8.062
    397    N    1.860    5.609    -7.449
    398    C    0.707    7.377    -8.013
    399    N    1.000    7.522    -6.664
    400    C    1.694    6.451    -6.378
    401    H    2.098    6.200    -5.394
    402    N    -0.223    7.681    -10.164
    403    C    0.446    6.588    -10.534
    404    H    0.317    6.293    -11.581
    405    N    1.207    5.781    -9.788
    406    C    1.267    6.224    -8.518
    407    C    -0.106    8.116    -8.893
    408    N    -0.776    9.216    -8.536
    409    H    -0.648    9.603    -7.620
    410    H    -1.383    9.694    -9.171
    411    C    3.868    4.341    -8.079
    412    H    4.054    5.299    -8.608
    413    O    4.040    3.257    -8.965
    414    H    4.945    3.334    -9.295
    415    C    4.776    4.237    -6.861
    416    H    4.867    5.250    -6.399
    417    O    6.048    3.598    -7.108
    418    P    7.356    4.456    -7.151
    419    O    8.526    3.552    -7.146
    420    O    7.311    5.475    -6.082
    421    O    7.253    5.193    -8.542
    422    C    7.172    4.428    -9.772
    423    H    6.544    3.514    -9.667
    424    H    8.183    4.081    -10.071
    425    C    6.597    5.267    -10.923
    426    H    6.582    4.688    -11.870
    427    O    5.224    5.617    -10.635
    428    C    4.907    6.860    -11.229
    429    H    4.185    6.625    -12.045
    430    N    4.270    7.778    -10.286
    431    C    3.262    8.652    -10.593
    432    N    0.989    9.938    -12.863
    433    H    0.350    10.710    -12.909
    434    H    1.193    9.425    -13.689
    435    N    2.688    8.800    -11.801
    436    C    1.710    9.703    -11.786
    437    N    1.422    10.472    -10.693
    438    H    0.675    11.143    -10.789
    439    C    2.018    10.360    -9.443
    440    O    1.671    11.083    -8.503
    441    C    3.002    9.336    -9.424
    442    N    3.818    8.882    -8.391
    443    C    4.565    7.961    -8.955
    444    H    5.339    7.373    -8.454
    445    C    6.173    7.447    -11.820
    446    H    6.314    8.517    -11.550
    447    O    6.154    7.313    -13.226
    448    H    7.067    7.440    -13.521
    449    C    7.284    6.604    -11.188
    450    H    7.553    7.028    -10.192
    451    O    8.426    6.396    -12.038
    452    P    9.820    7.058    -11.769
    453    O    10.730    6.630    -12.849
    454    O    10.262    6.778    -10.388
    455    O    9.525    8.600    -11.916
    456    C    9.056    9.142    -13.177
    457    H    7.952    9.047    -13.247
    458    H    9.510    8.615    -14.049
    459    C    9.364    10.639    -13.328
    460    H    8.933    11.037    -14.269
    461    O    8.763    11.394    -12.236
    462    C    9.706    12.336    -11.733
    463    H    9.168    13.314    -11.716
    464    N    10.164    12.027    -10.341
    465    C    9.692    10.899    -9.702
    466    H    9.044    10.242    -10.287
    467    C    10.041    10.606    -8.447
    468    H    9.688    9.710    -7.939
    469    C    10.967    12.922    -9.628
    470    O    11.307    13.990    -10.156
    471    N    11.356    12.621    -8.369
    472    C    10.900    11.508    -7.766
    473    N    11.273    11.224    -6.519
    474    H    11.753    11.898    -5.952
    475    H    10.959    10.391    -6.068
    476    C    10.838    12.408    -12.743
    477    H    11.809    12.644    -12.269
    478    O    10.553    13.369    -13.747
    479    H    11.259    13.287    -14.400
    480    C    10.854    10.986    -13.299
    481    H    11.325    10.298    -12.558
    482    O    11.398    10.859    -14.631
    483    P    12.788    10.182    -14.910
    484    O    12.872    9.769    -16.329
    485    O    13.052    9.147    -13.895
    486    O    13.800    11.350    -14.664
    487    C    13.700    12.627    -15.320
    488    H    12.649    12.987    -15.387
    489    H    14.097    12.554    -16.357
    490    C    14.512    13.681    -14.562
    491    H    14.610    14.614    -15.157
    492    O    13.792    14.029    -13.349
    493    C    14.719    14.250    -12.301
    494    H    14.536    15.296    -11.954
    495    N    14.523    13.307    -11.167
    496    C    14.114    12.023    -11.408
    497    H    13.885    11.788    -12.446
    498    C    13.920    11.151    -10.411
    499    H    13.537    10.151    -10.584
    500    C    14.875    13.678    -9.875
    501    O    15.378    14.789    -9.692
    502    N    14.663    12.825    -8.843
    503    C    14.200    11.587    -9.085
    504    N    14.016    10.736    -8.071
    505    H    14.011    11.051    -7.122
    506    H    13.685    9.806    -8.255
    507    C    16.108    14.176    -12.891
    508    H    16.826    13.732    -12.178
    509    O    16.538    15.461    -13.299
    510    H    17.358    15.319    -13.789
    511    C    15.913    13.253    -14.085
    512    H    15.846    12.198    -13.735
    513    O    16.876    13.429    -15.150
    514    P    18.140    12.501    -15.262
    515    O    18.904    12.916    -16.462
    516    O    17.734    11.085    -15.204
    517    O    18.988    12.822    -13.974
    518    C    19.606    14.114    -13.768
    519    H    18.919    14.952    -14.020
    520    H    20.498    14.225    -14.427
    521    C    20.076    14.281    -12.310
    522    H    20.564    15.268    -12.167
    523    O    18.944    14.232    -11.404
    524    C    19.316    13.600    -10.197
    525    H    19.169    14.379    -9.415
    526    N    18.467    12.416    -9.907
    527    C    17.994    11.595    -10.905
    528    H    18.256    11.893    -11.921
    529    C    18.265    12.104    -8.587
    530    O    18.763    12.749    -7.672
    531    N    17.488    11.001    -8.370
    532    H    17.350    10.764    -7.394
    533    C    17.022    10.103    -9.301
    534    O    16.422    9.092    -8.940
    535    C    17.289    10.478    -10.655
    536    H    16.937    9.822    -11.447
    537    C    20.795    13.255    -10.283
    538    H    21.020    12.268    -9.820
    539    O    21.558    14.275    -9.659
    540    H    22.495    14.156    -9.894
    541    C    21.021    13.194    -11.794
    542    H    20.670    12.216    -12.195
    543    O    22.377    13.461    -12.201
    544    H    22.974    12.770    -11.857
 $END
