!*** FMO 5.3 (Gamess) INPUT generated by Facio 22.1.1.32 ***
 $CONTRL RUNTYP=ENERGY NPRINT=-5 ISPHER=1 MAXIT=200 $END
 $SYSTEM MWORDS=63 MEMDDI=63 $END
 $GDDI NGROUP=1 $END
 $SCF DIRSCF=.TRUE. NPUNCH=0 $END
!*** NumCPU : 2  MemPerNode : 512MB
 $PCM SOLVNT=WATER IEF=-10 ICOMP=2 ICAV=1 IDISP=1 IFMO=-1 $END
 $PCMCAV RADII=SUAHF $END
 $TESCAV NTSALL=60 $END
 $FMOPRP
    NAODIR=200
    NGRFMO(1)=1, 1, 0, 0, 0,   0, 0, 0, 0, 0
    IPIEDA=1
    NPRINT=9
 $END
 $FMO
      SCFTYP(1)=RHF
      MODGRD=10
      MODMUL=0
      MAXCAO=5
      MAXBND=13
      NLAYER=1
      MPLEVL(1)=2
      NFRAG=11
      ICHARG(1)=-1, -1, -1, -1, -1, -1, -1, -1, -1, -1, 0
      FRGNAM(1)=F1, F2, F3, F4, F5, F6, F7, F8, F9, F10, F11
      indat(1)=0
               1   -36   0
               37   -70   0
               71   -101   0
               102   -131   0
               132   -162   0
               163   -195   0
               196   -225   0
               226   -258   0
               259   -291   0
               292   -322   0
               323   -350   0
 $END

 $FMOBND
   -37   36       6-31G*    MINI
   -71   70       6-31G*    MINI
   -102   101       6-31G*    MINI
   -132   131       6-31G*    MINI
   -163   162       6-31G*    MINI
   -196   195       6-31G*    MINI
   -226   225       6-31G*    MINI
   -259   258       6-31G*    MINI
   -292   291       6-31G*    MINI
   -323   322       6-31G*    MINI
 $END
 $FMOHYB
 6-31G*      15   5
   1 0  -0.065034   0.288264   0.000000   0.000000   0.604412
         0.290129   0.000000   0.000000   0.319045  -0.017106
        -0.017106   0.057934   0.000000   0.000000   0.000000
   0 1  -0.065040   0.288293   0.569832   0.000000  -0.201456
         0.290147   0.300783   0.000000  -0.106342   0.049598
        -0.017106  -0.008771   0.000000  -0.027223   0.000000
   0 1  -0.065039   0.288293  -0.284916  -0.493490  -0.201455
         0.290145  -0.150392  -0.260486  -0.106340  -0.000427
         0.032923  -0.008771   0.033353   0.013612   0.023576
   0 1  -0.065039   0.288293  -0.284916   0.493490  -0.201455
         0.290145  -0.150392   0.260486  -0.106340  -0.000427
         0.032923  -0.008771  -0.033353   0.013612  -0.023576
   0 1   1.010938  -0.011975   0.000000   0.000000   0.000000
        -0.054085   0.000000   0.000000  -0.000000  -0.003174
        -0.003174  -0.003174   0.000000   0.000000   0.000000
 MINI         5   5
   1 0  -0.104883   0.308874   0.000000   0.000000   0.521806
   0 1  -0.104883   0.308874   0.491961   0.000000  -0.173934
   0 1  -0.104883   0.308876  -0.245980  -0.426050  -0.173933
   0 1  -0.104883   0.308876  -0.245980   0.426050  -0.173933
   0 1   0.988209   0.063992   0.000000   0.000000   0.000000
 $END
 
 $DATA
 FMO calculation
 C1 
 H.1-1    1
      N31 6
   
 O.1-1    8
      N31 6
      d 1
      1 0.800 1.0
   
 C.1-1    6
      N31 6
      d 1
      1 0.800 1.0
   
 N.1-1    7
      N31 6
      d 1
      1 0.800 1.0
   
 P.1-1   15
      N31 6
      d 1
      1 0.550 1.0
   
 $END
 $FMOXYZ
    1    H    0.932    -7.953    -1.198
    2    O    0.527    -7.577    -0.397
    3    C    0.726    -8.533    0.655
    4    H    1.822    -8.684    0.791
    5    H    0.283    -9.512    0.362
    6    C    0.117    -8.094    1.991
    7    H    0.267    -8.876    2.769
    8    O    0.775    -6.879    2.469
    9    C    -0.205    -6.027    3.047
    10    H    0.151    -5.790    4.075
    11    N    -0.347    -4.765    2.312
    12    C    -0.909    -3.611    2.792
    13    N    -2.469    -1.858    5.338
    14    H    -2.512    -2.531    6.074
    15    H    -2.815    -0.931    5.507
    16    N    -1.443    -3.443    4.017
    17    C    -1.899    -2.205    4.199
    18    N    -1.784    -1.215    3.260
    19    H    -2.134    -0.298    3.489
    20    C    -1.223    -1.355    1.996
    21    O    -1.156    -0.393    1.221
    22    C    -0.764    -2.682    1.779
    23    N    -0.119    -3.243    0.684
    24    C    0.101    -4.485    1.041
    25    H    0.581    -5.251    0.426
    26    C    -1.491    -6.806    3.138
    27    H    -2.384    -6.157    3.072
    28    O    -1.509    -7.531    4.354
    29    H    -2.336    -8.026    4.366
    30    C    -1.379    -7.734    1.933
    31    H    -1.539    -7.164    0.987
    32    O    -2.181    -8.939    2.000
    33    P    -3.674    -8.892    1.481
    34    O    -3.715    -8.326    0.115
    35    O    -4.279    -10.230    1.644
    36    O    -4.399    -7.889    2.449
    37    C    -4.709    -8.290    3.807
    38    H    -3.808    -8.659    4.346
    39    H    -5.449    -9.121    3.810
    40    C    -5.304    -7.128    4.606
    41    H    -5.457    -7.407    5.672
    42    O    -4.397    -5.991    4.569
    43    C    -5.152    -4.792    4.533
    44    H    -4.840    -4.194    5.419
    45    N    -4.886    -4.003    3.323
    46    C    -5.212    -2.686    3.119
    47    N    -6.672    0.272    4.204
    48    H    -7.063    0.023    5.087
    49    H    -6.891    1.166    3.803
    50    N    -5.854    -1.884    3.987
    51    C    -6.038    -0.654    3.504
    52    N    -5.581    -0.261    2.275
    53    H    -5.795    0.677    1.973
    54    C    -4.904    -1.059    1.363
    55    O    -4.526    -0.610    0.277
    56    C    -4.738    -2.381    1.857
    57    N    -4.150    -3.493    1.268
    58    C    -4.258    -4.429    2.177
    59    H    -3.919    -5.460    2.063
    60    C    -6.600    -5.176    4.659
    61    H    -7.269    -4.485    4.111
    62    O    -6.956    -5.223    6.028
    63    H    -7.840    -5.602    6.049
    64    C    -6.621    -6.572    4.051
    65    H    -6.515    -6.531    2.939
    66    O    -7.729    -7.394    4.486
    67    P    -9.085    -7.351    3.677
    68    O    -8.769    -7.432    2.235
    69    O    -9.984    -8.383    4.227
    70    O    -9.694    -5.935    3.956
    71    C    -10.163    -5.489    5.245
    72    H    -9.443    -5.740    6.053
    73    H    -11.121    -5.997    5.491
    74    C    -10.413    -3.966    5.264
    75    H    -10.634    -3.604    6.289
    76    O    -9.239    -3.250    4.788
    77    C    -9.637    -2.153    3.981
    78    H    -9.199    -1.251    4.467
    79    N    -9.120    -2.241    2.581
    80    C    -8.697    -3.442    2.056
    81    H    -8.776    -4.300    2.717
    82    C    -8.195    -3.530    0.816
    83    H    -7.829    -4.467    0.395
    84    C    -9.067    -1.096    1.795
    85    O    -9.454    -0.025    2.276
    86    N    -8.568    -1.170    0.542
    87    C    -8.129    -2.332    0.049
    88    N    -7.619    -2.344    -1.179
    89    H    -7.550    -1.463    -1.654
    90    H    -7.235    -3.173    -1.587
    91    C    -11.149    -2.060    4.046
    92    H    -11.583    -1.718    3.087
    93    O    -11.561    -1.194    5.088
    94    H    -12.526    -1.268    5.146
    95    C    -11.543    -3.502    4.338
    96    H    -11.458    -4.119    3.414
    97    O    -12.817    -3.668    5.002
    98    P    -14.128    -3.643    4.137
    99    O    -13.905    -4.491    2.947
    100    O    -15.291    -4.005    4.985
    101    O    -14.289    -2.148    3.675
    102    C    -15.168    -1.829    2.559
    103    H    -16.178    -1.553    2.938
    104    H    -15.316    -2.697    1.870
    105    C    -14.636    -0.661    1.691
    106    H    -14.901    0.324    2.141
    107    O    -13.175    -0.711    1.611
    108    C    -12.747    -0.574    0.266
    109    H    -11.917    0.169    0.285
    110    N    -12.212    -1.849    -0.301
    111    C    -12.168    -2.994    0.466
    112    H    -12.626    -2.922    1.456
    113    C    -11.697    -1.853    -1.590
    114    O    -11.670    -0.857    -2.302
    115    N    -11.177    -3.053    -2.006
    116    H    -10.937    -3.133    -2.992
    117    C    -11.084    -4.218    -1.282
    118    O    -10.517    -5.200    -1.757
    119    C    -11.634    -4.145    0.036
    120    H    -11.594    -5.033    0.664
    121    C    -13.934    -0.008    -0.488
    122    H    -13.942    -0.263    -1.568
    123    O    -13.962    1.405    -0.306
    124    H    -13.050    1.730    -0.292
    125    C    -15.094    -0.697    0.219
    126    H    -15.107    -1.766    -0.103
    127    O    -16.364    -0.026    0.049
    128    P    -17.676    -0.836    -0.220
    129    O    -17.990    -1.610    1.001
    130    O    -18.730    0.083    -0.715
    131    O    -17.328    -1.838    -1.383
    132    C    -18.077    -3.077    -1.492
    133    H    -19.086    -3.033    -0.997
    134    H    -17.498    -3.886    -0.994
    135    C    -18.284    -3.480    -2.960
    136    H    -18.724    -4.499    -3.029
    137    O    -19.239    -2.569    -3.566
    138    C    -18.872    -2.321    -4.918
    139    H    -19.748    -2.640    -5.525
    140    N    -18.601    -0.887    -5.193
    141    C    -18.399    -0.004    -4.153
    142    H    -18.407    -0.422    -3.140
    143    C    -18.210    1.300    -4.383
    144    H    -18.070    2.014    -3.573
    145    C    -18.572    -0.426    -6.510
    146    O    -18.780    -1.220    -7.440
    147    N    -18.369    0.886    -6.755
    148    C    -18.220    1.747    -5.736
    149    N    -18.092    3.042    -6.012
    150    H    -17.918    3.722    -5.299
    151    H    -18.079    3.341    -6.966
    152    C    -17.694    -3.214    -5.256
    153    H    -16.974    -2.729    -5.952
    154    O    -18.149    -4.440    -5.809
    155    H    -17.404    -5.060    -5.783
    156    C    -17.057    -3.411    -3.888
    157    H    -16.486    -2.497    -3.601
    158    O    -16.285    -4.621    -3.794
    159    P    -14.719    -4.594    -3.712
    160    O    -14.332    -4.023    -2.410
    161    O    -14.259    -5.968    -4.009
    162    O    -14.291    -3.613    -4.864
    163    C    -14.113    -4.054    -6.225
    164    H    -15.087    -4.365    -6.665
    165    H    -13.409    -4.915    -6.275
    166    C    -13.539    -2.927    -7.092
    167    H    -13.345    -3.281    -8.126
    168    O    -14.518    -1.853    -7.191
    169    C    -13.854    -0.603    -7.164
    170    H    -14.160    -0.067    -8.096
    171    N    -14.271    0.173    -5.996
    172    C    -14.929    1.814    -4.694
    173    N    -14.975    0.669    -3.922
    174    C    -14.569    -0.279    -4.729
    175    H    -14.473    -1.331    -4.455
    176    N    -15.119    4.057    -5.420
    177    C    -14.663    3.630    -6.601
    178    H    -14.569    4.404    -7.368
    179    N    -14.320    2.394    -6.983
    180    C    -14.489    1.524    -5.972
    181    C    -15.271    3.156    -4.419
    182    N    -15.777    3.563    -3.239
    183    H    -15.783    2.951    -2.449
    184    H    -15.911    4.541    -3.070
    185    C    -12.358    -0.863    -7.197
    186    H    -11.773    -0.120    -6.610
    187    O    -11.907    -0.874    -8.538
    188    H    -11.000    -1.220    -8.541
    189    C    -12.267    -2.248    -6.568
    190    H    -12.395    -2.153    -5.463
    191    O    -11.097    -3.013    -6.959
    192    P    -9.962    -3.228    -5.881
    193    O    -10.582    -3.666    -4.616
    194    O    -8.935    -4.126    -6.462
    195    O    -9.321    -1.805    -5.673
    196    C    -8.496    -1.629    -4.496
    197    H    -7.647    -2.353    -4.488
    198    H    -9.104    -1.778    -3.571
    199    C    -7.911    -0.219    -4.443
    200    H    -8.714    0.541    -4.430
    201    O    -7.167    -0.088    -3.196
    202    C    -6.000    0.700    -3.407
    203    H    -6.101    1.571    -2.713
    204    N    -4.751    -0.050    -3.107
    205    C    -4.746    -1.425    -3.046
    206    H    -5.687    -1.916    -3.302
    207    C    -3.596    0.662    -2.861
    208    O    -3.549    1.885    -2.907
    209    N    -2.499    -0.087    -2.540
    210    H    -1.664    0.426    -2.307
    211    C    -2.436    -1.456    -2.419
    212    O    -1.371    -1.998    -2.142
    213    C    -3.663    -2.134    -2.702
    214    H    -3.678    -3.219    -2.654
    215    C    -6.044    1.202    -4.833
    216    H    -5.034    1.271    -5.293
    217    O    -6.651    2.473    -4.851
    218    H    -7.461    2.462    -4.322
    219    C    -6.894    0.139    -5.534
    220    H    -6.292    -0.780    -5.716
    221    O    -7.573    0.558    -6.742
    222    P    -6.704    1.162    -7.909
    223    O    -5.317    0.658    -7.769
    224    O    -7.379    0.870    -9.189
    225    O    -6.720    2.717    -7.681
    226    C    -6.856    3.718    -8.705
    227    H    -7.263    3.308    -9.660
    228    H    -5.852    4.141    -8.926
    229    C    -7.759    4.875    -8.242
    230    H    -7.729    5.708    -8.975
    231    O    -9.138    4.400    -8.189
    232    C    -9.803    4.995    -7.085
    233    H    -10.702    5.508    -7.498
    234    N    -10.238    3.987    -6.115
    235    C    -11.212    2.976    -4.429
    236    N    -10.564    1.991    -5.145
    237    C    -9.989    2.636    -6.126
    238    H    -9.359    2.186    -6.897
    239    N    -12.524    4.100    -2.815
    240    C    -12.270    5.219    -3.494
    241    H    -12.733    6.128    -3.091
    242    N    -11.538    5.379    -4.603
    243    C    -11.029    4.208    -5.018
    244    C    -12.006    2.936    -3.271
    245    N    -12.316    1.811    -2.633
    246    H    -11.862    0.935    -2.834
    247    H    -13.178    1.759    -2.130
    248    C    -8.870    6.018    -6.474
    249    H    -8.981    6.091    -5.372
    250    O    -9.096    7.288    -7.056
    251    H    -8.353    7.844    -6.785
    252    C    -7.498    5.465    -6.837
    253    H    -7.244    4.606    -6.168
    254    O    -6.460    6.476    -6.889
    255    P    -5.477    6.669    -5.669
    256    O    -4.862    5.372    -5.347
    257    O    -4.546    7.778    -5.976
    258    O    -6.415    7.095    -4.478
    259    C    -7.022    8.408    -4.423
    260    H    -7.603    8.625    -5.349
    261    H    -6.244    9.198    -4.321
    262    C    -7.972    8.523    -3.222
    263    H    -8.460    9.519    -3.187
    264    O    -9.030    7.536    -3.362
    265    C    -9.313    6.959    -2.105
    266    H    -10.408    7.084    -1.941
    267    N    -9.004    5.534    -2.094
    268    C    -8.988    3.398    -1.619
    269    N    -8.198    3.548    -2.742
    270    C    -8.229    4.828    -2.982
    271    H    -7.744    5.314    -3.826
    272    N    -10.205    2.454    0.169
    273    C    -10.579    3.695    0.470
    274    H    -11.239    3.776    1.343
    275    N    -10.281    4.844    -0.146
    276    C    -9.486    4.616    -1.202
    277    C    -9.378    2.268    -0.888
    278    N    -8.957    1.044    -1.207
    279    H    -8.347    0.857    -1.982
    280    H    -9.070    0.326    -0.514
    281    C    -8.554    7.732    -1.057
    282    H    -8.243    7.095    -0.204
    283    O    -9.355    8.802    -0.591
    284    H    -8.782    9.391    -0.083
    285    C    -7.348    8.222    -1.846
    286    H    -6.627    7.386    -2.005
    287    O    -6.724    9.406    -1.305
    288    P    -5.470    9.267    -0.354
    289    O    -4.450    8.453    -1.043
    290    O    -5.059    10.624    0.071
    291    O    -5.982    8.454    0.884
    292    C    -6.894    9.014    1.851
    293    H    -7.806    9.418    1.362
    294    H    -6.407    9.844    2.411
    295    C    -7.331    7.948    2.870
    296    H    -8.060    8.372    3.594
    297    O    -7.990    6.835    2.203
    298    C    -7.629    5.618    2.842
    299    H    -8.589    5.141    3.150
    300    N    -6.888    4.685    1.947
    301    C    -6.258    5.168    0.823
    302    H    -6.373    6.233    0.633
    303    C    -5.581    4.360    -0.001
    304    H    -5.093    4.725    -0.903
    305    C    -6.780    3.334    2.274
    306    O    -7.309    2.918    3.318
    307    N    -6.096    2.504    1.456
    308    C    -5.521    2.980    0.340
    309    N    -4.862    2.139    -0.437
    310    H    -4.814    1.169    -0.179
    311    H    -4.433    2.416    -1.298
    312    C    -6.833    5.981    4.082
    313    H    -6.071    5.218    4.332
    314    O    -7.697    6.154    5.186
    315    H    -7.140    6.449    5.917
    316    C    -6.194    7.303    3.665
    317    H    -5.375    7.112    2.933
    318    O    -5.810    8.181    4.753
    319    P    -4.308    8.164    5.232
    320    O    -3.424    8.088    4.050
    321    O    -4.064    9.298    6.155
    322    O    -4.211    6.816    6.030
    323    C    -4.956    6.624    7.254
    324    H    -6.048    6.805    7.112
    325    H    -4.599    7.331    8.039
    326    C    -4.766    5.196    7.782
    327    H    -5.304    5.053    8.747
    328    O    -5.322    4.238    6.832
    329    C    -4.480    3.088    6.782
    330    H    -5.135    2.221    7.035
    331    N    -3.886    2.866    5.431
    332    C    -3.802    3.905    4.534
    333    H    -4.190    4.862    4.878
    334    C    -3.300    3.736    3.306
    335    H    -3.261    4.543    2.576
    336    C    -3.384    1.616    5.078
    337    O    -3.435    0.692    5.904
    338    N    -2.862    1.425    3.844
    339    C    -2.824    2.441    2.961
    340    N    -2.330    2.222    1.744
    341    H    -1.969    1.314    1.516
    342    H    -2.222    2.957    1.074
    343    C    -3.423    3.242    7.866
    344    H    -2.450    2.789    7.572
    345    O    -3.883    2.661    9.077
    346    H    -3.273    2.901    9.798
    347    C    -3.305    4.759    7.955
    348    H    -2.717    5.143    7.092
    349    O    -2.759    5.242    9.196
    350    H    -1.810    5.024    9.249
 $END
