!*** FMO 5.3 (Gamess) INPUT generated by Facio 22.1.1.32 ***
 $CONTRL RUNTYP=ENERGY NPRINT=-5 ISPHER=1 MAXIT=200 $END
 $SYSTEM MWORDS=63 MEMDDI=63 $END
 $GDDI NGROUP=1 $END
 $SCF DIRSCF=.TRUE. NPUNCH=0 $END
!*** NumCPU : 2  MemPerNode : 512MB
 $PCM SOLVNT=WATER IEF=-10 ICOMP=2 ICAV=1 IDISP=1 IFMO=-1 $END
 $PCMCAV RADII=SUAHF $END
 $TESCAV NTSALL=60 $END
 $FMOPRP
    NAODIR=200
    NGRFMO(1)=1, 1, 0, 0, 0,   0, 0, 0, 0, 0
    IPIEDA=1
    NPRINT=9
 $END
 $FMO
      SCFTYP(1)=RHF
      MODGRD=10
      MODMUL=0
      MAXCAO=5
      MAXBND=13
      NLAYER=1
      MPLEVL(1)=2
      NFRAG=11
      ICHARG(1)=-1, -1, -1, -1, -1, -1, -1, -1, -1, -1, 0
      FRGNAM(1)=F1, F2, F3, F4, F5, F6, F7, F8, F9, F10, F11
      indat(1)=0
               1   -36   0
               37   -70   0
               71   -101   0
               102   -131   0
               132   -162   0
               163   -195   0
               196   -225   0
               226   -258   0
               259   -291   0
               292   -322   0
               323   -350   0
 $END

 $FMOBND
   -37   36       6-31G*    MINI
   -71   70       6-31G*    MINI
   -102   101       6-31G*    MINI
   -132   131       6-31G*    MINI
   -163   162       6-31G*    MINI
   -196   195       6-31G*    MINI
   -226   225       6-31G*    MINI
   -259   258       6-31G*    MINI
   -292   291       6-31G*    MINI
   -323   322       6-31G*    MINI
 $END
 $FMOHYB
 6-31G*      15   5
   1 0  -0.065034   0.288264   0.000000   0.000000   0.604412
         0.290129   0.000000   0.000000   0.319045  -0.017106
        -0.017106   0.057934   0.000000   0.000000   0.000000
   0 1  -0.065040   0.288293   0.569832   0.000000  -0.201456
         0.290147   0.300783   0.000000  -0.106342   0.049598
        -0.017106  -0.008771   0.000000  -0.027223   0.000000
   0 1  -0.065039   0.288293  -0.284916  -0.493490  -0.201455
         0.290145  -0.150392  -0.260486  -0.106340  -0.000427
         0.032923  -0.008771   0.033353   0.013612   0.023576
   0 1  -0.065039   0.288293  -0.284916   0.493490  -0.201455
         0.290145  -0.150392   0.260486  -0.106340  -0.000427
         0.032923  -0.008771  -0.033353   0.013612  -0.023576
   0 1   1.010938  -0.011975   0.000000   0.000000   0.000000
        -0.054085   0.000000   0.000000  -0.000000  -0.003174
        -0.003174  -0.003174   0.000000   0.000000   0.000000
 MINI         5   5
   1 0  -0.104883   0.308874   0.000000   0.000000   0.521806
   0 1  -0.104883   0.308874   0.491961   0.000000  -0.173934
   0 1  -0.104883   0.308876  -0.245980  -0.426050  -0.173933
   0 1  -0.104883   0.308876  -0.245980   0.426050  -0.173933
   0 1   0.988209   0.063992   0.000000   0.000000   0.000000
 $END
 
 $DATA
 FMO calculation
 C1 
 H.1-1    1
      N31 6
   
 O.1-1    8
      N31 6
      d 1
      1 0.800 1.0
   
 C.1-1    6
      N31 6
      d 1
      1 0.800 1.0
   
 N.1-1    7
      N31 6
      d 1
      1 0.800 1.0
   
 P.1-1   15
      N31 6
      d 1
      1 0.550 1.0
   
 $END
 $FMOXYZ
    1    H    -2.523    -9.660    -1.626
    2    O    -2.610    -9.219    -0.760
    3    C    -2.387    -10.217    0.247
    4    H    -1.393    -10.697    0.088
    5    H    -3.172    -10.999    0.156
    6    C    -2.434    -9.637    1.662
    7    H    -2.270    -10.434    2.423
    8    O    -1.370    -8.654    1.833
    9    C    -1.853    -7.587    2.638
    10    H    -1.158    -7.490    3.504
    11    N    -1.867    -6.317    1.898
    12    C    -1.949    -5.068    2.450
    13    N    -2.177    -3.028    5.234
    14    H    -2.199    -3.682    5.990
    15    H    -2.181    -2.045    5.443
    16    N    -2.043    -4.793    3.764
    17    C    -2.074    -3.485    4.002
    18    N    -1.974    -2.538    3.017
    19    H    -1.974    -1.568    3.289
    20    C    -1.864    -2.793    1.655
    21    O    -1.778    -1.871    0.837
    22    C    -1.870    -4.188    1.386
    23    N    -1.758    -4.875    0.179
    24    C    -1.771    -6.140    0.534
    25    H    -1.704    -6.995    -0.143
    26    C    -3.222    -7.976    3.136
    27    H    -3.887    -7.103    3.292
    28    O    -3.094    -8.698    4.343
    29    H    -3.981    -8.991    4.586
    30    C    -3.717    -8.869    2.009
    31    H    -3.986    -8.259    1.112
    32    O    -4.749    -9.801    2.394
    33    P    -6.255    -9.378    2.248
    34    O    -6.446    -8.827    0.892
    35    O    -7.086    -10.548    2.614
    36    O    -6.458    -8.224    3.309
    37    C    -6.456    -8.556    4.720
    38    H    -5.537    -9.111    5.010
    39    H    -7.331    -9.200    4.970
    40    C    -6.527    -7.294    5.590
    41    H    -6.469    -7.548    6.670
    42    O    -5.404    -6.414    5.287
    43    C    -5.836    -5.060    5.342
    44    H    -5.189    -4.548    6.090
    45    N    -5.685    -4.383    4.043
    46    C    -5.696    -3.028    3.830
    47    N    -5.998    0.210    5.024
    48    H    -6.197    0.071    5.992
    49    H    -6.049    1.137    4.642
    50    N    -5.865    -2.080    4.768
    51    C    -5.831    -0.850    4.256
    52    N    -5.612    -0.595    2.930
    53    H    -5.605    0.367    2.630
    54    C    -5.422    -1.550    1.941
    55    O    -5.234    -1.242    0.759
    56    C    -5.490    -2.865    2.474
    57    N    -5.384    -4.095    1.840
    58    C    -5.514    -4.969    2.809
    59    H    -5.490    -6.054    2.692
    60    C    -7.272    -5.056    5.823
    61    H    -7.867    -4.238    5.369
    62    O    -7.315    -4.953    7.230
    63    H    -8.224    -5.148    7.497
    64    C    -7.763    -6.416    5.362
    65    H    -7.907    -6.392    4.253
    66    O    -8.903    -6.925    6.113
    67    P    -10.276    -7.064    5.336
    68    O    -10.029    -7.341    3.909
    69    O    -11.115    -8.037    6.073
    70    O    -10.955    -5.645    5.433
    71    C    -11.152    -4.957    6.689
    72    H    -10.346    -5.180    7.425
    73    H    -12.120    -5.267    7.138
    74    C    -11.212    -3.437    6.491
    75    H    -11.387    -2.917    7.457
    76    O    -9.938    -2.971    5.973
    77    C    -10.165    -1.928    5.038
    78    H    -9.588    -1.058    5.429
    79    N    -9.675    -2.259    3.670
    80    C    -9.495    -3.566    3.291
    81    H    -9.729    -4.319    4.042
    82    C    -9.025    -3.883    2.079
    83    H    -8.853    -4.913    1.774
    84    C    -9.424    -1.236    2.761
    85    O    -9.629    -0.071    3.121
    86    N    -8.957    -1.538    1.523
    87    C    -8.741    -2.816    1.179
    88    N    -8.252    -3.093    -0.027
    89    H    -8.043    -2.343    -0.653
    90    H    -8.027    -4.025    -0.311
    91    C    -11.644    -1.591    5.074
    92    H    -12.022    -1.257    4.085
    93    O    -11.895    -0.597    6.054
    94    H    -12.851    -0.576    6.221
    95    C    -12.251    -2.929    5.475
    96    H    -12.228    -3.633    4.611
    97    O    -13.553    -2.821    6.093
    98    P    -14.854    -3.147    5.269
    99    O    -14.908    -4.602    5.029
    100    O    -16.022    -2.552    5.957
    101    O    -14.646    -2.432    3.887
    102    C    -14.881    -1.015    3.755
    103    H    -14.198    -0.433    4.413
    104    H    -15.923    -0.751    4.038
    105    C    -14.648    -0.566    2.314
    106    H    -14.846    0.526    2.230
    107    O    -13.245    -0.798    1.953
    108    C    -13.159    -1.159    0.586
    109    H    -12.485    -0.407    0.114
    110    N    -12.593    -2.514    0.369
    111    C    -12.695    -3.481    1.340
    112    H    -13.233    -3.178    2.236
    113    C    -11.933    -2.766    -0.818
    114    O    -11.796    -1.926    -1.700
    115    N    -11.415    -4.028    -0.929
    116    H    -10.927    -4.220    -1.789
    117    C    -11.436    -5.029    0.015
    118    O    -10.862    -6.092    -0.204
    119    C    -12.144    -4.696    1.215
    120    H    -12.192    -5.436    2.011
    121    C    -14.548    -0.997    0.024
    122    H    -14.747    -1.657    -0.833
    123    O    -14.706    0.356    -0.308
    124    H    -14.537    0.826    0.511
    125    C    -15.450    -1.293    1.211
    126    H    -15.471    -2.377    1.455
    127    O    -16.786    -0.741    1.111
    128    P    -17.796    -1.199    -0.016
    129    O    -18.011    -2.651    0.162
    130    O    -18.997    -0.330    0.029
    131    O    -17.112    -0.971    -1.409
    132    C    -17.540    -1.609    -2.630
    133    H    -18.199    -0.906    -3.192
    134    H    -18.137    -2.534    -2.430
    135    C    -16.333    -1.928    -3.545
    136    H    -15.908    -0.977    -3.930
    137    O    -15.270    -2.631    -2.841
    138    C    -15.177    -3.964    -3.296
    139    H    -14.296    -3.967    -3.981
    140    N    -14.966    -4.922    -2.183
    141    C    -15.485    -4.644    -0.939
    142    H    -16.017    -3.693    -0.845
    143    C    -15.296    -5.478    0.092
    144    H    -15.683    -5.268    1.088
    145    C    -14.271    -6.108    -2.403
    146    O    -13.836    -6.356    -3.540
    147    N    -14.069    -6.960    -1.370
    148    C    -14.556    -6.675    -0.151
    149    N    -14.324    -7.528    0.843
    150    H    -13.819    -8.365    0.632
    151    H    -14.656    -7.384    1.777
    152    C    -16.426    -4.241    -4.102
    153    H    -17.271    -4.523    -3.437
    154    O    -16.227    -5.215    -5.108
    155    H    -15.614    -4.824    -5.751
    156    C    -16.665    -2.867    -4.714
    157    H    -17.755    -2.754    -4.930
    158    O    -15.817    -2.604    -5.859
    159    P    -16.426    -2.233    -7.257
    160    O    -16.121    -3.323    -8.217
    161    O    -17.848    -1.860    -7.090
    162    O    -15.653    -0.949    -7.701
    163    C    -14.216    -0.860    -7.761
    164    H    -13.842    -1.398    -8.656
    165    H    -13.752    -1.334    -6.867
    166    C    -13.729    0.606    -7.824
    167    H    -13.731    0.985    -8.868
    168    O    -14.630    1.471    -7.060
    169    C    -13.896    2.469    -6.392
    170    H    -14.312    3.444    -6.740
    171    N    -14.073    2.345    -4.949
    172    C    -14.456    2.772    -2.833
    173    N    -14.432    1.401    -2.964
    174    C    -14.180    1.188    -4.222
    175    H    -14.110    0.202    -4.688
    176    N    -14.683    4.957    -1.949
    177    C    -14.408    5.388    -3.182
    178    H    -14.383    6.475    -3.292
    179    N    -14.161    4.689    -4.298
    180    C    -14.228    3.372    -4.052
    181    C    -14.704    3.621    -1.732
    182    N    -14.966    3.155    -0.505
    183    H    -15.027    2.157    -0.409
    184    H    -15.017    3.766    0.288
    185    C    -12.456    2.347    -6.820
    186    H    -11.751    2.590    -6.004
    187    O    -12.207    3.187    -7.928
    188    H    -11.263    3.115    -8.103
    189    C    -12.351    0.875    -7.196
    190    H    -12.326    0.263    -6.263
    191    O    -11.273    0.575    -8.126
    192    P    -10.076    -0.313    -7.614
    193    O    -9.836    -0.004    -6.189
    194    O    -10.347    -1.732    -7.947
    195    O    -8.839    0.202    -8.445
    196    C    -8.587    -0.316    -9.765
    197    H    -9.513    -0.365    -10.383
    198    H    -8.171    -1.347    -9.683
    199    C    -7.552    0.578    -10.444
    200    H    -6.690    0.767    -9.769
    201    O    -7.061    -0.067    -11.657
    202    C    -7.585    0.606    -12.797
    203    H    -6.737    1.217    -13.188
    204    N    -8.083    -0.356    -13.816
    205    C    -8.693    -1.524    -13.422
    206    H    -8.770    -1.667    -12.342
    207    C    -7.911    -0.068    -15.152
    208    O    -7.353    0.952    -15.544
    209    N    -8.392    -1.016    -16.019
    210    H    -8.253    -0.810    -16.999
    211    C    -8.957    -2.234    -15.697
    212    O    -9.283    -3.023    -16.584
    213    C    -9.117    -2.455    -14.290
    214    H    -9.561    -3.391    -13.958
    215    C    -8.674    1.543    -12.304
    216    H    -9.645    1.008    -12.214
    217    O    -8.813    2.685    -13.125
    218    H    -8.004    3.210    -13.012
    219    C    -8.153    1.910    -10.918
    220    H    -9.022    2.146    -10.260
    221    O    -7.173    2.965    -10.924
    222    P    -7.309    4.284    -10.086
    223    O    -6.145    5.131    -10.455
    224    O    -8.660    4.859    -10.285
    225    O    -7.135    3.843    -8.584
    226    C    -8.259    3.581    -7.726
    227    H    -7.977    2.804    -6.983
    228    H    -9.117    3.163    -8.302
    229    C    -8.719    4.834    -6.972
    230    H    -8.869    5.698    -7.658
    231    O    -10.012    4.513    -6.399
    232    C    -10.156    5.138    -5.137
    233    H    -11.061    5.787    -5.205
    234    N    -10.359    4.146    -4.071
    235    C    -10.912    3.172    -2.181
    236    N    -10.483    2.160    -3.025
    237    C    -10.171    2.784    -4.131
    238    H    -9.802    2.297    -5.038
    239    N    -11.691    4.360    -0.294
    240    C    -11.521    5.470    -1.013
    241    H    -11.776    6.404    -0.501
    242    N    -11.102    5.597    -2.274
    243    C    -10.820    4.401    -2.807
    244    C    -11.400    3.163    -0.859
    245    N    -11.578    2.043    -0.143
    246    H    -11.442    1.134    -0.529
    247    H    -11.807    2.123    0.827
    248    C    -8.934    5.994    -4.914
    249    H    -8.632    6.027    -3.850
    250    O    -9.177    7.306    -5.382
    251    H    -8.324    7.760    -5.400
    252    C    -7.883    5.281    -5.757
    253    H    -7.543    4.344    -5.256
    254    O    -6.792    6.134    -6.167
    255    P    -5.469    6.179    -5.300
    256    O    -4.951    4.806    -5.122
    257    O    -4.552    7.169    -5.907
    258    O    -5.900    6.711    -3.886
    259    C    -6.291    8.085    -3.657
    260    H    -7.093    8.405    -4.359
    261    H    -5.433    8.775    -3.815
    262    C    -6.809    8.283    -2.224
    263    H    -7.110    9.337    -2.052
    264    O    -7.996    7.462    -2.031
    265    C    -7.983    6.897    -0.736
    266    H    -8.951    7.177    -0.258
    267    N    -7.880    5.435    -0.794
    268    C    -8.022    3.295    -0.319
    269    N    -7.490    3.373    -1.599
    270    C    -7.425    4.658    -1.830
    271    H    -7.058    5.102    -2.754
    272    N    -8.856    2.482    1.729
    273    C    -9.005    3.752    2.091
    274    H    -9.407    3.905    3.097
    275    N    -8.733    4.865    1.402
    276    C    -8.253    4.562    0.191
    277    C    -8.364    2.201    0.498
    278    N    -8.224    0.922    0.098
    279    H    -7.880    0.672    -0.811
    280    H    -8.533    0.201    0.733
    281    C    -6.842    7.527    0.022
    282    H    -6.391    6.826    0.750
    283    O    -7.292    8.695    0.679
    284    H    -6.503    9.144    1.004
    285    C    -5.855    7.860    -1.091
    286    H    -5.338    6.937    -1.441
    287    O    -4.935    8.933    -0.767
    288    P    -3.508    8.592    -0.188
    289    O    -2.873    7.590    -1.069
    290    O    -2.769    9.856    0.033
    291    O    -3.789    7.905    1.199
    292    C    -4.245    8.647    2.349
    293    H    -5.099    9.312    2.090
    294    H    -3.421    9.287    2.737
    295    C    -4.698    7.715    3.489
    296    H    -5.115    8.305    4.333
    297    O    -5.749    6.821    3.028
    298    C    -5.586    5.543    3.628
    299    H    -6.549    5.334    4.148
    300    N    -5.321    4.459    2.635
    301    C    -4.762    4.759    1.415
    302    H    -4.548    5.809    1.233
    303    C    -4.533    3.812    0.496
    304    H    -4.112    4.041    -0.481
    305    C    -5.599    3.133    2.954
    306    O    -6.072    2.866    4.072
    307    N    -5.352    2.161    2.046
    308    C    -4.856    2.469    0.836
    309    N    -4.658    1.498    -0.052
    310    H    -4.891    0.555    0.197
    311    H    -4.318    1.677    -0.979
    312    C    -4.481    5.665    4.658
    313    H    -3.910    4.725    4.777
    314    O    -5.013    6.047    5.913
    315    H    -4.262    6.232    6.490
    316    C    -3.627    6.773    4.051
    317    H    -3.075    6.391    3.164
    318    O    -2.789    7.478    4.992
    319    P    -1.260    7.131    5.075
    320    O    -0.739    6.895    3.709
    321    O    -0.562    8.154    5.884
    322    O    -1.251    5.773    5.868
    323    C    -1.675    5.762    7.252
    324    H    -2.691    6.200    7.379
    325    H    -0.968    6.354    7.881
    326    C    -1.707    4.330    7.798
    327    H    -1.935    4.326    8.886
    328    O    -2.763    3.567    7.138
    329    C    -2.301    2.239    6.909
    330    H    -3.052    1.571    7.391
    331    N    -2.213    1.898    5.462
    332    C    -2.099    2.896    4.523
    333    H    -2.107    3.913    4.908
    334    C    -2.022    2.626    3.215
    335    H    -1.960    3.409    2.461
    336    C    -2.156    0.568    5.056
    337    O    -2.152    -0.329    5.914
    338    N    -2.100    0.271    3.737
    339    C    -2.025    1.257    2.825
    340    N    -1.940    0.935    1.537
    341    H    -1.925    -0.031    1.266
    342    H    -1.860    1.625    0.819
    343    C    -0.971    2.083    7.629
    344    H    -0.290    1.384    7.099
    345    O    -1.184    1.631    8.960
    346    H    -0.347    1.698    9.452
    347    C    -0.429    3.507    7.574
    348    H    -0.042    3.731    6.555
    349    O    0.550    3.813    8.585
    350    H    1.356    3.284    8.440
 $END
