!*** FMO 5.3 (Gamess) INPUT generated by Facio 22.1.1.32 ***
 $CONTRL RUNTYP=ENERGY NPRINT=-5 ISPHER=1 MAXIT=200 $END
 $SYSTEM MWORDS=63 MEMDDI=63 $END
 $GDDI NGROUP=1 $END
 $SCF DIRSCF=.TRUE. NPUNCH=0 $END
!*** NumCPU : 2  MemPerNode : 512MB
 $PCM SOLVNT=WATER IEF=-10 ICOMP=2 ICAV=1 IDISP=1 IFMO=-1 $END
 $PCMCAV RADII=SUAHF $END
 $TESCAV NTSALL=60 $END
 $FMOPRP
    NAODIR=200
    NGRFMO(1)=1, 1, 0, 0, 0,   0, 0, 0, 0, 0
    IPIEDA=1
    NPRINT=9
 $END
 $FMO
      SCFTYP(1)=RHF
      MODGRD=10
      MODMUL=0
      MAXCAO=5
      MAXBND=13
      NLAYER=1
      MPLEVL(1)=2
      NFRAG=11
      ICHARG(1)=-1, -1, -1, -1, -1, -1, -1, -1, -1, -1, 0
      FRGNAM(1)=F1, F2, F3, F4, F5, F6, F7, F8, F9, F10, F11
      indat(1)=0
               1   -36   0
               37   -70   0
               71   -101   0
               102   -131   0
               132   -162   0
               163   -195   0
               196   -225   0
               226   -258   0
               259   -291   0
               292   -322   0
               323   -350   0
 $END

 $FMOBND
   -37   36       6-31G*    MINI
   -71   70       6-31G*    MINI
   -102   101       6-31G*    MINI
   -132   131       6-31G*    MINI
   -163   162       6-31G*    MINI
   -196   195       6-31G*    MINI
   -226   225       6-31G*    MINI
   -259   258       6-31G*    MINI
   -292   291       6-31G*    MINI
   -323   322       6-31G*    MINI
 $END
 $FMOHYB
 6-31G*      15   5
   1 0  -0.065034   0.288264   0.000000   0.000000   0.604412
         0.290129   0.000000   0.000000   0.319045  -0.017106
        -0.017106   0.057934   0.000000   0.000000   0.000000
   0 1  -0.065040   0.288293   0.569832   0.000000  -0.201456
         0.290147   0.300783   0.000000  -0.106342   0.049598
        -0.017106  -0.008771   0.000000  -0.027223   0.000000
   0 1  -0.065039   0.288293  -0.284916  -0.493490  -0.201455
         0.290145  -0.150392  -0.260486  -0.106340  -0.000427
         0.032923  -0.008771   0.033353   0.013612   0.023576
   0 1  -0.065039   0.288293  -0.284916   0.493490  -0.201455
         0.290145  -0.150392   0.260486  -0.106340  -0.000427
         0.032923  -0.008771  -0.033353   0.013612  -0.023576
   0 1   1.010938  -0.011975   0.000000   0.000000   0.000000
        -0.054085   0.000000   0.000000  -0.000000  -0.003174
        -0.003174  -0.003174   0.000000   0.000000   0.000000
 MINI         5   5
   1 0  -0.104883   0.308874   0.000000   0.000000   0.521806
   0 1  -0.104883   0.308874   0.491961   0.000000  -0.173934
   0 1  -0.104883   0.308876  -0.245980  -0.426050  -0.173933
   0 1  -0.104883   0.308876  -0.245980   0.426050  -0.173933
   0 1   0.988209   0.063992   0.000000   0.000000   0.000000
 $END
 
 $DATA
 FMO calculation
 C1 
 H.1-1    1
      N31 6
   
 O.1-1    8
      N31 6
      d 1
      1 0.800 1.0
   
 C.1-1    6
      N31 6
      d 1
      1 0.800 1.0
   
 N.1-1    7
      N31 6
      d 1
      1 0.800 1.0
   
 P.1-1   15
      N31 6
      d 1
      1 0.550 1.0
   
 $END
 $FMOXYZ
    1    H    0.647    -7.891    -1.536
    2    O    0.297    -7.561    -0.687
    3    C    0.672    -8.512    0.320
    4    H    1.776    -8.654    0.294
    5    H    0.202    -9.496    0.098
    6    C    0.267    -8.076    1.730
    7    H    0.545    -8.851    2.477
    8    O    0.975    -6.854    2.089
    9    C    0.112    -6.018    2.842
    10    H    0.641    -5.786    3.798
    11    N    -0.165    -4.755    2.142
    12    C    -0.672    -3.616    2.708
    13    N    -1.843    -1.907    5.481
    14    H    -1.799    -2.596    6.201
    15    H    -2.167    -0.984    5.709
    16    N    -1.025    -3.466    3.997
    17    C    -1.445    -2.232    4.266
    18    N    -1.493    -1.234    3.327
    19    H    -1.807    -0.322    3.619
    20    C    -1.142    -1.361    1.988
    21    O    -1.215    -0.403    1.211
    22    C    -0.704    -2.680    1.691
    23    N    -0.247    -3.227    0.498
    24    C    0.059    -4.466    0.813
    25    H    0.455    -5.219    0.127
    26    C    -1.140    -6.815    3.134
    27    H    -2.040    -6.175    3.222
    28    O    -0.963    -7.559    4.325
    29    H    -1.764    -8.082    4.448
    30    C    -1.217    -7.728    1.915
    31    H    -1.530    -7.154    1.013
    32    O    -1.981    -8.939    2.105
    33    P    -3.520    -8.952    1.776
    34    O    -3.724    -8.392    0.425
    35    O    -4.017    -10.330    2.004
    36    O    -4.142    -7.962    2.831
    37    C    -4.243    -8.346    4.222
    38    H    -3.258    -8.664    4.626
    39    H    -4.939    -9.209    4.342
    40    C    -4.755    -7.195    5.093
    41    H    -4.762    -7.481    6.167
    42    O    -3.880    -6.033    4.962
    43    C    -4.670    -4.851    5.000
    44    H    -4.281    -4.227    5.838
    45    N    -4.566    -4.073    3.757
    46    C    -4.941    -2.766    3.592
    47    N    -6.270    0.164    4.885
    48    H    -6.545    -0.114    5.806
    49    H    -6.554    1.065    4.545
    50    N    -5.476    -1.973    4.535
    51    C    -5.732    -0.744    4.091
    52    N    -5.419    -0.332    2.825
    53    H    -5.669    0.608    2.559
    54    C    -4.848    -1.120    1.833
    55    O    -4.595    -0.663    0.715
    56    C    -4.624    -2.449    2.288
    57    N    -4.097    -3.551    1.628
    58    C    -4.076    -4.492    2.542
    59    H    -3.727    -5.515    2.392
    60    C    -6.090    -5.268    5.294
    61    H    -6.827    -4.616    4.789
    62    O    -6.307    -5.274    6.693
    63    H    -7.156    -5.710    6.842
    64    C    -6.145    -6.675    4.723
    65    H    -6.172    -6.642    3.607
    66    O    -7.177    -7.514    5.307
    67    P    -8.542    -7.643    4.520
    68    O    -8.240    -7.986    3.113
    69    O    -9.412    -8.587    5.253
    70    O    -9.200    -6.211    4.556
    71    C    -9.657    -5.619    5.794
    72    H    -8.899    -5.714    6.605
    73    H    -10.585    -6.131    6.146
    74    C    -9.976    -4.127    5.606
    75    H    -10.278    -3.656    6.568
    76    O    -8.800    -3.417    5.132
    77    C    -9.193    -2.426    4.200
    78    H    -8.808    -1.475    4.632
    79    N    -8.608    -2.604    2.848
    80    C    -8.209    -3.841    2.410
    81    H    -8.336    -4.658    3.119
    82    C    -7.659    -4.006    1.199
    83    H    -7.309    -4.974    0.846
    84    C    -8.491    -1.499    2.015
    85    O    -8.878    -0.399    2.435
    86    N    -7.947    -1.645    0.783
    87    C    -7.520    -2.851    0.371
    88    N    -6.957    -2.958    -0.829
    89    H    -6.809    -2.128    -1.367
    90    H    -6.589    -3.821    -1.175
    91    C    -10.701    -2.387    4.189
    92    H    -11.101    -2.122    3.193
    93    O    -11.173    -1.476    5.167
    94    H    -12.123    -1.625    5.251
    95    C    -11.051    -3.822    4.553
    96    H    -10.863    -4.503    3.691
    97    O    -12.365    -3.990    5.122
    98    P    -13.599    -4.313    4.203
    99    O    -13.302    -5.559    3.466
    100    O    -14.818    -4.307    5.040
    101    O    -13.668    -3.128    3.184
    102    C    -14.141    -1.821    3.572
    103    H    -13.612    -1.445    4.478
    104    H    -15.225    -1.861    3.820
    105    C    -13.967    -0.814    2.425
    106    H    -14.260    0.202    2.754
    107    O    -12.578    -0.734    2.015
    108    C    -12.492    -0.582    0.615
    109    H    -11.932    0.372    0.475
    110    N    -11.753    -1.711    -0.006
    111    C    -11.717    -2.958    0.569
    112    H    -12.215    -3.036    1.529
    113    C    -11.133    -1.474    -1.197
    114    O    -11.203    -0.379    -1.751
    115    N    -10.449    -2.541    -1.728
    116    H    -10.002    -2.354    -2.611
    117    C    -10.359    -3.817    -1.205
    118    O    -9.706    -4.688    -1.775
    119    C    -11.063    -3.995    0.028
    120    H    -11.024    -4.968    0.514
    121    C    -13.914    -0.430    0.075
    122    H    -14.054    -0.932    -0.909
    123    O    -14.261    0.945    -0.030
    124    H    -13.866    1.260    -0.852
    125    C    -14.729    -1.142    1.139
    126    H    -14.647    -2.245    0.997
    127    O    -16.086    -0.679    1.238
    128    P    -17.289    -1.553    0.763
    129    O    -17.273    -2.830    1.505
    130    O    -18.517    -0.736    0.898
    131    O    -17.022    -1.832    -0.771
    132    C    -17.853    -2.779    -1.488
    133    H    -18.882    -2.846    -1.064
    134    H    -17.399    -3.794    -1.428
    135    C    -17.988    -2.419    -2.977
    136    H    -18.550    -3.204    -3.525
    137    O    -18.760    -1.189    -3.101
    138    C    -18.182    -0.366    -4.110
    139    H    -19.006    -0.165    -4.835
    140    N    -17.690    0.936    -3.581
    141    C    -17.434    1.080    -2.235
    142    H    -17.639    0.214    -1.606
    143    C    -16.999    2.237    -1.722
    144    H    -16.813    2.367    -0.657
    145    C    -17.461    2.006    -4.444
    146    O    -17.653    1.858    -5.662
    147    N    -17.057    3.196    -3.937
    148    C    -16.806    3.323    -2.621
    149    N    -16.397    4.501    -2.158
    150    H    -16.280    5.265    -2.794
    151    H    -16.227    4.661    -1.186
    152    C    -17.102    -1.169    -4.815
    153    H    -16.244    -0.543    -5.141
    154    O    -17.657    -1.841    -5.931
    155    H    -17.017    -2.516    -6.210
    156    C    -16.674    -2.148    -3.731
    157    H    -15.990    -1.626    -3.020
    158    O    -16.138    -3.381    -4.256
    159    P    -14.772    -3.968    -3.763
    160    O    -14.566    -3.602    -2.348
    161    O    -14.747    -5.411    -4.098
    162    O    -13.717    -3.195    -4.642
    163    C    -13.199    -3.780    -5.854
    164    H    -13.983    -3.770    -6.645
    165    H    -12.889    -4.842    -5.701
    166    C    -11.979    -3.034    -6.416
    167    H    -11.691    -3.560    -7.350
    168    O    -12.320    -1.673    -6.782
    169    C    -11.657    -0.763    -5.924
    170    H    -10.795    -0.346    -6.489
    171    N    -12.576    0.302    -5.547
    172    C    -13.666    2.209    -5.525
    173    N    -14.295    1.378    -4.596
    174    C    -13.608    0.261    -4.649
    175    H    -13.802    -0.632    -4.049
    176    N    -13.094    4.041    -6.936
    177    C    -12.114    3.262    -7.402
    178    H    -11.465    3.692    -8.167
    179    N    -11.825    2.009    -7.079
    180    C    -12.627    1.539    -6.130
    181    C    -13.907    3.530    -5.975
    182    N    -14.896    4.313    -5.523
    183    H    -15.624    3.919    -4.949
    184    H    -15.035    5.214    -5.936
    185    C    -11.129    -1.551    -4.750
    186    H    -11.923    -1.704    -3.986
    187    O    -9.991    -0.949    -4.156
    188    H    -10.207    -0.035    -3.892
    189    C    -10.798    -2.888    -5.413
    190    H    -10.867    -3.704    -4.659
    191    O    -9.491    -2.888    -6.018
    192    P    -9.012    -3.927    -7.071
    193    O    -7.535    -3.933    -7.067
    194    O    -9.681    -5.222    -6.817
    195    O    -9.530    -3.341    -8.440
    196    C    -8.738    -3.368    -9.647
    197    H    -9.261    -3.998    -10.401
    198    H    -7.732    -3.826    -9.495
    199    C    -8.518    -1.964    -10.246
    200    H    -7.729    -2.020    -11.028
    201    O    -9.741    -1.491    -10.896
    202    C    -10.127    -0.248    -10.324
    203    H    -9.656    0.535    -10.956
    204    N    -11.601    -0.085    -10.279
    205    C    -12.397    -1.158    -9.964
    206    H    -11.854    -2.081    -9.750
    207    C    -12.151    1.160    -10.502
    208    O    -11.474    2.156    -10.762
    209    N    -13.521    1.203    -10.459
    210    H    -13.935    2.097    -10.656
    211    C    -14.383    0.146    -10.261
    212    O    -15.599    0.315    -10.349
    213    C    -13.736    -1.098    -9.975
    214    H    -14.352    -1.980    -9.823
    215    C    -9.505    -0.221    -8.953
    216    H    -10.086    -0.876    -8.271
    217    O    -9.396    1.078    -8.420
    218    H    -8.586    1.506    -8.732
    219    C    -8.149    -0.857    -9.231
    220    H    -7.799    -1.376    -8.310
    221    O    -7.156    0.058    -9.758
    222    P    -6.098    0.724    -8.786
    223    O    -5.839    -0.180    -7.645
    224    O    -4.918    1.125    -9.588
    225    O    -6.807    2.027    -8.279
    226    C    -6.194    2.873    -7.277
    227    H    -5.154    3.152    -7.562
    228    H    -6.147    2.330    -6.305
    229    C    -6.992    4.175    -7.047
    230    H    -6.786    4.909    -7.857
    231    O    -8.424    3.902    -7.075
    232    C    -9.077    4.657    -6.080
    233    H    -9.890    5.222    -6.595
    234    N    -9.675    3.790    -5.065
    235    C    -10.963    3.024    -3.466
    236    N    -10.154    1.959    -3.845
    237    C    -9.413    2.463    -4.809
    238    H    -8.658    1.918    -5.383
    239    N    -12.596    4.345    -2.373
    240    C    -12.230    5.340    -3.181
    241    H    -12.765    6.282    -3.032
    242    N    -11.262    5.354    -4.104
    243    C    -10.674    4.152    -4.205
    244    C    -11.983    3.150    -2.506
    245    N    -12.381    2.180    -1.690
    246    H    -11.887    1.299    -1.678
    247    H    -12.862    2.512    -0.880
    248    C    -8.071    5.623    -5.513
    249    H    -8.263    5.852    -4.448
    250    O    -8.071    6.814    -6.279
    251    H    -7.288    7.320    -6.023
    252    C    -6.766    4.855    -5.679
    253    H    -6.683    4.042    -4.919
    254    O    -5.597    5.698    -5.727
    255    P    -4.801    6.074    -4.425
    256    O    -4.247    4.820    -3.880
    257    O    -3.837    7.141    -4.755
    258    O    -5.869    6.640    -3.410
    259    C    -6.372    7.995    -3.522
    260    H    -6.801    8.186    -4.531
    261    H    -5.563    8.746    -3.357
    262    C    -7.469    8.277    -2.485
    263    H    -7.884    9.296    -2.620
    264    O    -8.574    7.350    -2.650
    265    C    -9.072    6.962    -1.384
    266    H    -10.167    7.174    -1.393
    267    N    -8.861    5.535    -1.160
    268    C    -9.047    3.476    -0.440
    269    N    -8.056    3.457    -1.407
    270    C    -7.978    4.699    -1.798
    271    H    -7.301    5.068    -2.569
    272    N    -10.544    2.833    1.268
    273    C    -10.906    4.119    1.338
    274    H    -11.664    4.359    2.096
    275    N    -10.492    5.150    0.590
    276    C    -9.546    4.753    -0.275
    277    C    -9.599    2.466    0.365
    278    N    -9.222    1.188    0.261
    279    H    -8.490    0.910    -0.359
    280    H    -9.387    0.585    1.051
    281    C    -8.396    7.825    -0.344
    282    H    -8.251    7.299    0.624
    283    O    -9.161    8.999    -0.142
    284    H    -8.595    9.650    0.302
    285    C    -7.057    8.124    -1.013
    286    H    -6.400    7.223    -0.973
    287    O    -6.411    9.332    -0.539
    288    P    -5.210    9.203    0.474
    289    O    -4.110    8.468    -0.185
    290    O    -4.895    10.554    0.986
    291    O    -5.784    8.321    1.645
    292    C    -6.715    8.866    2.605
    293    H    -7.660    9.181    2.107
    294    H    -6.277    9.757    3.108
    295    C    -7.081    7.843    3.690
    296    H    -7.742    8.300    4.458
    297    O    -7.831    6.743    3.095
    298    C    -7.426    5.516    3.694
    299    H    -8.361    5.033    4.066
    300    N    -6.752    4.599    2.731
    301    C    -6.208    5.109    1.574
    302    H    -6.336    6.177    1.420
    303    C    -5.604    4.326    0.676
    304    H    -5.195    4.718    -0.254
    305    C    -6.634    3.236    3.004
    306    O    -7.104    2.784    4.061
    307    N    -6.014    2.432    2.110
    308    C    -5.538    2.933    0.957
    309    N    -4.986    2.108    0.073
    310    H    -4.918    1.130    0.284
    311    H    -4.612    2.431    -0.798
    312    C    -6.544    5.864    4.878
    313    H    -5.783    5.085    5.087
    314    O    -7.339    6.064    6.029
    315    H    -6.760    6.419    6.715
    316    C    -5.904    7.164    4.404
    317    H    -5.143    6.945    3.618
    318    O    -5.412    8.020    5.460
    319    P    -3.864    8.111    5.732
    320    O    -3.123    8.108    4.455
    321    O    -3.601    9.242    6.654
    322    O    -3.578    6.751    6.473
    323    C    -4.163    6.511    7.773
    324    H    -5.268    6.645    7.758
    325    H    -3.740    7.221    8.519
    326    C    -3.853    5.095    8.271
    327    H    -4.207    4.960    9.315
    328    O    -4.543    4.116    7.445
    329    C    -3.698    2.986    7.258
    330    H    -4.290    2.110    7.611
    331    N    -3.326    2.782    5.829
    332    C    -3.414    3.826    4.937
    333    H    -3.777    4.771    5.340
    334    C    -3.092    3.676    3.646
    335    H    -3.175    4.489    2.927
    336    C    -2.839    1.552    5.397
    337    O    -2.704    0.633    6.218
    338    N    -2.515    1.376    4.096
    339    C    -2.627    2.398    3.227
    340    N    -2.281    2.201    1.957
    341    H    -1.943    1.302    1.670
    342    H    -2.294    2.938    1.277
    343    C    -2.484    3.164    8.159
    344    H    -1.563    2.721    7.713
    345    O    -2.729    2.585    9.434
    346    H    -1.994    2.811    10.030
    347    C    -2.374    4.686    8.214
    348    H    -1.938    5.075    7.267
    349    O    -1.665    5.204    9.356
    350    H    -0.729    4.937    9.318
 $END
