!*** FMO 5.3 (Gamess) INPUT generated by Facio 22.1.1.32 ***
 $CONTRL RUNTYP=ENERGY NPRINT=-5 ISPHER=1 MAXIT=200 $END
 $SYSTEM MWORDS=63 MEMDDI=63 $END
 $GDDI NGROUP=1 $END
 $SCF DIRSCF=.TRUE. NPUNCH=0 $END
!*** NumCPU : 2  MemPerNode : 512MB
 $PCM SOLVNT=WATER IEF=-10 ICOMP=2 ICAV=1 IDISP=1 IFMO=-1 $END
 $PCMCAV RADII=SUAHF $END
 $TESCAV NTSALL=60 $END
 $FMOPRP
    NAODIR=200
    NGRFMO(1)=1, 1, 0, 0, 0,   0, 0, 0, 0, 0
    IPIEDA=1
    NPRINT=9
 $END
 $FMO
      SCFTYP(1)=RHF
      MODGRD=10
      MODMUL=0
      MAXCAO=5
      MAXBND=13
      NLAYER=1
      MPLEVL(1)=2
      NFRAG=11
      ICHARG(1)=-1, -1, -1, -1, -1, -1, -1, -1, -1, -1, 0
      FRGNAM(1)=F1, F2, F3, F4, F5, F6, F7, F8, F9, F10, F11
      indat(1)=0
               1   -36   0
               37   -70   0
               71   -101   0
               102   -131   0
               132   -162   0
               163   -195   0
               196   -225   0
               226   -258   0
               259   -291   0
               292   -322   0
               323   -350   0
 $END

 $FMOBND
   -37   36       6-31G*    MINI
   -71   70       6-31G*    MINI
   -102   101       6-31G*    MINI
   -132   131       6-31G*    MINI
   -163   162       6-31G*    MINI
   -196   195       6-31G*    MINI
   -226   225       6-31G*    MINI
   -259   258       6-31G*    MINI
   -292   291       6-31G*    MINI
   -323   322       6-31G*    MINI
 $END
 $FMOHYB
 6-31G*      15   5
   1 0  -0.065034   0.288264   0.000000   0.000000   0.604412
         0.290129   0.000000   0.000000   0.319045  -0.017106
        -0.017106   0.057934   0.000000   0.000000   0.000000
   0 1  -0.065040   0.288293   0.569832   0.000000  -0.201456
         0.290147   0.300783   0.000000  -0.106342   0.049598
        -0.017106  -0.008771   0.000000  -0.027223   0.000000
   0 1  -0.065039   0.288293  -0.284916  -0.493490  -0.201455
         0.290145  -0.150392  -0.260486  -0.106340  -0.000427
         0.032923  -0.008771   0.033353   0.013612   0.023576
   0 1  -0.065039   0.288293  -0.284916   0.493490  -0.201455
         0.290145  -0.150392   0.260486  -0.106340  -0.000427
         0.032923  -0.008771  -0.033353   0.013612  -0.023576
   0 1   1.010938  -0.011975   0.000000   0.000000   0.000000
        -0.054085   0.000000   0.000000  -0.000000  -0.003174
        -0.003174  -0.003174   0.000000   0.000000   0.000000
 MINI         5   5
   1 0  -0.104883   0.308874   0.000000   0.000000   0.521806
   0 1  -0.104883   0.308874   0.491961   0.000000  -0.173934
   0 1  -0.104883   0.308876  -0.245980  -0.426050  -0.173933
   0 1  -0.104883   0.308876  -0.245980   0.426050  -0.173933
   0 1   0.988209   0.063992   0.000000   0.000000   0.000000
 $END
 
 $DATA
 FMO calculation
 C1 
 H.1-1    1
      N31 6
   
 O.1-1    8
      N31 6
      d 1
      1 0.800 1.0
   
 C.1-1    6
      N31 6
      d 1
      1 0.800 1.0
   
 N.1-1    7
      N31 6
      d 1
      1 0.800 1.0
   
 P.1-1   15
      N31 6
      d 1
      1 0.550 1.0
   
 $END
 $FMOXYZ
    1    H    -2.163    -8.653    -2.784
    2    O    -2.210    -8.287    -1.882
    3    C    -1.915    -9.365    -0.981
    4    H    -0.912    -9.781    -1.224
    5    H    -2.667    -10.173    -1.120
    6    C    -1.927    -8.933    0.489
    7    H    -1.704    -9.791    1.161
    8    O    -0.897    -7.923    0.722
    9    C    -1.391    -6.959    1.642
    10    H    -0.666    -6.906    2.487
    11    N    -1.495    -5.626    1.027
    12    C    -1.615    -4.439    1.696
    13    N    -1.823    -2.687    4.673
    14    H    -1.804    -3.414    5.359
    15    H    -1.874    -1.732    4.977
    16    N    -1.674    -4.293    3.032
    17    C    -1.746    -3.018    3.398
    18    N    -1.735    -1.977    2.506
    19    H    -1.767    -1.039    2.873
    20    C    -1.667    -2.096    1.122
    21    O    -1.654    -1.097    0.394
    22    C    -1.621    -3.459    0.721
    23    N    -1.540    -4.024    -0.549
    24    C    -1.463    -5.316    -0.316
    25    H    -1.381    -6.096    -1.078
    26    C    -2.718    -7.466    2.155
    27    H    -3.414    -6.646    2.426
    28    O    -2.503    -8.306    3.273
    29    H    -3.341    -8.753    3.447
    30    C    -3.227    -8.259    0.957
    31    H    -3.552    -7.572    0.141
    32    O    -4.213    -9.266    1.266
    33    P    -5.740    -8.878    1.264
    34    O    -6.075    -8.318    -0.062
    35    O    -6.515    -10.063    1.693
    36    O    -5.831    -7.753    2.362
    37    C    -5.820    -8.143    3.757
    38    H    -4.871    -8.653    4.028
    39    H    -6.658    -8.844    3.984
    40    C    -5.976    -6.928    4.671
    41    H    -5.906    -7.226    5.740
    42    O    -4.918    -5.962    4.426
    43    C    -5.450    -4.652    4.547
    44    H    -4.840    -4.134    5.320
    45    N    -5.345    -3.905    3.289
    46    C    -5.469    -2.551    3.146
    47    N    -6.077    0.574    4.515
    48    H    -6.259    0.358    5.473
    49    H    -6.121    1.529    4.210
    50    N    -5.733    -1.675    4.131
    51    C    -5.797    -0.421    3.692
    52    N    -5.578    -0.073    2.386
    53    H    -5.632    0.902    2.137
    54    C    -5.286    -0.952    1.352
    55    O    -5.095    -0.540    0.205
    56    C    -5.254    -2.298    1.806
    57    N    -5.030    -3.483    1.109
    58    C    -5.099    -4.411    2.033
    59    H    -4.982    -5.484    1.871
    60    C    -6.883    -4.776    5.025
    61    H    -7.542    -3.978    4.621
    62    O    -6.916    -4.754    6.439
    63    H    -7.782    -5.091    6.711
    64    C    -7.277    -6.142    4.484
    65    H    -7.447    -6.083    3.383
    66    O    -8.359    -6.781    5.207
    67    P    -9.787    -6.844    4.539
    68    O    -9.648    -7.377    3.168
    69    O    -10.663    -7.616    5.449
    70    O    -10.262    -5.352    4.465
    71    C    -10.540    -4.585    5.652
    72    H    -9.664    -4.573    6.334
    73    H    -11.424    -5.003    6.186
    74    C    -10.849    -3.128    5.274
    75    H    -11.151    -2.535    6.167
    76    O    -9.645    -2.504    4.744
    77    C    -9.989    -1.631    3.677
    78    H    -9.601    -0.632    3.980
    79    N    -9.356    -2.025    2.388
    80    C    -8.993    -3.335    2.175
    81    H    -9.193    -4.025    2.993
    82    C    -8.402    -3.720    1.039
    83    H    -8.083    -4.745    0.862
    84    C    -9.149    -1.079    1.386
    85    O    -9.492    0.096    1.586
    86    N    -8.559    -1.453    0.226
    87    C    -8.177    -2.729    0.042
    88    N    -7.585    -3.073    -1.097
    89    H    -7.425    -2.372    -1.787
    90    H    -7.275    -4.006    -1.282
    91    C    -11.503    -1.566    3.598
    92    H    -11.873    -1.450    2.557
    93    O    -11.986    -0.504    4.400
    94    H    -12.940    -0.633    4.501
    95    C    -11.899    -2.923    4.169
    96    H    -11.725    -3.714    3.401
    97    O    -13.224    -2.964    4.738
    98    P    -14.387    -3.680    3.963
    99    O    -13.993    -5.066    3.635
    100    O    -15.626    -3.510    4.751
    101    O    -14.481    -2.876    2.617
    102    C    -15.137    -1.596    2.543
    103    H    -14.696    -0.879    3.273
    104    H    -16.219    -1.709    2.781
    105    C    -15.002    -0.972    1.147
    106    H    -15.473    0.037    1.129
    107    O    -13.593    -0.791    0.806
    108    C    -13.411    -1.005    -0.583
    109    H    -12.972    -0.049    -0.957
    110    N    -12.477    -2.122    -0.862
    111    C    -12.380    -3.192    -0.006
    112    H    -13.000    -3.126    0.887
    113    C    -11.738    -2.080    -2.019
    114    O    -11.867    -1.177    -2.841
    115    N    -10.871    -3.124    -2.205
    116    H    -10.246    -3.018    -3.002
    117    C    -10.716    -4.229    -1.387
    118    O    -9.919    -5.118    -1.680
    119    C    -11.542    -4.216    -0.215
    120    H    -11.460    -5.039    0.490
    121    C    -14.794    -1.195    -1.197
    122    H    -14.793    -1.911    -2.046
    123    O    -15.296    0.070    -1.614
    124    H    -14.946    0.252    -2.501
    125    C    -15.582    -1.768    -0.025
    126    H    -15.293    -2.834    0.136
    127    O    -17.008    -1.561    -0.127
    128    P    -18.013    -2.762    -0.127
    129    O    -18.093    -3.317    1.239
    130    O    -19.282    -2.292    -0.718
    131    O    -17.373    -3.828    -1.098
    132    C    -17.912    -5.176    -1.141
    133    H    -18.917    -5.263    -0.659
    134    H    -17.221    -5.857    -0.596
    135    C    -18.044    -5.702    -2.577
    136    H    -18.349    -6.768    -2.577
    137    O    -19.092    -4.969    -3.264
    138    C    -18.730    -4.783    -4.627
    139    H    -19.545    -5.267    -5.216
    140    N    -18.651    -3.345    -5.004
    141    C    -18.454    -2.385    -4.036
    142    H    -18.360    -2.747    -3.010
    143    C    -18.405    -1.083    -4.346
    144    H    -18.273    -0.311    -3.590
    145    C    -18.745    -2.971    -6.342
    146    O    -18.886    -3.851    -7.206
    147    N    -18.692    -1.661    -6.676
    148    C    -18.551    -0.727    -5.719
    149    N    -18.561    0.554    -6.073
    150    H    -18.521    1.291    -5.394
    151    H    -18.708    0.802    -7.031
    152    C    -17.430    -5.534    -4.876
    153    H    -16.761    -5.009    -5.593
    154    O    -17.705    -6.842    -5.346
    155    H    -16.874    -7.348    -5.322
    156    C    -16.813    -5.552    -3.483
    157    H    -16.377    -4.550    -3.261
    158    O    -15.895    -6.646    -3.263
    159    P    -14.366    -6.357    -3.029
    160    O    -14.220    -5.325    -1.983
    161    O    -13.689    -7.655    -2.804
    162    O    -13.903    -5.786    -4.420
    163    C    -12.757    -4.910    -4.495
    164    H    -11.825    -5.468    -4.249
    165    H    -12.860    -4.077    -3.761
    166    C    -12.638    -4.264    -5.889
    167    H    -12.396    -5.030    -6.658
    168    O    -13.924    -3.671    -6.267
    169    C    -13.699    -2.446    -6.939
    170    H    -14.224    -2.536    -7.918
    171    N    -14.269    -1.323    -6.202
    172    C    -15.189    0.605    -5.698
    173    N    -15.090    -0.101    -4.507
    174    C    -14.542    -1.240    -4.859
    175    H    -14.309    -2.068    -4.184
    176    N    -15.615    2.299    -7.296
    177    C    -15.072    1.474    -8.196
    178    H    -15.041    1.855    -9.223
    179    N    -14.594    0.234    -8.034
    180    C    -14.680    -0.137    -6.749
    181    C    -15.698    1.884    -6.008
    182    N    -16.265    2.700    -5.103
    183    H    -16.252    2.502    -4.121
    184    H    -16.615    3.595    -5.389
    185    C    -12.211    -2.305    -7.174
    186    H    -11.867    -1.248    -7.154
    187    O    -11.880    -2.892    -8.415
    188    H    -10.916    -2.957    -8.452
    189    C    -11.627    -3.102    -6.009
    190    H    -11.710    -2.516    -5.064
    191    O    -10.287    -3.609    -6.241
    192    P    -9.047    -2.731    -5.799
    193    O    -9.240    -2.441    -4.360
    194    O    -7.801    -3.433    -6.185
    195    O    -9.176    -1.396    -6.625
    196    C    -8.803    -1.321    -8.023
    197    H    -9.414    -2.018    -8.638
    198    H    -7.737    -1.595    -8.173
    199    C    -8.985    0.099    -8.584
    200    H    -8.693    0.134    -9.657
    201    O    -10.387    0.473    -8.522
    202    C    -10.493    1.865    -8.286
    203    H    -11.051    2.276    -9.161
    204    N    -11.221    2.143    -7.020
    205    C    -11.153    1.264    -5.964
    206    H    -10.506    0.401    -6.115
    207    C    -11.980    3.285    -6.939
    208    O    -12.064    4.087    -7.864
    209    N    -12.642    3.461    -5.750
    210    H    -13.247    4.269    -5.705
    211    C    -12.664    2.596    -4.675
    212    O    -13.352    2.852    -3.692
    213    C    -11.842    1.438    -4.830
    214    H    -11.787    0.728    -4.012
    215    C    -9.084    2.434    -8.286
    216    H    -8.971    3.276    -7.576
    217    O    -8.729    2.853    -9.592
    218    H    -7.776    3.014    -9.588
    219    C    -8.254    1.233    -7.850
    220    H    -8.373    1.042    -6.759
    221    O    -6.873    1.293    -8.264
    222    P    -5.767    1.829    -7.286
    223    O    -5.804    1.023    -6.048
    224    O    -4.489    1.836    -8.028
    225    O    -6.196    3.300    -6.923
    226    C    -6.039    4.400    -7.845
    227    H    -6.538    4.193    -8.819
    228    H    -4.960    4.588    -8.051
    229    C    -6.637    5.692    -7.270
    230    H    -6.504    6.536    -7.981
    231    O    -8.072    5.531    -7.057
    232    C    -8.450    6.179    -5.855
    233    H    -9.273    6.884    -6.118
    234    N    -8.941    5.209    -4.861
    235    C    -9.969    4.267    -3.157
    236    N    -9.358    3.236    -3.858
    237    C    -8.762    3.846    -4.852
    238    H    -8.171    3.350    -5.623
    239    N    -11.201    5.493    -1.549
    240    C    -10.853    6.588    -2.229
    241    H    -11.232    7.534    -1.827
    242    N    -10.125    6.693    -3.347
    243    C    -9.712    5.486    -3.762
    244    C    -10.778    4.283    -2.001
    245    N    -11.137    3.168    -1.338
    246    H    -10.790    2.269    -1.582
    247    H    -11.695    3.254    -0.512
    248    C    -7.252    6.964    -5.371
    249    H    -7.216    7.040    -4.267
    250    O    -7.256    8.260    -5.945
    251    H    -6.394    8.651    -5.753
    252    C    -6.092    6.128    -5.903
    253    H    -5.963    5.203    -5.294
    254    O    -4.861    6.857    -6.078
    255    P    -3.798    6.895    -4.924
    256    O    -3.369    5.511    -4.633
    257    O    -2.740    7.851    -5.312
    258    O    -4.575    7.459    -3.678
    259    C    -4.818    8.875    -3.518
    260    H    -5.386    9.287    -4.384
    261    H    -3.857    9.435    -3.449
    262    C    -5.626    9.161    -2.243
    263    H    -5.846    10.247    -2.149
    264    O    -6.907    8.463    -2.302
    265    C    -7.224    7.941    -1.024
    266    H    -8.237    8.327    -0.766
    267    N    -7.261    6.472    -1.034
    268    C    -7.711    4.370    -0.554
    269    N    -6.939    4.352    -1.708
    270    C    -6.696    5.616    -1.947
    271    H    -6.111    5.989    -2.787
    272    N    -8.988    3.719    1.324
    273    C    -9.083    5.017    1.618
    274    H    -9.637    5.249    2.535
    275    N    -8.569    6.067    0.968
    276    C    -7.905    5.672    -0.126
    277    C    -8.303    3.343    0.215
    278    N    -8.229    2.036    -0.104
    279    H    -7.763    1.704    -0.928
    280    H    -8.692    1.371    0.495
    281    C    -6.213    8.493    -0.048
    282    H    -6.001    7.787    0.779
    283    O    -6.670    9.728    0.471
    284    H    -5.916    10.153    0.902
    285    C    -4.988    8.679    -0.933
    286    H    -4.520    7.697    -1.162
    287    O    -4.042    9.656    -0.443
    288    P    -2.783    9.200    0.386
    289    O    -2.021    8.232    -0.425
    290    O    -2.062    10.400    0.859
    291    O    -3.385    8.432    1.617
    292    C    -4.047    9.116    2.702
    293    H    -4.868    9.764    2.328
    294    H    -3.325    9.768    3.242
    295    C    -4.647    8.134    3.722
    296    H    -5.122    8.683    4.562
    297    O    -5.690    7.330    3.101
    298    C    -5.626    5.998    3.598
    299    H    -6.642    5.789    4.014
    300    N    -5.311    4.999    2.539
    301    C    -4.623    5.377    1.412
    302    H    -4.367    6.432    1.341
    303    C    -4.329    4.499    0.444
    304    H    -3.805    4.788    -0.465
    305    C    -5.641    3.661    2.724
    306    O    -6.184    3.311    3.781
    307    N    -5.363    2.762    1.754
    308    C    -4.741    3.149    0.628
    309    N    -4.496    2.247    -0.317
    310    H    -4.767    1.293    -0.175
    311    H    -4.065    2.493    -1.186
    312    C    -4.616    5.983    4.731
    313    H    -4.081    5.015    4.814
    314    O    -5.254    6.274    5.958
    315    H    -4.557    6.452    6.606
    316    C    -3.676    7.104    4.309
    317    H    -3.045    6.759    3.459
    318    O    -2.924    7.693    5.390
    319    P    -1.368    7.489    5.474
    320    O    -0.799    7.385    4.115
    321    O    -0.792    8.524    6.365
    322    O    -1.263    6.073    6.152
    323    C    -1.688    5.886    7.518
    324    H    -2.729    6.254    7.679
    325    H    -1.005    6.435    8.208
    326    C    -1.624    4.408    7.921
    327    H    -1.810    4.293    9.010
    328    O    -2.670    3.655    7.235
    329    C    -2.150    2.383    6.861
    330    H    -2.849    1.632    7.298
    331    N    -2.095    2.195    5.383
    332    C    -2.069    3.286    4.544
    333    H    -2.126    4.262    5.028
    334    C    -2.014    3.145    3.213
    335    H    -1.996    3.996    2.536
    336    C    -2.001    0.915    4.844
    337    O    -1.947    -0.061    5.606
    338    N    -1.971    0.750    3.504
    339    C    -1.963    1.820    2.693
    340    N    -1.904    1.620    1.380
    341    H    -1.855    0.684    1.025
    342    H    -1.844    2.373    0.722
    343    C    -0.788    2.228    7.521
    344    H    -0.094    1.611    6.910
    345    O    -0.940    1.656    8.810
    346    H    -0.092    1.723    9.286
    347    C    -0.316    3.676    7.581
    348    H    0.030    4.014    6.581
    349    O    0.678    3.933    8.588
    350    H    1.506    3.468    8.367
 $END
