!*** FMO 5.3 (Gamess) INPUT generated by Facio 22.1.1.32 ***
 $CONTRL RUNTYP=ENERGY NPRINT=-5 ISPHER=1 MAXIT=200 $END
 $SYSTEM MWORDS=63 MEMDDI=63 $END
 $GDDI NGROUP=1 $END
 $SCF DIRSCF=.TRUE. NPUNCH=0 $END
!*** NumCPU : 2  MemPerNode : 512MB
 $PCM SOLVNT=WATER IEF=-10 ICOMP=2 ICAV=1 IDISP=1 IFMO=-1 $END
 $PCMCAV RADII=SUAHF $END
 $TESCAV NTSALL=60 $END
 $FMOPRP
    NAODIR=200
    NGRFMO(1)=1, 1, 0, 0, 0,   0, 0, 0, 0, 0
    IPIEDA=1
    NPRINT=9
 $END
 $FMO
      SCFTYP(1)=RHF
      MODGRD=10
      MODMUL=0
      MAXCAO=5
      MAXBND=18
      NLAYER=1
      MPLEVL(1)=2
      NFRAG=16
      ICHARG(1)=-1, -1, -1, -1, -1, -1, -1, 0, -1, -1, -1, -1, -1, -1,
-1, 0
      FRGNAM(1)=F1, F2, F3, F4, F5, F6, F7, F8, F9, F10, F11, F12, F13,
F14, F15, F16
      indat(1)=0
               1   -36   0
               37   -66   0
               67   -97   0
               98   -130   0
               131   -164   0
               165   -198   0
               199   -228   0
               229   -258   0
               259   -292   0
               293   -325   0
               326   -358   0
               359   -392   0
               393   -423   0
               424   -456   0
               457   -490   0
               491   -518   0
 $END

 $FMOBND
   -37   36       6-31G*    MINI
   -67   66       6-31G*    MINI
   -98   97       6-31G*    MINI
   -131   130       6-31G*    MINI
   -165   164       6-31G*    MINI
   -199   198       6-31G*    MINI
   -229   228       6-31G*    MINI
   -259   258       6-31G*    MINI
   -293   292       6-31G*    MINI
   -326   325       6-31G*    MINI
   -359   358       6-31G*    MINI
   -393   392       6-31G*    MINI
   -424   423       6-31G*    MINI
   -457   456       6-31G*    MINI
   -491   490       6-31G*    MINI
 $END
 $FMOHYB
 6-31G*      15   5
   1 0  -0.065034   0.288264   0.000000   0.000000   0.604412
         0.290129   0.000000   0.000000   0.319045  -0.017106
        -0.017106   0.057934   0.000000   0.000000   0.000000
   0 1  -0.065040   0.288293   0.569832   0.000000  -0.201456
         0.290147   0.300783   0.000000  -0.106342   0.049598
        -0.017106  -0.008771   0.000000  -0.027223   0.000000
   0 1  -0.065039   0.288293  -0.284916  -0.493490  -0.201455
         0.290145  -0.150392  -0.260486  -0.106340  -0.000427
         0.032923  -0.008771   0.033353   0.013612   0.023576
   0 1  -0.065039   0.288293  -0.284916   0.493490  -0.201455
         0.290145  -0.150392   0.260486  -0.106340  -0.000427
         0.032923  -0.008771  -0.033353   0.013612  -0.023576
   0 1   1.010938  -0.011975   0.000000   0.000000   0.000000
        -0.054085   0.000000   0.000000  -0.000000  -0.003174
        -0.003174  -0.003174   0.000000   0.000000   0.000000
 MINI         5   5
   1 0  -0.104883   0.308874   0.000000   0.000000   0.521806
   0 1  -0.104883   0.308874   0.491961   0.000000  -0.173934
   0 1  -0.104883   0.308876  -0.245980  -0.426050  -0.173933
   0 1  -0.104883   0.308876  -0.245980   0.426050  -0.173933
   0 1   0.988209   0.063992   0.000000   0.000000   0.000000
 $END
 
 $DATA
 FMO calculation
 C1 
 H.1-1    1
      N31 6
   
 O.1-1    8
      N31 6
      d 1
      1 0.800 1.0
   
 C.1-1    6
      N31 6
      d 1
      1 0.800 1.0
   
 N.1-1    7
      N31 6
      d 1
      1 0.800 1.0
   
 P.1-1   15
      N31 6
      d 1
      1 0.550 1.0
   
 $END
 $FMOXYZ
    1    H    3.482    -54.598    39.463
    2    O    4.200    -54.757    38.818
    3    C    5.225    -55.476    39.520
    4    H    4.782    -56.385    39.989
    5    H    5.633    -54.833    40.332
    6    C    6.378    -55.906    38.610
    7    H    7.168    -56.425    39.196
    8    O    5.887    -56.852    37.616
    9    C    6.551    -56.621    36.386
    10    H    7.018    -57.586    36.083
    11    N    5.613    -56.198    35.337
    12    C    5.847    -56.213    33.987
    13    N    7.941    -56.864    31.310
    14    H    8.787    -57.151    31.754
    15    H    7.910    -56.823    30.308
    16    N    6.985    -56.603    33.386
    17    C    6.909    -56.534    32.062
    18    N    5.780    -56.131    31.395
    19    H    5.799    -56.123    30.388
    20    C    4.589    -55.730    31.987
    21    O    3.622    -55.378    31.306
    22    C    4.673    -55.777    33.404
    23    N    3.722    -55.473    34.371
    24    C    4.325    -55.737    35.507
    25    H    3.884    -55.627    36.503
    26    C    7.632    -55.597    36.642
    27    H    7.835    -54.964    35.755
    28    O    8.818    -56.254    37.043
    29    H    9.432    -55.568    37.329
    30    C    7.039    -54.788    37.787
    31    H    6.221    -54.123    37.421
    32    O    8.013    -54.091    38.594
    33    P    8.424    -52.611    38.242
    34    O    7.203    -51.791    38.104
    35    O    9.425    -52.150    39.226
    36    O    9.101    -52.697    36.831
    37    C    10.400    -53.275    36.598
    38    H    10.462    -54.313    36.990
    39    H    11.192    -52.681    37.115
    40    C    10.725    -53.319    35.094
    41    H    11.729    -53.771    34.929
    42    O    9.757    -54.147    34.369
    43    C    9.455    -53.536    33.117
    44    H    9.680    -54.310    32.346
    45    N    8.022    -53.125    33.000
    46    C    7.267    -52.907    34.127
    47    H    7.784    -53.067    35.069
    48    C    7.473    -52.950    31.745
    49    O    8.112    -53.107    30.709
    50    N    6.146    -52.592    31.739
    51    H    5.702    -52.476    30.836
    52    C    5.324    -52.401    32.829
    53    O    4.139    -52.130    32.669
    54    C    5.973    -52.563    34.092
    55    H    5.386    -52.442    34.999
    56    C    10.416    -52.376    32.946
    57    H    9.946    -51.544    32.398
    58    O    11.588    -52.803    32.277
    59    H    12.205    -52.054    32.292
    60    C    10.701    -51.963    34.387
    61    H    9.835    -51.402    34.804
    62    O    11.960    -51.283    34.598
    63    P    12.068    -49.733    34.329
    64    O    10.848    -49.076    34.840
    65    O    13.364    -49.269    34.872
    66    O    12.110    -49.602    32.762
    67    C    11.666    -48.386    32.107
    68    H    12.544    -47.731    31.906
    69    H    10.951    -47.798    32.733
    70    C    10.948    -48.695    30.781
    71    H    11.659    -49.084    30.024
    72    O    9.953    -49.728    31.012
    73    C    8.744    -49.413    30.369
    74    H    8.488    -50.322    29.778
    75    N    7.623    -49.153    31.326
    76    C    7.863    -48.971    32.675
    77    H    8.910    -48.996    32.993
    78    C    6.855    -48.775    33.540
    79    H    7.025    -48.624    34.606
    80    C    6.310    -49.161    30.859
    81    O    6.106    -49.344    29.651
    82    N    5.295    -48.960    31.717
    83    C    5.526    -48.772    33.020
    84    N    4.480    -48.593    33.822
    85    H    3.568    -48.585    33.386
    86    H    4.570    -48.407    34.797
    87    C    9.037    -48.262    29.424
    88    H    8.168    -47.589    29.274
    89    O    9.486    -48.760    28.170
    90    H    8.965    -49.531    27.916
    91    C    10.151    -47.531    30.172
    92    H    9.718    -46.973    31.039
    93    O    11.005    -46.727    29.314
    94    P    10.801    -45.171    29.345
    95    O    9.397    -44.876    29.687
    96    O    11.836    -44.609    30.241
    97    O    11.054    -44.646    27.881
    98    C    12.274    -44.898    27.157
    99    H    12.707    -45.894    27.408
    100    H    13.032    -44.124    27.418
    101    C    12.032    -44.857    25.640
    102    H    12.957    -45.112    25.077
    103    O    11.026    -45.852    25.280
    104    C    10.187    -45.325    24.272
    105    H    10.241    -46.040    23.419
    106    N    8.797    -45.229    24.730
    107    C    6.600    -45.213    24.757
    108    N    7.004    -45.071    26.080
    109    C    8.315    -45.091    26.013
    110    H    8.984    -45.006    26.870
    111    N    5.283    -45.399    22.791
    112    C    6.431    -45.465    22.114
    113    H    6.337    -45.562    21.025
    114    N    7.683    -45.443    22.583
    115    C    7.695    -45.300    23.920
    116    C    5.331    -45.289    24.143
    117    N    4.165    -45.277    24.800
    118    H    4.112    -45.145    25.799
    119    H    3.325    -45.130    24.281
    120    C    10.754    -43.989    23.838
    121    H    9.962    -43.264    23.550
    122    O    11.655    -44.169    22.759
    123    H    12.053    -43.304    22.575
    124    C    11.483    -43.526    25.100
    125    H    10.751    -43.158    25.852
    126    O    12.567    -42.588    24.890
    127    P    12.223    -41.069    24.629
    128    O    11.407    -40.587    25.769
    129    O    13.487    -40.357    24.332
    130    O    11.361    -41.062    23.310
    131    C    10.309    -40.073    23.177
    132    H    10.752    -39.053    23.104
    133    H    9.633    -40.082    24.062
    134    C    9.431    -40.327    21.937
    135    H    10.059    -40.325    21.026
    136    O    8.796    -41.639    21.996
    137    C    7.437    -41.532    21.588
    138    H    7.295    -42.332    20.831
    139    N    6.473    -41.753    22.686
    140    C    6.670    -41.799    24.053
    141    N    8.813    -41.575    26.749
    142    H    8.791    -41.581    27.745
    143    H    9.665    -41.305    26.286
    144    N    7.836    -41.653    24.703
    145    C    7.735    -41.754    26.007
    146    N    6.540    -41.961    26.648
    147    H    6.542    -42.118    27.643
    148    C    5.316    -42.144    25.997
    149    O    4.272    -42.334    26.615
    150    C    5.429    -42.025    24.594
    151    N    4.461    -42.129    23.604
    152    C    5.126    -41.963    22.490
    153    H    4.688    -41.995    21.489
    154    C    7.258    -40.171    20.947
    155    H    6.233    -39.756    21.078
    156    O    7.573    -40.259    19.567
    157    H    7.641    -39.357    19.215
    158    C    8.273    -39.337    21.727
    159    H    7.863    -39.116    22.739
    160    O    8.750    -38.162    21.037
    161    P    8.085    -36.757    21.285
    162    O    8.365    -36.335    22.676
    163    O    8.535    -35.846    20.208
    164    O    6.538    -36.996    21.101
    165    C    5.591    -36.265    21.921
    166    H    5.605    -35.177    21.676
    167    H    5.843    -36.352    23.000
    168    C    4.154    -36.792    21.721
    169    H    3.847    -36.671    20.662
    170    O    4.057    -38.222    22.028
    171    C    2.885    -38.467    22.804
    172    H    2.367    -39.321    22.315
    173    N    3.168    -38.820    24.215
    174    C    4.343    -38.713    24.927
    175    N    7.702    -37.855    25.060
    176    H    8.447    -37.821    25.726
    177    H    7.824    -37.418    24.163
    178    N    5.527    -38.266    24.472
    179    C    6.493    -38.288    25.362
    180    N    6.296    -38.705    26.644
    181    H    7.076    -38.684    27.288
    182    C    5.081    -39.144    27.145
    183    O    4.988    -39.507    28.304
    184    C    4.045    -39.144    26.192
    185    N    2.713    -39.531    26.302
    186    C    2.232    -39.321    25.098
    187    H    1.204    -39.532    24.786
    188    C    2.029    -37.227    22.720
    189    H    1.408    -37.073    23.629
    190    O    1.197    -37.278    21.576
    191    H    0.887    -36.374    21.403
    192    C    3.086    -36.138    22.605
    193    H    3.571    -35.984    23.596
    194    O    2.594    -34.926    22.000
    195    P    2.567    -33.571    22.790
    196    O    3.957    -33.113    22.993
    197    O    1.645    -32.643    22.091
    198    O    1.971    -33.946    24.191
    199    C    0.595    -34.341    24.372
    200    H    0.300    -35.147    23.661
    201    H    -0.078    -33.471    24.198
    202    C    0.362    -34.872    25.798
    203    H    -0.684    -35.228    25.918
    204    O    1.235    -36.013    26.062
    205    C    1.702    -35.962    27.406
    206    H    1.412    -36.936    27.865
    207    N    3.188    -35.801    27.483
    208    C    3.908    -35.411    26.377
    209    H    3.326    -35.246    25.474
    210    C    3.823    -36.057    28.680
    211    O    3.216    -36.379    29.694
    212    N    5.192    -35.927    28.653
    213    H    5.661    -36.080    29.540
    214    C    5.974    -35.577    27.568
    215    O    7.198    -35.548    27.665
    216    C    5.241    -35.295    26.375
    217    H    5.788    -35.034    25.472
    218    C    0.946    -34.836    28.095
    219    H    1.554    -34.344    28.879
    220    O    -0.251    -35.328    28.662
    221    H    -0.772    -34.557    28.921
    222    C    0.659    -33.888    26.934
    223    H    1.605    -33.374    26.635
    224    O    -0.474    -32.987    27.136
    225    P    -0.121    -31.498    27.528
    226    O    0.989    -31.001    26.686
    227    O    -1.353    -30.681    27.515
    228    O    0.374    -31.637    29.013
    229    C    -0.566    -32.014    30.049
    230    H    -1.059    -32.988    29.822
    231    H    -1.369    -31.246    30.153
    232    C    0.137    -32.151    31.404
    233    H    -0.590    -32.407    32.205
    234    O    1.112    -33.231    31.345
    235    C    2.269    -32.855    32.083
    236    H    2.417    -33.660    32.839
    237    N    3.491    -32.765    31.232
    238    C    3.380    -32.630    29.866
    239    H    2.367    -32.602    29.471
    240    C    4.459    -32.579    29.076
    241    H    4.383    -32.515    27.993
    242    C    4.752    -32.793    31.818
    243    O    4.842    -32.884    33.052
    244    N    5.856    -32.723    31.039
    245    C    5.736    -32.636    29.703
    246    N    6.840    -32.614    28.958
    247    H    7.735    -32.656    29.409
    248    H    6.809    -32.553    27.963
    249    C    1.952    -31.552    32.805
    250    H    2.849    -30.908    32.916
    251    O    1.389    -31.829    34.079
    252    H    1.027    -31.005    34.445
    253    C    0.941    -30.922    31.851
    254    H    1.458    -30.499    30.964
    255    O    0.073    -29.947    32.458
    256    H    0.582    -29.162    32.723
    257    H    16.803    -33.807    33.645
    258    O    15.888    -33.822    33.979
    259    C    15.959    -33.622    35.398
    260    H    16.415    -32.627    35.603
    261    H    16.622    -34.395    35.848
    262    C    14.591    -33.684    36.084
    263    H    14.699    -33.616    37.188
    264    O    13.772    -32.557    35.658
    265    C    12.430    -32.995    35.503
    266    H    11.796    -32.319    36.118
    267    N    11.992    -32.914    34.101
    268    C    10.692    -32.897    33.675
    269    N    7.302    -33.045    34.355
    270    H    7.277    -33.078    35.350
    271    H    6.437    -32.982    33.848
    272    N    9.601    -32.970    34.463
    273    C    8.472    -32.949    33.757
    274    N    8.437    -32.822    32.394
    275    H    7.537    -32.794    31.940
    276    C    9.544    -32.717    31.561
    277    O    9.424    -32.593    30.338
    278    C    10.756    -32.773    32.299
    279    N    12.077    -32.733    31.864
    280    C    12.780    -32.838    32.969
    281    H    13.872    -32.842    33.029
    282    C    12.346    -34.402    36.044
    283    H    11.569    -35.007    35.535
    284    O    12.088    -34.373    37.434
    285    H    12.067    -35.294    37.723
    286    C    13.749    -34.922    35.747
    287    H    13.866    -35.111    34.656
    288    O    14.188    -36.034    36.552
    289    P    13.890    -37.509    36.092
    290    O    14.297    -37.659    34.677
    291    O    14.527    -38.442    37.048
    292    O    12.333    -37.629    36.231
    293    C    11.742    -37.747    37.550
    294    H    11.963    -36.854    38.178
    295    H    12.141    -38.640    38.087
    296    C    10.222    -37.894    37.443
    297    H    9.756    -37.992    38.450
    298    O    9.661    -36.708    36.804
    299    C    8.595    -37.100    35.951
    300    H    7.697    -36.527    36.275
    301    N    8.872    -36.781    34.548
    302    C    8.696    -36.295    32.413
    303    N    10.052    -36.272    32.704
    304    C    10.103    -36.574    33.976
    305    H    11.018    -36.658    34.562
    306    N    6.637    -36.180    31.251
    307    C    6.060    -36.522    32.408
    308    H    4.970    -36.626    32.369
    309    N    6.615    -36.756    33.607
    310    C    7.953    -36.617    33.538
    311    C    7.987    -36.050    31.221
    312    N    8.601    -35.693    30.080
    313    H    9.599    -35.594    30.025
    314    H    8.073    -35.555    29.238
    315    C    8.360    -38.576    36.169
    316    H    8.001    -39.093    35.255
    317    O    7.437    -38.736    37.231
    318    H    7.236    -39.685    37.337
    319    C    9.753    -39.050    36.553
    320    H    10.424    -39.032    35.662
    321    O    9.793    -40.310    37.269
    322    P    9.872    -41.619    36.387
    323    O    9.917    -41.244    34.957
    324    O    10.967    -42.488    36.871
    325    O    8.522    -42.396    36.607
    326    C    7.924    -42.627    37.898
    327    H    8.336    -41.951    38.684
    328    H    8.132    -43.674    38.207
    329    C    6.401    -42.423    37.851
    330    H    5.964    -42.464    38.872
    331    O    6.120    -41.105    37.310
    332    C    4.972    -41.162    36.488
    333    H    4.258    -40.410    36.898
    334    N    5.279    -40.815    35.103
    335    C    5.094    -40.061    33.061
    336    N    6.412    -40.476    33.190
    337    C    6.470    -40.925    34.418
    338    H    7.365    -41.318    34.895
    339    N    3.073    -39.226    32.151
    340    C    2.516    -39.525    33.326
    341    H    1.446    -39.305    33.400
    342    N    3.079    -40.031    34.431
    343    C    4.383    -40.284    34.219
    344    C    4.397    -39.465    32.000
    345    N    5.022    -39.092    30.889
    346    H    5.985    -39.327    30.739
    347    H    4.482    -38.903    30.065
    348    C    4.380    -42.537    36.612
    349    H    3.910    -42.884    35.670
    350    O    3.434    -42.542    37.665
    351    H    3.217    -43.465    37.853
    352    C    5.605    -43.380    36.944
    353    H    6.234    -43.542    36.033
    354    O    5.291    -44.605    37.649
    355    P    5.133    -45.936    36.809
    356    O    6.350    -46.138    35.996
    357    O    4.767    -47.041    37.723
    358    O    3.919    -45.664    35.851
    359    C    2.561    -45.606    36.338
    360    H    2.467    -44.887    37.180
    361    H    2.237    -46.604    36.711
    362    C    1.584    -45.169    35.229
    363    H    0.561    -45.041    35.634
    364    O    1.982    -43.886    34.676
    365    C    1.821    -43.903    33.271
    366    H    1.172    -43.031    33.038
    367    N    3.094    -43.727    32.576
    368    C    3.260    -43.057    31.401
    369    N    1.987    -41.128    28.816
    370    H    1.007    -41.086    29.001
    371    H    2.342    -40.706    27.978
    372    N    2.283    -42.456    30.692
    373    C    2.762    -41.847    29.611
    374    N    4.083    -41.862    29.275
    375    H    4.338    -41.389    28.426
    376    C    5.115    -42.464    29.970
    377    O    6.283    -42.384    29.571
    378    C    4.620    -43.115    31.132
    379    N    5.289    -43.823    32.126
    380    C    4.337    -44.174    32.954
    381    H    4.486    -44.753    33.862
    382    C    1.117    -45.183    32.882
    383    H    1.463    -45.583    31.903
    384    O    -0.280    -44.971    32.838
    385    H    -0.690    -45.824    32.618
    386    C    1.510    -46.120    34.023
    387    H    2.549    -46.492    33.867
    388    O    0.578    -47.198    34.298
    389    P    0.534    -48.418    33.303
    390    O    1.870    -48.549    32.683
    391    O    -0.015    -49.594    34.014
    392    O    -0.542    -47.960    32.227
    393    C    -0.634    -48.710    30.973
    394    H    -1.366    -49.542    31.069
    395    H    0.337    -49.183    30.702
    396    C    -1.058    -47.847    29.757
    397    H    -2.152    -47.661    29.762
    398    O    -0.419    -46.538    29.849
    399    C    0.112    -46.164    28.589
    400    H    -0.268    -45.133    28.399
    401    N    1.597    -46.149    28.578
    402    C    2.308    -46.896    29.491
    403    H    1.721    -47.465    30.218
    404    C    3.645    -46.896    29.493
    405    H    4.229    -47.466    30.205
    406    C    2.279    -45.394    27.628
    407    O    1.629    -44.732    26.808
    408    N    3.627    -45.394    27.612
    409    C    4.310    -46.121    28.507
    410    N    5.637    -46.095    28.478
    411    H    6.063    -45.547    27.748
    412    H    6.200    -46.616    29.106
    413    C    -0.470    -47.103    27.553
    414    H    0.204    -47.264    26.685
    415    O    -1.714    -46.603    27.100
    416    H    -2.188    -47.334    26.675
    417    C    -0.637    -48.382    28.362
    418    H    0.366    -48.859    28.499
    419    O    -1.638    -49.286    27.823
    420    P    -1.174    -50.638    27.154
    421    O    -0.263    -51.344    28.078
    422    O    -2.394    -51.364    26.737
    423    O    -0.363    -50.176    25.882
    424    C    -1.063    -49.753    24.684
    425    H    -1.617    -48.803    24.871
    426    H    -1.809    -50.514    24.357
    427    C    -0.097    -49.529    23.508
    428    H    -0.656    -49.268    22.579
    429    O    0.760    -48.395    23.823
    430    C    2.082    -48.657    23.386
    431    H    2.380    -47.809    22.730
    432    N    3.008    -48.724    24.518
    433    C    4.824    -48.744    25.739
    434    N    3.759    -48.765    26.637
    435    C    2.708    -48.761    25.857
    436    H    1.670    -48.786    26.193
    437    N    7.013    -48.676    24.805
    438    C    6.421    -48.685    23.609
    439    H    7.097    -48.667    22.742
    440    N    5.115    -48.711    23.316
    441    C    4.372    -48.724    24.437
    442    C    6.222    -48.715    25.909
    443    N    6.819    -48.710    27.100
    444    H    6.292    -48.854    27.949
    445    H    7.752    -48.356    27.159
    446    C    2.062    -49.937    22.582
    447    H    2.993    -50.523    22.702
    448    O    1.851    -49.649    21.211
    449    H    1.628    -50.482    20.769
    450    C    0.883    -50.679    23.202
    451    H    1.177    -51.110    24.188
    452    O    0.275    -51.652    22.323
    453    P    0.626    -53.183    22.476
    454    O    0.168    -53.658    23.804
    455    O    0.037    -53.875    21.307
    456    O    2.194    -53.263    22.398
    457    C    2.894    -53.131    21.136
    458    H    2.606    -52.193    20.607
    459    H    2.666    -53.987    20.457
    460    C    4.417    -53.105    21.353
    461    H    4.958    -52.949    20.395
    462    O    4.773    -52.003    22.239
    463    C    5.757    -52.421    23.171
    464    H    6.599    -51.695    23.096
    465    N    5.246    -52.406    24.559
    466    C    6.006    -52.483    25.696
    467    N    9.081    -52.883    27.236
    468    H    9.459    -52.998    28.156
    469    H    9.705    -52.907    26.455
    470    N    7.343    -52.615    25.744
    471    C    7.800    -52.718    26.989
    472    N    6.999    -52.654    28.091
    473    H    7.418    -52.763    28.999
    474    C    5.626    -52.505    28.076
    475    O    5.024    -52.476    29.153
    476    C    5.111    -52.414    26.750
    477    N    3.799    -52.300    26.285
    478    C    3.933    -52.304    24.977
    479    H    3.116    -52.229    24.260
    480    C    6.233    -53.790    22.729
    481    H    6.551    -54.428    23.579
    482    O    7.307    -53.653    21.818
    483    H    7.414    -54.503    21.367
    484    C    4.992    -54.352    22.042
    485    H    4.240    -54.665    22.804
    486    O    5.263    -55.374    21.057
    487    P    5.072    -56.889    21.427
    488    O    3.718    -57.080    21.988
    489    O    5.415    -57.725    20.253
    490    O    6.132    -57.108    22.578
    491    C    7.552    -57.128    22.300
    492    H    7.907    -56.143    21.923
    493    H    7.790    -57.888    21.519
    494    C    8.368    -57.472    23.554
    495    H    9.430    -57.662    23.287
    496    O    8.366    -56.331    24.459
    497    C    8.287    -56.799    25.801
    498    H    9.163    -56.356    26.331
    499    N    7.032    -56.370    26.483
    500    C    5.926    -56.018    25.746
    501    H    6.053    -56.040    24.663
    502    C    4.783    -55.639    26.334
    503    H    3.910    -55.323    25.763
    504    C    6.948    -56.399    27.871
    505    O    7.921    -56.794    28.528
    506    N    5.811    -56.007    28.485
    507    C    4.741    -55.643    27.758
    508    N    3.634    -55.275    28.393
    509    H    3.635    -55.211    29.394
    510    H    2.848    -54.898    27.901
    511    C    8.441    -58.315    25.772
    512    H    7.854    -58.808    26.577
    513    O    9.812    -58.673    25.881
    514    H    9.903    -59.625    25.692
    515    C    7.857    -58.646    24.403
    516    H    6.748    -58.596    24.438
    517    O    8.300    -59.903    23.860
    518    H    7.917    -60.638    24.369
 $END
