!*** FMO 5.3 (Gamess) INPUT generated by Facio 22.1.1.32 ***
 $CONTRL RUNTYP=ENERGY NPRINT=-5 ISPHER=1 MAXIT=200 $END
 $SYSTEM MWORDS=63 MEMDDI=63 $END
 $GDDI NGROUP=1 $END
 $SCF DIRSCF=.TRUE. NPUNCH=0 $END
!*** NumCPU : 2  MemPerNode : 512MB
 $PCM SOLVNT=WATER IEF=-10 ICOMP=2 ICAV=1 IDISP=1 IFMO=-1 $END
 $PCMCAV RADII=SUAHF $END
 $TESCAV NTSALL=60 $END
 $FMOPRP
    NAODIR=200
    NGRFMO(1)=1, 1, 0, 0, 0,   0, 0, 0, 0, 0
    IPIEDA=1
    NPRINT=9
 $END
 $FMO
      SCFTYP(1)=RHF
      MODGRD=10
      MODMUL=0
      MAXCAO=5
      MAXBND=18
      NLAYER=1
      MPLEVL(1)=2
      NFRAG=16
      ICHARG(1)=-1, -1, -1, -1, -1, -1, -1, 0, -1, -1, -1, -1, -1, -1,
-1, 0
      FRGNAM(1)=F1, F2, F3, F4, F5, F6, F7, F8, F9, F10, F11, F12, F13,
F14, F15, F16
      indat(1)=0
               1   -36   0
               37   -66   0
               67   -97   0
               98   -130   0
               131   -164   0
               165   -198   0
               199   -228   0
               229   -258   0
               259   -292   0
               293   -325   0
               326   -358   0
               359   -392   0
               393   -423   0
               424   -456   0
               457   -490   0
               491   -518   0
 $END

 $FMOBND
   -37   36       6-31G*    MINI
   -67   66       6-31G*    MINI
   -98   97       6-31G*    MINI
   -131   130       6-31G*    MINI
   -165   164       6-31G*    MINI
   -199   198       6-31G*    MINI
   -229   228       6-31G*    MINI
   -259   258       6-31G*    MINI
   -293   292       6-31G*    MINI
   -326   325       6-31G*    MINI
   -359   358       6-31G*    MINI
   -393   392       6-31G*    MINI
   -424   423       6-31G*    MINI
   -457   456       6-31G*    MINI
   -491   490       6-31G*    MINI
 $END
 $FMOHYB
 6-31G*      15   5
   1 0  -0.065034   0.288264   0.000000   0.000000   0.604412
         0.290129   0.000000   0.000000   0.319045  -0.017106
        -0.017106   0.057934   0.000000   0.000000   0.000000
   0 1  -0.065040   0.288293   0.569832   0.000000  -0.201456
         0.290147   0.300783   0.000000  -0.106342   0.049598
        -0.017106  -0.008771   0.000000  -0.027223   0.000000
   0 1  -0.065039   0.288293  -0.284916  -0.493490  -0.201455
         0.290145  -0.150392  -0.260486  -0.106340  -0.000427
         0.032923  -0.008771   0.033353   0.013612   0.023576
   0 1  -0.065039   0.288293  -0.284916   0.493490  -0.201455
         0.290145  -0.150392   0.260486  -0.106340  -0.000427
         0.032923  -0.008771  -0.033353   0.013612  -0.023576
   0 1   1.010938  -0.011975   0.000000   0.000000   0.000000
        -0.054085   0.000000   0.000000  -0.000000  -0.003174
        -0.003174  -0.003174   0.000000   0.000000   0.000000
 MINI         5   5
   1 0  -0.104883   0.308874   0.000000   0.000000   0.521806
   0 1  -0.104883   0.308874   0.491961   0.000000  -0.173934
   0 1  -0.104883   0.308876  -0.245980  -0.426050  -0.173933
   0 1  -0.104883   0.308876  -0.245980   0.426050  -0.173933
   0 1   0.988209   0.063992   0.000000   0.000000   0.000000
 $END
 
 $DATA
 FMO calculation
 C1 
 H.1-1    1
      N31 6
   
 O.1-1    8
      N31 6
      d 1
      1 0.800 1.0
   
 C.1-1    6
      N31 6
      d 1
      1 0.800 1.0
   
 N.1-1    7
      N31 6
      d 1
      1 0.800 1.0
   
 P.1-1   15
      N31 6
      d 1
      1 0.550 1.0
   
 $END
 $FMOXYZ
    1    H    5.075    -53.864    39.650
    2    O    5.712    -54.096    38.943
    3    C    6.771    -54.841    39.559
    4    H    6.328    -55.693    40.121
    5    H    7.305    -54.193    40.290
    6    C    7.776    -55.398    38.546
    7    H    8.611    -55.917    39.064
    8    O    7.112    -56.383    37.695
    9    C    7.610    -56.265    36.373
    10    H    7.985    -57.271    36.078
    11    N    6.557    -55.865    35.430
    12    C    6.603    -55.989    34.068
    13    N    8.307    -56.889    31.193
    14    H    9.180    -57.209    31.551
    15    H    8.150    -56.910    30.202
    16    N    7.630    -56.483    33.356
    17    C    7.393    -56.472    32.048
    18    N    6.211    -56.043    31.504
    19    H    6.094    -56.111    30.505
    20    C    5.118    -55.567    32.216
    21    O    4.083    -55.218    31.640
    22    C    5.383    -55.529    33.611
    23    N    4.587    -55.104    34.667
    24    C    5.325    -55.326    35.732
    25    H    5.036    -55.126    36.766
    26    C    8.765    -55.291    36.406
    27    H    8.868    -54.725    35.459
    28    O    9.963    -55.992    36.685
    29    H    10.652    -55.328    36.802
    30    C    8.374    -54.378    37.560
    31    H    7.549    -53.692    37.259
    32    O    9.482    -53.686    38.173
    33    P    9.874    -52.234    37.704
    34    O    8.650    -51.406    37.706
    35    O    10.985    -51.766    38.562
    36    O    10.372    -52.411    36.226
    37    C    11.591    -53.092    35.862
    38    H    11.641    -54.104    36.319
    39    H    12.473    -52.519    36.230
    40    C    11.707    -53.265    34.336
    41    H    12.636    -53.811    34.065
    42    O    10.584    -54.054    33.837
    43    C    10.157    -53.553    32.579
    44    H    10.244    -54.407    31.869
    45    N    8.743    -53.065    32.606
    46    C    8.158    -52.717    33.800
    47    H    8.795    -52.817    34.675
    48    C    8.035    -52.967    31.425
    49    O    8.519    -53.243    30.329
    50    N    6.734    -52.544    31.560
    51    H    6.175    -52.489    30.718
    52    C    6.073    -52.242    32.733
    53    O    4.887    -51.938    32.714
    54    C    6.882    -52.335    33.907
    55    H    6.426    -52.131    34.872
    56    C    11.141    -52.473    32.180
    57    H    10.639    -51.662    31.630
    58    O    12.184    -53.024    31.397
    59    H    12.839    -52.320    31.269
    60    C    11.649    -51.967    33.525
    61    H    10.879    -51.325    34.010
    62    O    12.954    -51.344    33.486
    63    P    13.060    -49.805    33.138
    64    O    11.919    -49.099    33.765
    65    O    14.417    -49.347    33.502
    66    O    12.922    -49.741    31.564
    67    C    12.345    -48.572    30.923
    68    H    13.151    -47.898    30.556
    69    H    11.710    -47.972    31.617
    70    C    11.458    -48.954    29.729
    71    H    12.053    -49.395    28.904
    72    O    10.486    -49.947    30.152
    73    C    9.199    -49.617    29.690
    74    H    8.827    -50.546    29.199
    75    N    8.249    -49.261    30.791
    76    C    8.689    -49.131    32.096
    77    H    9.764    -49.254    32.268
    78    C    7.834    -48.837    33.088
    79    H    8.167    -48.706    34.115
    80    C    6.889    -49.118    30.509
    81    O    6.496    -49.267    29.342
    82    N    6.030    -48.814    31.497
    83    C    6.454    -48.686    32.759
    84    N    5.551    -48.422    33.698
    85    H    4.589    -48.472    33.393
    86    H    5.772    -48.385    34.672
    87    C    9.375    -48.523    28.650
    88    H    8.513    -47.824    28.600
    89    O    9.618    -49.109    27.375
    90    H    9.064    -49.888    27.251
    91    C    10.611    -47.800    29.183
    92    H    10.325    -47.194    30.077
    93    O    11.367    -47.051    28.191
    94    P    11.146    -45.493    28.135
    95    O    9.817    -45.199    28.706
    96    O    12.312    -44.838    28.769
    97    O    11.113    -45.123    26.610
    98    C    12.206    -45.416    25.720
    99    H    12.557    -46.465    25.852
    100    H    13.054    -44.727    25.929
    101    C    11.792    -45.248    24.248
    102    H    12.635    -45.500    23.567
    103    O    10.704    -46.166    23.948
    104    C    9.778    -45.539    23.085
    105    H    9.702    -46.193    22.186
    106    N    8.457    -45.436    23.716
    107    C    6.279    -45.443    24.019
    108    N    6.843    -45.256    25.274
    109    C    8.137    -45.265    25.044
    110    H    8.913    -45.140    25.804
    111    N    4.726    -45.732    22.247
    112    C    5.790    -45.823    21.446
    113    H    5.564    -45.984    20.388
    114    N    7.088    -45.751    21.743
    115    C    7.264    -45.547    23.056
    116    C    4.941    -45.556    23.576
    117    N    3.875    -45.523    24.393
    118    H    3.948    -45.392    25.391
    119    H    2.965    -45.420    23.988
    120    C    10.344    -44.195    22.678
    121    H    9.559    -43.418    22.552
    122    O    11.086    -44.325    21.478
    123    H    11.520    -43.472    21.317
    124    C    11.246    -43.863    23.863
    125    H    10.625    -43.514    24.720
    126    O    12.338    -42.960    23.567
    127    P    12.025    -41.413    23.535
    128    O    11.241    -41.077    24.746
    129    O    13.313    -40.715    23.335
    130    O    11.154    -41.207    22.228
    131    C    10.113    -40.193    22.249
    132    H    10.567    -39.175    22.221
    133    H    9.499    -40.256    23.176
    134    C    9.146    -40.316    21.059
    135    H    9.714    -40.260    20.105
    136    O    8.469    -41.608    21.072
    137    C    7.102    -41.440    20.721
    138    H    6.905    -42.163    19.896
    139    N    6.170    -41.725    21.838
    140    C    6.429    -41.861    23.191
    141    N    8.688    -41.849    25.812
    142    H    8.689    -41.876    26.807
    143    H    9.536    -41.605    25.327
    144    N    7.627    -41.771    23.794
    145    C    7.580    -41.917    25.099
    146    N    6.409    -42.121    25.778
    147    H    6.468    -42.332    26.762
    148    C    5.154    -42.235    25.191
    149    O    4.126    -42.416    25.850
    150    C    5.209    -42.088    23.780
    151    N    4.195    -42.119    22.831
    152    C    4.809    -41.901    21.693
    153    H    4.312    -41.840    20.720
    154    C    6.944    -40.025    20.209
    155    H    5.938    -39.605    20.425
    156    O    7.186    -39.984    18.811
    157    H    7.334    -39.057    18.561
    158    C    8.012    -39.285    21.004
    159    H    7.674    -39.152    22.057
    160    O    8.457    -38.064    20.380
    161    P    8.302    -36.656    21.057
    162    O    9.189    -36.595    22.237
    163    O    8.497    -35.620    20.022
    164    O    6.817    -36.602    21.566
    165    C    5.680    -36.630    20.675
    166    H    5.781    -37.434    19.912
    167    H    5.583    -35.664    20.129
    168    C    4.379    -36.880    21.453
    169    H    3.505    -36.903    20.769
    170    O    4.453    -38.191    22.094
    171    C    3.870    -38.111    23.389
    172    H    3.091    -38.905    23.441
    173    N    4.859    -38.356    24.448
    174    C    4.601    -38.689    25.751
    175    N    2.364    -39.242    28.327
    176    H    2.379    -39.540    29.274
    177    H    1.482    -39.108    27.872
    178    N    3.388    -38.839    26.306
    179    C    3.458    -39.120    27.602
    180    N    4.639    -39.334    28.263
    181    H    4.607    -39.518    29.256
    182    C    5.904    -39.227    27.707
    183    O    6.933    -39.435    28.359
    184    C    5.838    -38.845    26.344
    185    N    6.853    -38.588    25.441
    186    C    6.226    -38.302    24.328
    187    H    6.701    -38.040    23.383
    188    C    3.221    -36.751    23.515
    189    H    3.239    -36.365    24.556
    190    O    1.885    -36.824    23.056
    191    H    1.570    -35.916    22.972
    192    C    4.080    -35.893    22.591
    193    H    5.058    -35.665    23.075
    194    O    3.421    -34.709    22.069
    195    P    3.537    -33.367    22.896
    196    O    4.974    -33.067    23.067
    197    O    2.721    -32.335    22.222
    198    O    2.926    -33.689    24.306
    199    C    1.494    -33.787    24.492
    200    H    1.055    -34.587    23.859
    201    H    0.995    -32.824    24.220
    202    C    1.154    -34.107    25.955
    203    H    0.056    -34.222    26.086
    204    O    1.773    -35.352    26.384
    205    C    2.150    -35.249    27.749
    206    H    1.597    -36.060    28.277
    207    N    3.618    -35.436    27.931
    208    C    4.493    -35.226    26.884
    209    H    4.035    -34.908    25.948
    210    C    4.083    -35.832    29.160
    211    O    3.333    -36.010    30.127
    212    N    5.432    -36.035    29.239
    213    H    5.797    -36.270    30.158
    214    C    6.361    -35.877    28.234
    215    O    7.546    -36.110    28.452
    216    C    5.811    -35.443    26.987
    217    H    6.485    -35.314    26.142
    218    C    1.660    -33.896    28.248
    219    H    2.341    -33.461    29.003
    220    O    0.361    -33.995    28.799
    221    H    0.079    -33.086    28.962
    222    C    1.654    -33.079    26.963
    223    H    2.699    -32.836    26.660
    224    O    0.767    -31.939    26.964
    225    P    1.375    -30.503    27.155
    226    O    2.634    -30.398    26.389
    227    O    0.330    -29.496    26.863
    228    O    1.707    -30.466    28.694
    229    C    0.624    -30.410    29.655
    230    H    -0.095    -31.254    29.515
    231    H    0.059    -29.455    29.540
    232    C    1.149    -30.465    31.093
    233    H    0.319    -30.361    31.826
    234    O    1.783    -31.754    31.333
    235    C    2.939    -31.563    32.142
    236    H    2.784    -32.211    33.039
    237    N    4.195    -31.973    31.450
    238    C    4.228    -32.073    30.080
    239    H    3.302    -31.828    29.565
    240    C    5.328    -32.472    29.430
    241    H    5.358    -32.581    28.347
    242    C    5.345    -32.237    32.185
    243    O    5.315    -32.114    33.418
    244    N    6.474    -32.628    31.548
    245    C    6.485    -32.757    30.209
    246    N    7.601    -33.163    29.607
    247    H    8.411    -33.376    30.159
    248    H    7.670    -33.243    28.615
    249    C    2.958    -30.108    32.586
    250    H    3.991    -29.714    32.692
    251    O    2.257    -29.976    33.811
    252    H    2.090    -29.031    33.969
    253    C    2.229    -29.427    31.433
    254    H    2.905    -29.326    30.556
    255    O    1.634    -28.160    31.772
    256    H    2.333    -27.501    31.964
    257    H    16.441    -36.088    35.614
    258    O    15.542    -35.780    35.820
    259    C    15.551    -35.371    37.196
    260    H    16.262    -34.523    37.318
    261    H    15.917    -36.214    37.826
    262    C    14.177    -34.919    37.702
    263    H    14.221    -34.657    38.781
    264    O    13.768    -33.716    36.983
    265    C    12.370    -33.769    36.745
    266    H    11.940    -32.825    37.159
    267    N    12.065    -33.854    35.309
    268    C    10.855    -33.592    34.729
    269    N    7.533    -32.665    35.009
    270    H    7.427    -32.498    35.986
    271    H    6.756    -32.478    34.400
    272    N    9.735    -33.231    35.378
    273    C    8.717    -33.017    34.548
    274    N    8.815    -33.155    33.188
    275    H    8.001    -32.947    32.630
    276    C    9.959    -33.522    32.489
    277    O    9.959    -33.611    31.256
    278    C    11.049    -33.762    33.370
    279    N    12.360    -34.145    33.100
    280    C    12.922    -34.201    34.287
    281    H    13.963    -34.469    34.484
    282    C    11.827    -34.949    37.514
    283    H    10.939    -35.404    37.030
    284    O    11.508    -34.554    38.836
    285    H    11.207    -35.351    39.288
    286    C    13.016    -35.905    37.484
    287    H    13.147    -36.337    36.464
    288    O    13.014    -36.914    38.521
    289    P    12.299    -38.295    38.252
    290    O    12.805    -38.852    36.979
    291    O    12.435    -39.154    39.448
    292    O    10.784    -37.912    38.089
    293    C    9.995    -37.541    39.249
    294    H    10.428    -36.661    39.774
    295    H    9.964    -38.371    39.994
    296    C    8.551    -37.202    38.852
    297    H    7.963    -36.873    39.734
    298    O    8.529    -36.111    37.885
    299    C    7.507    -36.351    36.926
    300    H    6.840    -35.459    36.933
    301    N    8.066    -36.526    35.584
    302    C    8.298    -36.675    33.404
    303    N    9.555    -36.906    33.945
    304    C    9.363    -36.815    35.236
    305    H    10.138    -36.950    35.992
    306    N    6.510    -36.373    31.883
    307    C    5.736    -36.180    32.954
    308    H    4.680    -35.983    32.738
    309    N    6.062    -36.203    34.251
    310    C    7.371    -36.447    34.405
    311    C    7.831    -36.628    32.073
    312    N    8.632    -36.807    31.006
    313    H    9.621    -36.949    31.104
    314    H    8.277    -36.637    30.082
    315    C    6.734    -37.575    37.369
    316    H    6.380    -38.186    36.514
    317    O    5.641    -37.215    38.190
    318    H    5.309    -38.033    38.587
    319    C    7.797    -38.330    38.147
    320    H    8.535    -38.763    37.433
    321    O    7.277    -39.273    39.112
    322    P    7.445    -40.816    38.851
    323    O    8.400    -41.044    37.747
    324    O    7.725    -41.501    40.127
    325    O    6.020    -41.236    38.356
    326    C    4.842    -41.062    39.172
    327    H    4.882    -40.130    39.785
    328    H    4.749    -41.924    39.867
    329    C    3.585    -41.012    38.299
    330    H    2.666    -40.893    38.913
    331    O    3.675    -39.858    37.406
    332    C    3.185    -40.220    36.123
    333    H    2.403    -39.472    35.858
    334    N    4.259    -40.183    35.107
    335    C    5.374    -40.001    33.214
    336    N    6.327    -40.132    34.210
    337    C    5.619    -40.255    35.304
    338    H    6.040    -40.367    36.299
    339    N    4.326    -39.718    31.110
    340    C    3.170    -39.785    31.779
    341    H    2.268    -39.693    31.167
    342    N    2.939    -39.944    33.084
    343    C    4.096    -40.038    33.753
    344    C    5.483    -39.825    31.817
    345    N    6.671    -39.757    31.180
    346    H    7.540    -39.891    31.667
    347    H    6.732    -39.579    30.194
    348    C    2.543    -41.587    36.255
    349    H    2.594    -42.155    35.312
    350    O    1.185    -41.462    36.634
    351    H    0.840    -42.356    36.796
    352    C    3.394    -42.217    37.356
    353    H    4.388    -42.490    36.939
    354    O    2.753    -43.310    38.038
    355    P    3.465    -44.655    38.450
    356    O    4.139    -44.475    39.754
    357    O    2.440    -45.719    38.415
    358    O    4.549    -44.945    37.346
    359    C    4.246    -45.814    36.230
    360    H    3.893    -46.814    36.573
    361    H    5.188    -45.997    35.660
    362    C    3.216    -45.203    35.272
    363    H    2.297    -44.866    35.812
    364    O    3.813    -44.061    34.613
    365    C    3.233    -43.909    33.330
    366    H    2.665    -42.951    33.348
    367    N    4.262    -43.807    32.302
    368    C    4.077    -43.374    31.022
    369    N    1.995    -42.278    28.492
    370    H    2.057    -42.076    27.516
    371    H    1.101    -42.229    28.940
    372    N    2.907    -42.994    30.479
    373    C    3.038    -42.647    29.206
    374    N    4.248    -42.572    28.571
    375    H    4.239    -42.413    27.576
    376    C    5.471    -42.927    29.115
    377    O    6.507    -42.822    28.455
    378    C    5.331    -43.383    30.448
    379    N    6.280    -43.850    31.340
    380    C    5.603    -44.092    32.430
    381    H    6.034    -44.465    33.364
    382    C    2.267    -45.063    33.110
    383    H    2.294    -45.458    32.072
    384    O    0.952    -44.649    33.427
    385    H    0.383    -45.434    33.398
    386    C    2.783    -46.095    34.111
    387    H    3.722    -46.553    33.728
    388    O    1.809    -47.069    34.565
    389    P    1.576    -48.342    33.655
    390    O    2.832    -48.598    32.901
    391    O    1.043    -49.431    34.486
    392    O    0.422    -47.893    32.669
    393    C    0.140    -48.712    31.496
    394    H    -0.527    -49.560    31.768
    395    H    1.074    -49.161    31.087
    396    C    -0.504    -47.910    30.334
    397    H    -1.584    -47.731    30.528
    398    O    0.125    -46.595    30.234
    399    C    0.431    -46.299    28.880
    400    H    0.014    -45.282    28.700
    401    N    1.892    -46.275    28.619
    402    C    2.756    -46.960    29.449
    403    H    2.314    -47.490    30.297
    404    C    4.074    -46.946    29.237
    405    H    4.775    -47.467    29.881
    406    C    2.389    -45.600    27.504
    407    O    1.596    -45.048    26.725
    408    N    3.723    -45.546    27.302
    409    C    4.555    -46.196    28.133
    410    N    5.854    -46.120    27.913
    411    H    6.166    -45.657    27.075
    412    H    6.503    -46.699    28.394
    413    C    -0.311    -47.293    28.015
    414    H    0.209    -47.509    27.056
    415    O    -1.621    -46.819    27.749
    416    H    -2.150    -47.574    27.449
    417    C    -0.323    -48.518    28.919
    418    H    0.687    -48.994    28.911
    419    O    -1.389    -49.445    28.622
    420    P    -1.086    -50.790    27.869
    421    O    -0.091    -51.537    28.661
    422    O    -2.374    -51.468    27.598
    423    O    -0.425    -50.333    26.510
    424    C    -1.278    -49.944    25.403
    425    H    -1.790    -48.978    25.623
    426    H    -2.075    -50.698    25.213
    427    C    -0.482    -49.789    24.098
    428    H    -1.157    -49.558    23.244
    429    O    0.424    -48.657    24.235
    430    C    1.661    -48.960    23.616
    431    H    1.864    -48.144    22.884
    432    N    2.742    -48.994    24.600
    433    C    4.711    -49.020    25.566
    434    N    3.777    -48.959    26.593
    435    C    2.628    -48.953    25.969
    436    H    1.649    -48.934    26.452
    437    N    6.749    -49.030    24.357
    438    C    6.007    -49.060    23.250
    439    H    6.571    -49.078    22.310
    440    N    4.676    -49.076    23.131
    441    C    4.085    -49.035    24.335
    442    C    6.119    -49.030    25.554
    443    N    6.878    -49.017    26.648
    444    H    6.462    -48.993    27.567
    445    H    7.824    -48.706    26.552
    446    C    1.505    -50.277    22.886
    447    H    2.438    -50.876    22.890
    448    O    1.090    -50.040    21.554
    449    H    0.808    -50.886    21.178
    450    C    0.423    -50.973    23.707
    451    H    0.852    -51.370    24.654
    452    O    -0.325    -51.974    22.979
    453    P    0.024    -53.502    23.157
    454    O    -0.192    -53.909    24.561
    455    O    -0.722    -54.257    22.131
    456    O    1.562    -53.614    22.861
    457    C    2.109    -53.534    21.525
    458    H    1.821    -52.582    21.025
    459    H    1.734    -54.368    20.892
    460    C    3.646    -53.599    21.560
    461    H    4.079    -53.522    20.540
    462    O    4.151    -52.474    22.337
    463    C    5.231    -52.893    23.150
    464    H    6.083    -52.213    22.914
    465    N    4.913    -52.778    24.587
    466    C    5.813    -52.811    25.620
    467    N    9.067    -53.138    26.737
    468    H    9.559    -53.259    27.598
    469    H    9.549    -53.322    25.882
    470    N    7.138    -52.978    25.500
    471    C    7.761    -52.993    26.672
    472    N    7.116    -52.834    27.868
    473    H    7.651    -52.907    28.717
    474    C    5.751    -52.658    28.027
    475    O    5.274    -52.526    29.158
    476    C    5.073    -52.647    26.772
    477    N    3.721    -52.522    26.473
    478    C    3.674    -52.608    25.164
    479    H    2.772    -52.545    24.553
    480    C    5.583    -54.306    22.738
    481    H    5.982    -54.911    23.577
    482    O    6.532    -54.266    21.692
    483    H    6.561    -55.146    21.292
    484    C    4.238    -54.842    22.250
    485    H    3.576    -55.075    23.116
    486    O    4.330    -55.932    21.304
    487    P    4.167    -57.425    21.777
    488    O    2.884    -57.572    22.498
    489    O    4.372    -58.313    20.612
    490    O    5.352    -57.614    22.800
    491    C    6.720    -57.715    22.336
    492    H    7.049    -56.767    21.860
    493    H    6.820    -58.526    21.578
    494    C    7.687    -58.027    23.490
    495    H    8.696    -58.293    23.106
    496    O    7.839    -56.832    24.311
    497    C    7.922    -57.208    25.681
    498    H    8.879    -56.774    26.056
    499    N    6.790    -56.677    26.493
    500    C    5.601    -56.336    25.889
    501    H    5.569    -56.447    24.805
    502    C    4.565    -55.866    26.596
    503    H    3.633    -55.553    26.123
    504    C    6.908    -56.591    27.878
    505    O    7.964    -56.952    28.420
    506    N    5.876    -56.112    28.608
    507    C    4.726    -55.759    28.008
    508    N    3.736    -55.287    28.757
    509    H    3.879    -55.154    29.741
    510    H    2.906    -54.907    28.349
    511    C    8.010    -58.724    25.741
    512    H    7.514    -59.135    26.647
    513    O    9.366    -59.143    25.698
    514    H    9.390    -60.103    25.536
    515    C    7.238    -59.112    24.484
    516    H    6.148    -58.997    24.663
    517    O    7.535    -60.430    23.988
    518    H    7.169    -61.103    24.590
 $END
