!*** FMO 5.3 (Gamess) INPUT generated by Facio 22.1.1.32 ***
 $CONTRL RUNTYP=ENERGY NPRINT=-5 ISPHER=1 MAXIT=200 $END
 $SYSTEM MWORDS=63 MEMDDI=63 $END
 $GDDI NGROUP=1 $END
 $SCF DIRSCF=.TRUE. NPUNCH=0 $END
!*** NumCPU : 2  MemPerNode : 512MB
 $PCM SOLVNT=WATER IEF=-10 ICOMP=2 ICAV=1 IDISP=1 IFMO=-1 $END
 $PCMCAV RADII=SUAHF $END
 $TESCAV NTSALL=60 $END
 $FMOPRP
    NAODIR=200
    NGRFMO(1)=1, 1, 0, 0, 0,   0, 0, 0, 0, 0
    IPIEDA=1
    NPRINT=9
 $END
 $FMO
      SCFTYP(1)=RHF
      MODGRD=10
      MODMUL=0
      MAXCAO=5
      MAXBND=18
      NLAYER=1
      MPLEVL(1)=2
      NFRAG=16
      ICHARG(1)=-1, -1, -1, -1, -1, -1, -1, 0, -1, -1, -1, -1, -1, -1,
-1, 0
      FRGNAM(1)=F1, F2, F3, F4, F5, F6, F7, F8, F9, F10, F11, F12, F13,
F14, F15, F16
      indat(1)=0
               1   -36   0
               37   -66   0
               67   -97   0
               98   -130   0
               131   -164   0
               165   -198   0
               199   -228   0
               229   -258   0
               259   -292   0
               293   -325   0
               326   -358   0
               359   -392   0
               393   -423   0
               424   -456   0
               457   -490   0
               491   -518   0
 $END

 $FMOBND
   -37   36       6-31G*    MINI
   -67   66       6-31G*    MINI
   -98   97       6-31G*    MINI
   -131   130       6-31G*    MINI
   -165   164       6-31G*    MINI
   -199   198       6-31G*    MINI
   -229   228       6-31G*    MINI
   -259   258       6-31G*    MINI
   -293   292       6-31G*    MINI
   -326   325       6-31G*    MINI
   -359   358       6-31G*    MINI
   -393   392       6-31G*    MINI
   -424   423       6-31G*    MINI
   -457   456       6-31G*    MINI
   -491   490       6-31G*    MINI
 $END
 $FMOHYB
 6-31G*      15   5
   1 0  -0.065034   0.288264   0.000000   0.000000   0.604412
         0.290129   0.000000   0.000000   0.319045  -0.017106
        -0.017106   0.057934   0.000000   0.000000   0.000000
   0 1  -0.065040   0.288293   0.569832   0.000000  -0.201456
         0.290147   0.300783   0.000000  -0.106342   0.049598
        -0.017106  -0.008771   0.000000  -0.027223   0.000000
   0 1  -0.065039   0.288293  -0.284916  -0.493490  -0.201455
         0.290145  -0.150392  -0.260486  -0.106340  -0.000427
         0.032923  -0.008771   0.033353   0.013612   0.023576
   0 1  -0.065039   0.288293  -0.284916   0.493490  -0.201455
         0.290145  -0.150392   0.260486  -0.106340  -0.000427
         0.032923  -0.008771  -0.033353   0.013612  -0.023576
   0 1   1.010938  -0.011975   0.000000   0.000000   0.000000
        -0.054085   0.000000   0.000000  -0.000000  -0.003174
        -0.003174  -0.003174   0.000000   0.000000   0.000000
 MINI         5   5
   1 0  -0.104883   0.308874   0.000000   0.000000   0.521806
   0 1  -0.104883   0.308874   0.491961   0.000000  -0.173934
   0 1  -0.104883   0.308876  -0.245980  -0.426050  -0.173933
   0 1  -0.104883   0.308876  -0.245980   0.426050  -0.173933
   0 1   0.988209   0.063992   0.000000   0.000000   0.000000
 $END
 
 $DATA
 FMO calculation
 C1 
 H.1-1    1
      N31 6
   
 O.1-1    8
      N31 6
      d 1
      1 0.800 1.0
   
 C.1-1    6
      N31 6
      d 1
      1 0.800 1.0
   
 N.1-1    7
      N31 6
      d 1
      1 0.800 1.0
   
 P.1-1   15
      N31 6
      d 1
      1 0.550 1.0
   
 $END
 $FMOXYZ
    1    H    7.676    -53.233    40.699
    2    O    8.095    -53.427    39.835
    3    C    9.461    -53.770    40.117
    4    H    9.479    -54.644    40.806
    5    H    9.961    -52.919    40.631
    6    C    10.257    -54.129    38.861
    7    H    11.289    -54.444    39.133
    8    O    9.619    -55.253    38.180
    9    C    9.777    -55.092    36.784
    10    H    10.297    -56.002    36.408
    11    N    8.496    -54.924    36.083
    12    C    8.298    -55.208    34.759
    13    N    9.615    -56.075    31.675
    14    H    10.551    -56.338    31.897
    15    H    9.339    -56.011    30.711
    16    N    9.227    -55.692    33.915
    17    C    8.818    -55.682    32.651
    18    N    7.552    -55.320    32.280
    19    H    7.331    -55.305    31.296
    20    C    6.548    -54.890    33.136
    21    O    5.433    -54.605    32.690
    22    C    6.998    -54.830    34.487
    23    N    6.378    -54.320    35.633
    24    C    7.319    -54.379    36.553
    25    H    7.212    -54.068    37.596
    26    C    10.648    -53.882    36.561
    27    H    10.352    -53.335    35.648
    28    O    12.017    -54.238    36.495
    29    H    12.497    -53.415    36.340
    30    C    10.349    -53.029    37.784
    31    H    9.340    -52.561    37.709
    32    O    11.380    -52.066    38.100
    33    P    11.416    -50.669    37.354
    34    O    12.668    -49.967    37.713
    35    O    10.151    -49.965    37.644
    36    O    11.441    -50.991    35.812
    37    C    12.667    -51.263    35.098
    38    H    13.292    -52.007    35.647
    39    H    13.271    -50.331    35.005
    40    C    12.434    -51.825    33.675
    41    H    13.367    -52.313    33.325
    42    O    11.386    -52.833    33.650
    43    C    10.620    -52.701    32.465
    44    H    10.581    -53.721    32.023
    45    N    9.237    -52.211    32.708
    46    C    8.821    -51.761    33.940
    47    H    9.590    -51.720    34.708
    48    C    8.356    -52.296    31.655
    49    O    8.694    -52.752    30.571
    50    N    7.077    -51.880    31.923
    51    H    6.425    -51.857    31.148
    52    C    6.565    -51.581    33.170
    53    O    5.357    -51.492    33.351
    54    C    7.544    -51.451    34.205
    55    H    7.192    -51.197    35.207
    56    C    11.405    -51.798    31.557
    57    H    10.773    -51.259    30.822
    58    O    12.352    -52.607    30.884
    59    H    12.988    -52.946    31.528
    60    C    12.015    -50.834    32.589
    61    H    11.216    -50.196    33.027
    62    O    13.139    -50.027    32.211
    63    P    13.522    -49.565    30.764
    64    O    14.152    -50.692    30.045
    65    O    14.356    -48.348    30.868
    66    O    12.134    -49.189    30.120
    67    C    11.813    -49.574    28.764
    68    H    11.846    -50.681    28.634
    69    H    12.546    -49.115    28.061
    70    C    10.424    -49.060    28.361
    71    H    10.236    -49.222    27.279
    72    O    9.365    -49.740    29.090
    73    C    8.268    -48.835    29.278
    74    H    7.403    -49.223    28.688
    75    N    7.875    -48.630    30.683
    76    C    8.719    -48.990    31.701
    77    H    9.544    -49.648    31.418
    78    C    8.484    -48.600    32.960
    79    H    9.140    -48.861    33.787
    80    C    6.752    -47.836    30.937
    81    O    6.040    -47.456    29.996
    82    N    6.533    -47.414    32.198
    83    C    7.398    -47.701    33.170
    84    N    7.300    -47.025    34.304
    85    H    6.729    -46.202    34.212
    86    H    8.043    -47.008    34.972
    87    C    8.702    -47.486    28.740
    88    H    8.447    -46.661    29.432
    89    O    8.116    -47.183    27.508
    90    H    8.376    -46.275    27.312
    91    C    10.219    -47.590    28.686
    92    H    10.624    -47.416    29.712
    93    O    10.877    -46.771    27.693
    94    P    10.931    -45.231    28.014
    95    O    11.847    -45.013    29.153
    96    O    9.556    -44.705    28.181
    97    O    11.576    -44.594    26.728
    98    C    10.771    -43.871    25.769
    99    H    11.269    -42.903    25.535
    100    H    9.749    -43.599    26.133
    101    C    10.636    -44.650    24.473
    102    H    11.620    -45.020    24.104
    103    O    9.768    -45.796    24.671
    104    C    8.896    -45.920    23.554
    105    H    9.030    -46.954    23.160
    106    N    7.507    -45.727    23.948
    107    C    5.320    -45.604    23.976
    108    N    5.737    -45.425    25.276
    109    C    7.032    -45.491    25.212
    110    H    7.707    -45.333    26.052
    111    N    3.962    -45.743    22.050
    112    C    5.098    -45.917    21.371
    113    H    4.975    -46.044    20.291
    114    N    6.360    -46.007    21.805
    115    C    6.400    -45.798    23.137
    116    C    4.041    -45.598    23.393
    117    N    2.925    -45.458    24.127
    118    H    2.995    -45.335    25.115
    119    H    2.049    -45.338    23.658
    120    C    9.330    -44.914    22.520
    121    H    8.484    -44.499    21.934
    122    O    10.279    -45.482    21.635
    123    H    10.717    -44.750    21.172
    124    C    9.943    -43.841    23.390
    125    H    9.148    -43.257    23.917
    126    O    10.895    -43.031    22.685
    127    P    10.684    -41.490    22.562
    128    O    11.568    -41.009    21.477
    129    O    10.879    -40.896    23.900
    130    O    9.168    -41.369    22.118
    131    C    8.790    -41.766    20.771
    132    H    9.201    -42.770    20.511
    133    H    9.193    -41.035    20.029
    134    C    7.262    -41.856    20.567
    135    H    7.031    -42.283    19.569
    136    O    6.677    -42.744    21.557
    137    C    5.436    -42.230    22.006
    138    H    4.620    -42.723    21.433
    139    N    5.280    -42.413    23.440
    140    C    4.122    -42.443    24.170
    141    N    0.655    -42.393    24.387
    142    H    0.372    -42.229    23.442
    143    H    -0.038    -42.394    25.107
    144    N    2.862    -42.380    23.685
    145    C    1.949    -42.474    24.656
    146    N    2.274    -42.658    25.974
    147    H    1.544    -42.730    26.669
    148    C    3.562    -42.715    26.484
    149    O    3.769    -42.880    27.682
    150    C    4.537    -42.527    25.480
    151    N    5.924    -42.441    25.577
    152    C    6.319    -42.364    24.335
    153    H    7.352    -42.347    23.972
    154    C    5.455    -40.764    21.780
    155    H    5.816    -40.241    22.698
    156    O    4.174    -40.285    21.424
    157    H    4.270    -39.324    21.345
    158    C    6.512    -40.526    20.706
    159    H    7.246    -39.804    21.142
    160    O    5.986    -40.066    19.445
    161    P    6.599    -38.842    18.688
    162    O    6.181    -38.978    17.273
    163    O    8.049    -38.790    18.953
    164    O    5.899    -37.562    19.295
    165    C    6.414    -36.793    20.408
    166    H    6.623    -35.755    20.070
    167    H    7.376    -37.196    20.807
    168    C    5.375    -36.751    21.538
    169    H    4.351    -36.748    21.105
    170    O    5.524    -37.945    22.303
    171    C    4.963    -37.792    23.585
    172    H    4.052    -38.436    23.609
    173    N    5.882    -38.264    24.635
    174    C    5.537    -38.802    25.852
    175    N    3.133    -39.839    28.134
    176    H    2.280    -39.672    27.644
    177    H    3.133    -40.485    28.900
    178    N    4.285    -38.978    26.316
    179    C    4.271    -39.562    27.516
    180    N    5.407    -39.903    28.197
    181    H    5.310    -40.287    29.125
    182    C    6.708    -39.724    27.755
    183    O    7.677    -40.055    28.448
    184    C    6.735    -39.121    26.467
    185    N    7.811    -38.807    25.648
    186    C    7.256    -38.318    24.566
    187    H    7.797    -37.972    23.681
    188    C    4.565    -36.344    23.715
    189    H    4.799    -35.920    24.713
    190    O    3.179    -36.232    23.450
    191    H    2.947    -35.310    23.666
    192    C    5.396    -35.660    22.612
    193    H    6.454    -35.536    22.930
    194    O    4.850    -34.433    22.087
    195    P    4.677    -33.191    23.036
    196    O    4.509    -31.992    22.185
    197    O    5.777    -33.194    24.023
    198    O    3.305    -33.508    23.763
    199    C    3.012    -32.896    25.040
    200    H    2.455    -31.946    24.879
    201    H    3.936    -32.639    25.610
    202    C    2.160    -33.787    25.962
    203    H    1.136    -33.931    25.559
    204    O    2.744    -35.104    26.139
    205    C    2.715    -35.477    27.516
    206    H    2.192    -36.462    27.548
    207    N    4.092    -35.646    28.077
    208    C    5.187    -35.266    27.332
    209    H    4.978    -34.663    26.444
    210    C    4.256    -36.302    29.287
    211    O    3.316    -36.654    29.986
    212    N    5.564    -36.565    29.628
    213    H    5.727    -37.055    30.499
    214    C    6.673    -36.390    28.826
    215    O    7.760    -36.858    29.146
    216    C    6.435    -35.627    27.643
    217    H    7.274    -35.401    26.989
    218    C    1.864    -34.449    28.234
    219    H    2.187    -34.284    29.281
    220    O    0.503    -34.837    28.215
    221    H    -0.018    -34.045    28.409
    222    C    2.082    -33.214    27.377
    223    H    3.090    -32.785    27.593
    224    O    1.013    -32.245    27.443
    225    P    1.209    -30.964    28.321
    226    O    -0.040    -30.171    28.310
    227    O    2.444    -30.272    27.887
    228    O    1.459    -31.544    29.767
    229    C    0.363    -32.108    30.526
    230    H    -0.085    -32.989    30.011
    231    H    -0.443    -31.349    30.661
    232    C    0.810    -32.541    31.929
    233    H    -0.061    -32.786    32.574
    234    O    1.622    -33.747    31.854
    235    C    2.674    -33.649    32.812
    236    H    2.583    -34.554    33.458
    237    N    4.020    -33.645    32.180
    238    C    4.170    -33.271    30.865
    239    H    3.254    -32.985    30.345
    240    C    5.367    -33.289    30.263
    241    H    5.496    -33.049    29.210
    242    C    5.150    -33.923    32.942
    243    O    5.028    -34.127    34.157
    244    N    6.360    -33.966    32.350
    245    C    6.485    -33.707    31.040
    246    N    7.672    -33.887    30.468
    247    H    8.406    -34.299    31.016
    248    H    7.828    -33.744    29.491
    249    C    2.418    -32.416    33.659
    250    H    3.361    -31.942    34.013
    251    O    1.595    -32.746    34.767
    252    H    1.310    -31.924    35.206
    253    C    1.699    -31.527    32.660
    254    H    2.431    -31.103    31.937
    255    O    0.906    -30.484    33.254
    256    H    1.487    -29.852    33.713
    257    H    15.833    -37.941    36.682
    258    O    14.989    -37.497    36.875
    259    C    14.963    -37.266    38.292
    260    H    15.806    -36.591    38.562
    261    H    15.108    -38.232    38.825
    262    C    13.658    -36.631    38.779
    263    H    13.708    -36.383    39.859
    264    O    13.392    -35.384    38.064
    265    C    12.004    -35.300    37.777
    266    H    11.642    -34.341    38.213
    267    N    11.737    -35.285    36.330
    268    C    10.546    -34.973    35.722
    269    N    7.202    -34.078    35.927
    270    H    7.041    -34.056    36.910
    271    H    6.410    -34.070    35.309
    272    N    9.404    -34.626    36.346
    273    C    8.407    -34.402    35.494
    274    N    8.551    -34.500    34.135
    275    H    7.738    -34.337    33.559
    276    C    9.721    -34.824    33.459
    277    O    9.763    -34.856    32.224
    278    C    10.786    -35.079    34.364
    279    N    12.107    -35.436    34.120
    280    C    12.633    -35.546    35.318
    281    H    13.671    -35.808    35.535
    282    C    11.324    -36.450    38.481
    283    H    10.463    -36.831    37.901
    284    O    10.912    -36.056    39.777
    285    H    10.571    -36.860    40.190
    286    C    12.419    -37.503    38.543
    287    H    12.552    -37.988    37.546
    288    O    12.278    -38.458    39.621
    289    P    11.596    -39.852    39.375
    290    O    11.626    -40.610    40.644
    291    O    12.237    -40.490    38.208
    292    O    10.110    -39.488    39.005
    293    C    9.202    -39.002    40.022
    294    H    9.668    -38.219    40.666
    295    H    8.896    -39.841    40.687
    296    C    7.932    -38.402    39.397
    297    H    7.285    -37.945    40.177
    298    O    8.271    -37.357    38.446
    299    C    7.362    -37.398    37.361
    300    H    6.887    -36.392    37.320
    301    N    8.004    -37.674    36.075
    302    C    8.297    -37.869    33.905
    303    N    9.506    -38.217    34.499
    304    C    9.276    -38.096    35.787
    305    H    10.000    -38.309    36.576
    306    N    6.603    -37.352    32.331
    307    C    5.813    -37.105    33.376
    308    H    4.778    -36.821    33.143
    309    N    6.092    -37.189    34.677
    310    C    7.367    -37.546    34.872
    311    C    7.882    -37.752    32.559
    312    N    8.675    -37.996    31.503
    313    H    9.655    -38.179    31.597
    314    H    8.319    -37.756    30.594
    315    C    6.324    -38.427    37.673
    316    H    5.991    -38.956    36.762
    317    O    5.198    -37.850    38.305
    318    H    4.661    -38.611    38.585
    319    C    7.079    -39.372    38.588
    320    H    7.765    -40.020    37.992
    321    O    6.201    -40.091    39.455
    322    P    6.414    -41.577    39.841
    323    O    6.916    -41.611    41.233
    324    O    7.215    -42.282    38.815
    325    O    4.931    -42.123    39.850
    326    C    4.299    -42.675    38.672
    327    H    3.647    -43.517    38.998
    328    H    5.038    -43.115    37.960
    329    C    3.392    -41.692    37.902
    330    H    2.603    -41.257    38.555
    331    O    4.166    -40.603    37.340
    332    C    3.738    -40.311    36.018
    333    H    3.451    -39.233    35.999
    334    N    4.826    -40.531    35.052
    335    C    6.027    -40.648    33.213
    336    N    6.835    -41.124    34.237
    337    C    6.078    -41.044    35.302
    338    H    6.380    -41.339    36.312
    339    N    5.198    -40.018    31.088
    340    C    4.096    -39.609    31.720
    341    H    3.309    -39.211    31.067
    342    N    3.794    -39.678    33.024
    343    C    4.802    -40.240    33.712
    344    C    6.212    -40.554    31.816
    345    N    7.326    -40.955    31.177
    346    H    8.152    -41.239    31.668
    347    H    7.411    -40.718    30.205
    348    C    2.529    -41.173    35.734
    349    H    2.496    -41.511    34.679
    350    O    1.334    -40.482    36.038
    351    H    0.615    -41.116    35.899
    352    C    2.751    -42.354    36.679
    353    H    3.528    -43.039    36.266
    354    O    1.556    -43.054    37.082
    355    P    0.940    -44.140    36.127
    356    O    -0.138    -44.825    36.869
    357    O    2.053    -44.996    35.660
    358    O    0.278    -43.299    34.961
    359    C    0.049    -43.808    33.618
    360    H    -0.991    -43.572    33.305
    361    H    0.149    -44.916    33.567
    362    C    1.008    -43.172    32.592
    363    H    0.803    -42.082    32.505
    364    O    2.333    -43.314    33.096
    365    C    3.239    -43.044    32.082
    366    H    3.421    -41.962    32.174
    367    N    4.539    -43.671    32.346
    368    C    5.560    -43.970    31.498
    369    N    6.797    -44.284    28.315
    370    H    7.683    -44.525    27.929
    371    H    5.959    -44.257    27.774
    372    N    5.549    -43.804    30.177
    373    C    6.675    -44.180    29.614
    374    N    7.809    -44.452    30.323
    375    H    8.640    -44.640    29.784
    376    C    7.891    -44.566    31.703
    377    O    8.970    -44.835    32.243
    378    C    6.619    -44.344    32.310
    379    N    6.239    -44.354    33.649
    380    C    5.001    -43.937    33.617
    381    H    4.352    -43.798    34.485
    382    C    2.556    -43.283    30.738
    383    H    3.040    -44.075    30.127
    384    O    2.526    -42.048    30.042
    385    H    2.127    -42.228    29.168
    386    C    1.135    -43.731    31.161
    387    H    1.134    -44.827    31.261
    388    O    0.020    -43.308    30.361
    389    P    -0.169    -43.418    28.808
    390    O    0.607    -42.345    28.151
    391    O    -1.623    -43.441    28.527
    392    O    0.490    -44.766    28.371
    393    C    -0.080    -46.035    28.708
    394    H    -0.975    -46.236    28.075
    395    H    -0.396    -46.068    29.777
    396    C    0.916    -47.168    28.458
    397    H    1.143    -47.270    27.376
    398    O    2.173    -46.958    29.144
    399    C    2.620    -48.180    29.728
    400    H    3.615    -48.390    29.269
    401    N    2.825    -48.046    31.194
    402    C    2.066    -47.130    31.860
    403    H    1.300    -46.646    31.261
    404    C    2.294    -46.829    33.138
    405    H    1.783    -46.015    33.637
    406    C    3.706    -48.854    31.913
    407    O    4.262    -49.793    31.328
    408    N    3.922    -48.594    33.236
    409    C    3.328    -47.532    33.805
    410    N    3.698    -47.104    35.009
    411    H    3.248    -46.271    35.365
    412    H    4.526    -47.465    35.429
    413    C    1.644    -49.277    29.323
    414    H    1.464    -50.002    30.142
    415    O    2.118    -49.968    28.187
    416    H    1.903    -49.472    27.383
    417    C    0.376    -48.476    29.006
    418    H    -0.147    -48.238    29.956
    419    O    -0.535    -48.995    28.039
    420    P    -1.359    -50.303    28.176
    421    O    -2.744    -49.942    28.557
    422    O    -0.687    -51.308    29.027
    423    O    -1.363    -50.804    26.673
    424    C    -0.124    -51.176    26.023
    425    H    -0.299    -52.146    25.505
    426    H    0.714    -51.371    26.732
    427    C    0.325    -50.155    24.960
    428    H    -0.547    -49.631    24.505
    429    O    1.253    -49.157    25.512
    430    C    2.158    -48.723    24.493
    431    H    1.809    -47.711    24.206
    432    N    3.574    -48.619    24.984
    433    C    5.783    -48.623    25.178
    434    N    5.285    -48.379    26.432
    435    C    3.988    -48.357    26.273
    436    H    3.281    -48.144    27.075
    437    N    7.258    -49.017    23.356
    438    C    6.170    -48.995    22.587
    439    H    6.327    -49.155    21.513
    440    N    4.897    -48.808    22.935
    441    C    4.755    -48.701    24.264
    442    C    7.093    -48.834    24.688
    443    N    8.199    -48.919    25.438
    444    H    8.150    -48.441    26.336
    445    H    9.080    -48.979    24.975
    446    C    1.970    -49.664    23.296
    447    H    2.909    -50.101    22.908
    448    O    1.295    -48.988    22.255
    449    H    0.952    -49.667    21.652
    450    C    1.130    -50.810    23.855
    451    H    1.758    -51.527    24.418
    452    O    0.291    -51.458    22.874
    453    P    0.605    -52.932    22.407
    454    O    0.175    -53.087    20.998
    455    O    -0.001    -53.861    23.384
    456    O    2.175    -53.063    22.504
    457    C    2.989    -52.744    21.349
    458    H    2.776    -51.714    20.978
    459    H    2.779    -53.459    20.520
    460    C    4.486    -52.838    21.670
    461    H    5.095    -52.737    20.745
    462    O    4.862    -51.747    22.528
    463    C    5.941    -52.142    23.367
    464    H    6.807    -51.490    23.119
    465    N    5.622    -51.968    24.786
    466    C    6.475    -51.984    25.855
    467    N    9.614    -52.524    27.186
    468    H    10.046    -52.508    28.082
    469    H    10.152    -52.720    26.371
    470    N    7.801    -52.206    25.806
    471    C    8.337    -52.235    27.023
    472    N    7.620    -52.039    28.170
    473    H    8.108    -52.057    29.050
    474    C    6.271    -51.758    28.254
    475    O    5.744    -51.610    29.360
    476    C    5.672    -51.770    26.965
    477    N    4.342    -51.647    26.592
    478    C    4.373    -51.761    25.295
    479    H    3.535    -51.657    24.620
    480    C    6.279    -53.564    23.020
    481    H    6.583    -54.157    23.906
    482    O    7.310    -53.579    22.053
    483    H    7.381    -54.491    21.749
    484    C    4.960    -54.071    22.441
    485    H    4.220    -54.249    23.256
    486    O    5.090    -55.185    21.537
    487    P    4.953    -56.649    22.092
    488    O    5.321    -57.568    20.992
    489    O    3.604    -56.819    22.681
    490    O    6.035    -56.704    23.240
    491    C    7.429    -56.884    22.891
    492    H    7.788    -56.086    22.203
    493    H    7.574    -57.857    22.367
    494    C    8.334    -56.903    24.133
    495    H    9.399    -56.995    23.832
    496    O    8.219    -55.686    24.925
    497    C    8.482    -56.005    26.294
    498    H    9.416    -55.451    26.542
    499    N    7.418    -55.579    27.245
    500    C    6.199    -55.131    26.794
    501    H    6.074    -55.087    25.710
    502    C    5.247    -54.736    27.652
    503    H    4.303    -54.310    27.325
    504    C    7.678    -55.615    28.616
    505    O    8.796    -55.975    29.015
    506    N    6.714    -55.264    29.491
    507    C    5.531    -54.814    29.046
    508    N    4.630    -54.415    29.937
    509    H    4.889    -54.403    30.906
    510    H    3.831    -53.880    29.663
    511    C    8.753    -57.506    26.372
    512    H    8.313    -57.960    27.285
    513    O    10.148    -57.759    26.331
    514    H    10.296    -58.718    26.257
    515    C    8.028    -58.015    25.131
    516    H    6.930    -58.025    25.297
    517    O    8.491    -59.287    24.642
    518    H    8.321    -59.982    25.302
 $END
