!*** FMO 5.3 (Gamess) INPUT generated by Facio 22.1.1.32 ***
 $CONTRL RUNTYP=ENERGY NPRINT=-5 ISPHER=1 MAXIT=200 $END
 $SYSTEM MWORDS=63 MEMDDI=63 $END
 $GDDI NGROUP=1 $END
 $SCF DIRSCF=.TRUE. NPUNCH=0 $END
!*** NumCPU : 2  MemPerNode : 512MB
 $PCM SOLVNT=WATER IEF=-10 ICOMP=2 ICAV=1 IDISP=1 IFMO=-1 $END
 $PCMCAV RADII=SUAHF $END
 $TESCAV NTSALL=60 $END
 $FMOPRP
    NAODIR=200
    NGRFMO(1)=1, 1, 0, 0, 0,   0, 0, 0, 0, 0
    IPIEDA=1
    NPRINT=9
 $END
 $FMO
      SCFTYP(1)=RHF
      MODGRD=10
      MODMUL=0
      MAXCAO=5
      MAXBND=23
      NLAYER=1
      MPLEVL(1)=2
      NFRAG=21
      ICHARG(1)=-1, -1, -1, -1, -1, -1, -1, 0, -1, -1, -1, -1, -1, 0, -1,
-1, -1, -1, -1, -1, 0
      FRGNAM(1)=F1, F2, F3, F4, F5, F6, F7, F8, F9, F10, F11, F12, F13,
F14, F15, F16, F17, F18, F19, F20, F21
      indat(1)=0
               1   -36   0
               37   -70   0
               71   -104   0
               105   -137   0
               138   -170   0
               171   -203   0
               204   -234   0
               235   -263   0
               264   -296   0
               297   -326   0
               327   -359   0
               360   -389   0
               390   -423   0
               424   -456   0
               457   -487   0
               488   -518   0
               519   -548   0
               549   -581   0
               582   -614   0
               615   -648   0
               649   -675   0
 $END

 $FMOBND
   -37   36       6-31G*    MINI
   -71   70       6-31G*    MINI
   -105   104       6-31G*    MINI
   -138   137       6-31G*    MINI
   -171   170       6-31G*    MINI
   -204   203       6-31G*    MINI
   -235   234       6-31G*    MINI
   -264   263       6-31G*    MINI
   -297   296       6-31G*    MINI
   -327   326       6-31G*    MINI
   -360   359       6-31G*    MINI
   -390   389       6-31G*    MINI
   -424   423       6-31G*    MINI
   -457   456       6-31G*    MINI
   -488   487       6-31G*    MINI
   -519   518       6-31G*    MINI
   -549   548       6-31G*    MINI
   -582   581       6-31G*    MINI
   -615   614       6-31G*    MINI
   -649   648       6-31G*    MINI
 $END
 $FMOHYB
 6-31G*      15   5
   1 0  -0.065034   0.288264   0.000000   0.000000   0.604412
         0.290129   0.000000   0.000000   0.319045  -0.017106
        -0.017106   0.057934   0.000000   0.000000   0.000000
   0 1  -0.065040   0.288293   0.569832   0.000000  -0.201456
         0.290147   0.300783   0.000000  -0.106342   0.049598
        -0.017106  -0.008771   0.000000  -0.027223   0.000000
   0 1  -0.065039   0.288293  -0.284916  -0.493490  -0.201455
         0.290145  -0.150392  -0.260486  -0.106340  -0.000427
         0.032923  -0.008771   0.033353   0.013612   0.023576
   0 1  -0.065039   0.288293  -0.284916   0.493490  -0.201455
         0.290145  -0.150392   0.260486  -0.106340  -0.000427
         0.032923  -0.008771  -0.033353   0.013612  -0.023576
   0 1   1.010938  -0.011975   0.000000   0.000000   0.000000
        -0.054085   0.000000   0.000000  -0.000000  -0.003174
        -0.003174  -0.003174   0.000000   0.000000   0.000000
 MINI         5   5
   1 0  -0.104883   0.308874   0.000000   0.000000   0.521806
   0 1  -0.104883   0.308874   0.491961   0.000000  -0.173934
   0 1  -0.104883   0.308876  -0.245980  -0.426050  -0.173933
   0 1  -0.104883   0.308876  -0.245980   0.426050  -0.173933
   0 1   0.988209   0.063992   0.000000   0.000000   0.000000
 $END
 
 $DATA
 FMO calculation
 C1 
 H.1-1    1
      N31 6
   
 O.1-1    8
      N31 6
      d 1
      1 0.800 1.0
   
 C.1-1    6
      N31 6
      d 1
      1 0.800 1.0
   
 N.1-1    7
      N31 6
      d 1
      1 0.800 1.0
   
 P.1-1   15
      N31 6
      d 1
      1 0.550 1.0
   
 $END
 $FMOXYZ
    1    H    -19.008    -10.721    -7.086
    2    O    -18.196    -10.229    -7.306
    3    C    -18.482    -9.473    -8.491
    4    H    -19.353    -8.807    -8.297
    5    H    -18.762    -10.171    -9.310
    6    C    -17.301    -8.615    -8.953
    7    H    -17.554    -8.049    -9.881
    8    O    -16.985    -7.630    -7.925
    9    C    -15.574    -7.511    -7.807
    10    H    -15.335    -6.430    -7.935
    11    N    -15.103    -7.940    -6.479
    12    C    -13.851    -7.736    -5.956
    13    N    -10.583    -6.625    -6.290
    14    H    -9.764    -6.543    -5.725
    15    H    -10.594    -6.190    -7.193
    16    N    -12.826    -7.114    -6.572
    17    C    -11.716    -7.125    -5.833
    18    N    -11.668    -7.609    -4.554
    19    H    -10.794    -7.551    -4.061
    20    C    -12.723    -8.204    -3.876
    21    O    -12.574    -8.597    -2.715
    22    C    -13.897    -8.258    -4.676
    23    N    -15.149    -8.795    -4.401
    24    C    -15.834    -8.586    -5.503
    25    H    -16.878    -8.870    -5.668
    26    C    -14.950    -8.300    -8.939
    27    H    -13.963    -8.736    -8.670
    28    O    -14.819    -7.469    -10.077
    29    H    -14.601    -8.043    -10.825
    30    C    -15.989    -9.387    -9.173
    31    H    -15.928    -10.155    -8.365
    32    O    -15.968    -9.957    -10.502
    33    P    -15.164    -11.290    -10.760
    34    O    -15.722    -12.337    -9.875
    35    O    -15.186    -11.571    -12.211
    36    O    -13.694    -10.959    -10.304
    37    C    -12.829    -10.178    -11.161
    38    H    -13.206    -9.137    -11.265
    39    H    -12.762    -10.626    -12.181
    40    C    -11.408    -10.100    -10.597
    41    H    -10.737    -9.573    -11.310
    42    O    -11.384    -9.324    -9.368
    43    C    -10.415    -9.885    -8.492
    44    H    -9.709    -9.063    -8.238
    45    N    -11.033    -10.380    -7.258
    46    C    -10.384    -10.638    -6.084
    47    N    -7.459    -10.765    -4.235
    48    H    -6.773    -10.467    -4.895
    49    H    -7.182    -10.920    -3.281
    50    N    -9.064    -10.492    -5.866
    51    C    -8.720    -10.817    -4.622
    52    N    -9.627    -11.216    -3.674
    53    H    -9.279    -11.439    -2.755
    54    C    -10.994    -11.379    -3.870
    55    O    -11.722    -11.757    -2.947
    56    C    -11.366    -11.055    -5.203
    57    N    -12.610    -11.070    -5.822
    58    C    -12.360    -10.667    -7.046
    59    H    -13.097    -10.547    -7.842
    60    C    -9.677    -10.978    -9.251
    61    H    -9.365    -11.819    -8.593
    62    O    -8.548    -10.428    -9.916
    63    H    -8.181    -11.113    -10.496
    64    C    -10.754    -11.435    -10.235
    65    H    -11.528    -12.039    -9.709
    66    O    -10.276    -12.078    -11.434
    67    P    -9.876    -13.599    -11.440
    68    O    -10.703    -14.299    -12.448
    69    O    -8.411    -13.670    -11.631
    70    O    -10.250    -14.144    -10.015
    71    C    -10.187    -15.562    -9.721
    72    H    -9.832    -16.179    -10.579
    73    H    -11.218    -15.903    -9.493
    74    C    -9.311    -15.901    -8.498
    75    H    -8.241    -15.959    -8.793
    76    O    -9.406    -14.847    -7.497
    77    C    -9.445    -15.416    -6.205
    78    H    -8.628    -14.920    -5.632
    79    N    -10.712    -15.131    -5.541
    80    C    -10.919    -15.127    -4.191
    81    N    -9.856    -15.801    -0.972
    82    H    -10.264    -15.899    -0.058
    83    H    -8.862    -15.877    -1.075
    84    N    -9.996    -15.395    -3.244
    85    C    -10.555    -15.478    -2.035
    86    N    -11.857    -15.155    -1.778
    87    H    -12.185    -15.194    -0.829
    88    C    -12.788    -14.768    -2.724
    89    O    -13.938    -14.480    -2.378
    90    C    -12.250    -14.789    -4.032
    91    N    -12.866    -14.566    -5.259
    92    C    -11.908    -14.776    -6.129
    93    H    -12.004    -14.686    -7.215
    94    C    -9.145    -16.903    -6.336
    95    H    -9.681    -17.520    -5.578
    96    O    -7.740    -17.115    -6.232
    97    H    -7.505    -17.127    -5.293
    98    C    -9.690    -17.186    -7.737
    99    H    -10.805    -17.198    -7.692
    100    O    -9.134    -18.351    -8.395
    101    P    -9.986    -19.683    -8.478
    102    O    -11.231    -19.391    -9.221
    103    O    -9.142    -20.776    -9.011
    104    O    -10.356    -20.044    -6.991
    105    C    -11.365    -21.053    -6.719
    106    H    -11.510    -21.770    -7.565
    107    H    -12.339    -20.547    -6.541
    108    C    -11.018    -21.890    -5.480
    109    H    -11.840    -22.594    -5.234
    110    O    -9.851    -22.705    -5.777
    111    C    -9.004    -22.755    -4.642
    112    H    -8.831    -23.830    -4.406
    113    N    -7.717    -22.112    -4.923
    114    C    -5.625    -21.461    -4.812
    115    N    -6.097    -21.012    -6.035
    116    C    -7.344    -21.420    -6.054
    117    H    -8.051    -21.253    -6.870
    118    N    -4.216    -21.958    -3.000
    119    C    -5.257    -22.565    -2.437
    120    H    -5.046    -23.004    -1.461
    121    N    -6.503    -22.692    -2.898
    122    C    -6.613    -22.134    -4.115
    123    C    -4.361    -21.382    -4.211
    124    N    -3.311    -20.767    -4.772
    125    H    -3.360    -20.285    -5.648
    126    H    -2.434    -20.824    -4.274
    127    C    -9.738    -22.106    -3.489
    128    H    -9.056    -21.569    -2.799
    129    O    -10.479    -23.074    -2.769
    130    H    -11.032    -22.593    -2.139
    131    C    -10.639    -21.118    -4.206
    132    H    -10.025    -20.244    -4.536
    133    O    -11.821    -20.759    -3.450
    134    P    -12.033    -19.273    -2.975
    135    O    -11.457    -18.366    -3.980
    136    O    -13.464    -19.061    -2.646
    137    O    -11.214    -19.197    -1.627
    138    C    -11.545    -20.040    -0.493
    139    H    -11.909    -21.045    -0.809
    140    H    -12.348    -19.579    0.127
    141    C    -10.330    -20.262    0.415
    142    H    -10.597    -20.949    1.242
    143    O    -9.265    -20.896    -0.340
    144    C    -8.019    -20.359    0.060
    145    H    -7.381    -21.230    0.340
    146    N    -7.376    -19.635    -1.052
    147    C    -5.873    -18.759    -2.395
    148    N    -7.088    -18.582    -3.033
    149    C    -7.951    -19.118    -2.197
    150    H    -9.026    -19.177    -2.368
    151    N    -3.571    -18.670    -1.887
    152    C    -3.876    -19.264    -0.736
    153    H    -3.026    -19.439    -0.074
    154    N    -5.070    -19.667    -0.282
    155    C    -6.034    -19.391    -1.175
    156    C    -4.563    -18.416    -2.765
    157    N    -4.249    -17.844    -3.937
    158    H    -4.933    -17.601    -4.621
    159    H    -3.295    -17.609    -4.080
    160    C    -8.262    -19.495    1.285
    161    H    -7.564    -18.637    1.343
    162    O    -8.145    -20.289    2.460
    163    H    -7.213    -20.580    2.553
    164    C    -9.692    -19.010    1.033
    165    H    -9.705    -18.236    0.235
    166    O    -10.429    -18.608    2.208
    167    P    -10.413    -17.113    2.713
    168    O    -10.800    -16.236    1.584
    169    O    -11.251    -17.052    3.930
    170    O    -8.936    -16.757    3.097
    171    C    -8.272    -17.262    4.267
    172    H    -8.400    -18.367    4.358
    173    H    -8.688    -16.778    5.179
    174    C    -6.771    -16.949    4.229
    175    H    -6.256    -17.376    5.115
    176    O    -6.170    -17.556    3.049
    177    C    -5.218    -16.679    2.483
    178    H    -4.264    -17.251    2.397
    179    N    -5.644    -16.223    1.139
    180    C    -5.707    -15.570    -0.970
    181    N    -7.019    -15.732    -0.572
    182    C    -6.927    -16.111    0.674
    183    H    -7.782    -16.329    1.300
    184    N    -3.778    -15.109    -2.260
    185    C    -3.084    -15.417    -1.156
    186    H    -2.000    -15.319    -1.255
    187    N    -3.517    -15.788    0.057
    188    C    -4.848    -15.859    0.078
    189    C    -5.132    -15.189    -2.204
    190    N    -5.877    -14.932    -3.303
    191    H    -6.876    -15.003    -3.269
    192    H    -5.419    -14.652    -4.151
    193    C    -5.040    -15.547    3.467
    194    H    -4.779    -14.619    2.952
    195    O    -4.016    -15.841    4.397
    196    H    -4.211    -16.657    4.876
    197    C    -6.411    -15.460    4.124
    198    H    -7.145    -15.006    3.419
    199    O    -6.424    -14.834    5.432
    200    P    -6.809    -13.303    5.556
    201    O    -8.284    -13.228    5.497
    202    O    -6.191    -12.744    6.778
    203    O    -6.210    -12.566    4.298
    204    C    -4.795    -12.257    4.212
    205    H    -4.174    -13.152    4.438
    206    H    -4.513    -11.489    4.959
    207    C    -4.384    -11.765    2.808
    208    H    -3.274    -11.719    2.725
    209    O    -4.873    -12.706    1.808
    210    C    -5.342    -12.021    0.669
    211    H    -4.779    -12.465    -0.186
    212    N    -6.793    -12.197    0.415
    213    C    -7.591    -12.863    1.315
    214    H    -7.103    -13.209    2.228
    215    C    -8.893    -13.060    1.075
    216    H    -9.540    -13.590    1.773
    217    C    -7.336    -11.738    -0.785
    218    O    -6.599    -11.205    -1.627
    219    N    -8.657    -11.882    -1.017
    220    C    -9.429    -12.534    -0.137
    221    N    -10.723    -12.665    -0.406
    222    H    -11.086    -12.298    -1.267
    223    H    -11.354    -13.089    0.244
    224    C    -4.957    -10.575    0.841
    225    H    -5.667    -9.871    0.367
    226    O    -3.681    -10.398    0.274
    227    H    -3.033    -10.902    0.782
    228    C    -4.955    -10.413    2.364
    229    H    -5.998    -10.368    2.754
    230    O    -4.129    -9.341    2.867
    231    P    -4.680    -7.877    2.987
    232    O    -5.936    -7.901    3.767
    233    O    -3.609    -7.000    3.518
    234    O    -5.043    -7.383    1.538
    235    C    -4.035    -7.178    0.524
    236    H    -3.385    -8.067    0.391
    237    H    -3.370    -6.338    0.819
    238    C    -4.667    -6.819    -0.832
    239    H    -3.873    -6.606    -1.580
    240    O    -5.464    -7.920    -1.361
    241    C    -6.654    -7.417    -1.956
    242    H    -6.657    -7.806    -3.000
    243    N    -7.881    -7.897    -1.248
    244    C    -7.810    -8.314    0.061
    245    H    -6.829    -8.240    0.519
    246    C    -9.075    -7.961    -1.933
    247    O    -9.184    -7.608    -3.109
    248    N    -10.139    -8.454    -1.218
    249    H    -11.026    -8.522    -1.695
    250    C    -10.126    -8.903    0.088
    251    O    -11.151    -9.341    0.604
    252    C    -8.856    -8.811    0.730
    253    H    -8.771    -9.127    1.767
    254    C    -6.534    -5.898    -1.993
    255    H    -7.519    -5.404    -1.857
    256    O    -5.952    -5.480    -3.220
    257    H    -5.058    -5.854    -3.286
    258    C    -5.629    -5.629    -0.791
    259    H    -6.213    -5.689    0.153
    260    O    -4.880    -4.402    -0.854
    261    H    -5.494    -3.649    -0.907
    262    H    -0.152    -31.047    8.635
    263    O    0.409    -31.114    7.843
    264    C    1.694    -31.569    8.289
    265    H    1.580    -32.552    8.804
    266    H    2.102    -30.849    9.032
    267    C    2.701    -31.728    7.145
    268    H    3.686    -32.084    7.530
    269    O    2.214    -32.737    6.207
    270    C    2.524    -32.334    4.882
    271    H    3.103    -33.170    4.424
    272    N    1.312    -32.104    4.087
    273    C    -0.100    -31.880    2.413
    274    N    -0.857    -31.781    3.575
    275    C    0.024    -31.928    4.539
    276    H    -0.201    -31.915    5.608
    277    N    0.559    -31.943    0.137
    278    C    1.810    -32.094    0.586
    279    H    2.578    -32.173    -0.190
    280    N    2.249    -32.198    1.844
    281    C    1.237    -32.074    2.716
    282    C    -0.446    -31.833    1.044
    283    N    -1.709    -31.702    0.592
    284    H    -2.486    -31.596    1.218
    285    H    -1.873    -31.580    -0.390
    286    C    3.403    -31.109    4.978
    287    H    3.277    -30.422    4.117
    288    O    4.753    -31.517    5.080
    289    H    5.271    -30.728    5.282
    290    C    2.923    -30.476    6.277
    291    H    1.927    -30.000    6.138
    292    O    3.879    -29.598    6.908
    293    P    3.867    -28.045    6.649
    294    O    2.489    -27.543    6.832
    295    O    4.909    -27.431    7.502
    296    O    4.256    -27.898    5.135
    297    C    5.550    -28.236    4.597
    298    H    5.864    -29.257    4.899
    299    H    6.321    -27.531    4.982
    300    C    5.569    -28.163    3.053
    301    H    6.582    -28.402    2.659
    302    O    4.637    -29.126    2.479
    303    C    3.968    -28.552    1.359
    304    H    4.200    -29.221    0.497
    305    N    2.486    -28.475    1.559
    306    C    1.954    -28.426    2.825
    307    H    2.679    -28.462    3.634
    308    C    1.660    -28.453    0.453
    309    O    2.095    -28.503    -0.693
    310    N    0.314    -28.383    0.730
    311    H    -0.321    -28.364    -0.059
    312    C    -0.275    -28.337    1.970
    313    O    -1.494    -28.270    2.073
    314    C    0.638    -28.386    3.067
    315    H    0.233    -28.412    4.075
    316    C    4.601    -27.189    1.108
    317    H    3.860    -26.440    0.754
    318    O    5.663    -27.291    0.178
    319    H    6.079    -26.417    0.154
    320    C    5.125    -26.812    2.489
    321    H    4.276    -26.479    3.127
    322    O    6.244    -25.887    2.506
    323    P    5.922    -24.352    2.327
    324    O    4.579    -24.050    2.852
    325    O    7.079    -23.618    2.898
    326    O    5.943    -24.174    0.760
    327    C    6.279    -22.875    0.205
    328    H    7.342    -22.626    0.433
    329    H    5.634    -22.074    0.640
    330    C    6.121    -22.876    -1.332
    331    H    6.829    -23.618    -1.765
    332    O    4.763    -23.250    -1.706
    333    C    4.102    -22.137    -2.264
    334    H    4.099    -22.310    -3.366
    335    N    2.746    -21.999    -1.750
    336    C    0.582    -21.678    -1.624
    337    N    1.023    -21.864    -0.318
    338    C    2.315    -22.051    -0.447
    339    H    3.007    -22.283    0.368
    340    N    -0.787    -21.373    -3.533
    341    C    0.330    -21.440    -4.244
    342    H    0.184    -21.357    -5.322
    343    N    1.587    -21.629    -3.845
    344    C    1.645    -21.722    -2.508
    345    C    -0.703    -21.520    -2.186
    346    N    -1.832    -21.577    -1.471
    347    H    -1.828    -21.612    -0.472
    348    H    -2.707    -21.633    -1.972
    349    C    4.935    -20.924    -1.962
    350    H    4.711    -20.536    -0.942
    351    O    4.699    -19.920    -2.911
    352    H    5.453    -19.315    -2.927
    353    C    6.356    -21.492    -1.998
    354    H    7.002    -20.900    -1.313
    355    O    6.994    -21.614    -3.301
    356    P    7.521    -20.350    -4.094
    357    O    7.616    -19.210    -3.157
    358    O    8.748    -20.725    -4.829
    359    O    6.380    -20.064    -5.138
    360    C    6.549    -19.307    -6.351
    361    H    7.577    -19.412    -6.766
    362    H    6.384    -18.229    -6.140
    363    C    5.553    -19.686    -7.474
    364    H    5.698    -18.983    -8.322
    365    O    5.806    -21.032    -7.964
    366    C    4.755    -21.899    -7.558
    367    H    4.160    -22.106    -8.478
    368    N    5.299    -23.151    -6.965
    369    C    6.475    -23.127    -6.247
    370    H    6.959    -22.154    -6.197
    371    C    4.631    -24.329    -7.163
    372    O    3.587    -24.397    -7.823
    373    N    5.215    -25.439    -6.618
    374    H    4.747    -26.310    -6.795
    375    C    6.418    -25.500    -5.941
    376    O    6.871    -26.587    -5.585
    377    C    7.047    -24.229    -5.742
    378    H    8.011    -24.190    -5.239
    379    C    3.882    -21.126    -6.588
    380    H    4.281    -21.219    -5.555
    381    O    2.531    -21.538    -6.621
    382    H    2.178    -21.335    -5.739
    383    C    4.061    -19.687    -7.078
    384    H    3.903    -18.997    -6.216
    385    O    3.213    -19.353    -8.201
    386    P    2.813    -17.879    -8.540
    387    O    4.016    -17.021    -8.501
    388    O    2.062    -17.878    -9.814
    389    O    1.834    -17.486    -7.381
    390    C    1.754    -16.140    -6.862
    391    H    1.763    -15.380    -7.679
    392    H    2.643    -15.947    -6.221
    393    C    0.481    -15.903    -6.012
    394    H    -0.377    -15.619    -6.658
    395    O    0.085    -17.116    -5.288
    396    C    -0.254    -16.777    -3.947
    397    H    -1.214    -17.279    -3.701
    398    N    0.770    -17.253    -3.008
    399    C    0.661    -17.377    -1.646
    400    N    -1.065    -16.920    1.265
    401    H    -0.992    -17.146    2.240
    402    H    -1.922    -16.543    0.905
    403    N    -0.408    -17.062    -0.907
    404    C    -0.212    -17.321    0.378
    405    N    0.917    -17.908    0.881
    406    H    0.964    -18.070    1.875
    407    C    2.025    -18.275    0.141
    408    O    3.030    -18.790    0.656
    409    C    1.864    -17.902    -1.223
    410    N    2.726    -18.035    -2.285
    411    C    2.038    -17.671    -3.330
    412    H    2.383    -17.708    -4.367
    413    C    -0.427    -15.273    -3.908
    414    H    -0.223    -14.836    -2.905
    415    O    -1.743    -14.928    -4.333
    416    H    -2.362    -15.102    -3.602
    417    C    0.647    -14.851    -4.904
    418    H    1.660    -15.025    -4.472
    419    O    0.488    -13.526    -5.439
    420    P    1.400    -12.351    -4.933
    421    O    2.795    -12.837    -4.824
    422    O    1.171    -11.178    -5.804
    423    O    0.891    -12.028    -3.478
    424    C    -0.422    -11.452    -3.294
    425    H    -1.204    -12.102    -3.745
    426    H    -0.475    -10.447    -3.772
    427    C    -0.745    -11.290    -1.805
    428    H    -1.730    -10.797    -1.655
    429    O    -0.821    -12.604    -1.178
    430    C    -0.241    -12.539    0.114
    431    H    -1.024    -12.889    0.821
    432    N    0.932    -13.412    0.221
    433    C    1.493    -13.856    1.385
    434    N    1.482    -13.975    4.839
    435    H    0.724    -13.366    5.066
    436    H    2.010    -14.395    5.581
    437    N    1.070    -13.560    2.621
    438    C    1.780    -14.159    3.565
    439    N    2.861    -14.962    3.290
    440    H    3.351    -15.379    4.066
    441    C    3.331    -15.281    2.016
    442    O    4.311    -16.014    1.845
    443    C    2.564    -14.637    1.006
    444    N    2.686    -14.672    -0.380
    445    C    1.694    -13.925    -0.804
    446    H    1.459    -13.707    -1.847
    447    C    0.104    -11.091    0.411
    448    H    1.035    -10.993    1.012
    449    O    -0.966    -10.472    1.103
    450    H    -0.854    -9.511    1.043
    451    C    0.314    -10.528    -0.995
    452    H    1.322    -10.817    -1.367
    453    O    0.127    -9.105    -1.106
    454    H    0.828    -8.634    -0.611
    455    H    7.105    -19.505    10.711
    456    O    6.334    -19.007    10.383
    457    C    5.843    -18.234    11.488
    458    H    6.673    -17.613    11.893
    459    H    5.499    -18.930    12.289
    460    C    4.677    -17.313    11.121
    461    H    4.251    -16.834    12.029
    462    O    5.148    -16.243    10.244
    463    C    4.158    -15.992    9.249
    464    H    3.925    -14.903    9.311
    465    N    4.621    -16.311    7.868
    466    C    5.696    -17.149    7.668
    467    H    6.182    -17.534    8.567
    468    C    6.135    -17.443    6.437
    469    H    6.997    -18.087    6.267
    470    C    3.936    -15.803    6.768
    471    O    2.936    -15.091    6.951
    472    N    4.366    -16.085    5.518
    473    C    5.444    -16.867    5.333
    474    N    5.856    -17.106    4.090
    475    H    5.348    -16.723    3.315
    476    H    6.671    -17.660    3.899
    477    C    2.924    -16.778    9.638
    478    H    2.309    -17.084    8.767
    479    O    2.139    -16.021    10.537
    480    H    1.487    -16.630    10.906
    481    C    3.539    -17.985    10.335
    482    H    4.007    -18.671    9.591
    483    O    2.663    -18.678    11.248
    484    P    1.722    -19.823    10.719
    485    O    2.537    -20.826    9.998
    486    O    0.916    -20.323    11.853
    487    O    0.777    -19.088    9.710
    488    C    -0.319    -18.273    10.193
    489    H    0.050    -17.366    10.718
    490    H    -0.959    -18.835    10.909
    491    C    -1.203    -17.810    9.028
    492    H    -2.057    -17.201    9.390
    493    O    -0.430    -16.972    8.117
    494    C    -0.839    -17.234    6.777
    495    H    -1.188    -16.257    6.366
    496    N    0.267    -17.770    5.924
    497    C    1.353    -18.393    6.492
    498    H    1.350    -18.436    7.581
    499    C    2.364    -18.866    5.746
    500    H    3.257    -19.299    6.188
    501    C    0.188    -17.671    4.540
    502    O    -0.800    -17.122    4.036
    503    N    1.189    -18.148    3.766
    504    C    2.271    -18.704    4.330
    505    N    3.266    -19.098    3.538
    506    H    3.157    -19.015    2.545
    507    H    4.093    -19.531    3.894
    508    C    -2.027    -18.179    6.842
    509    H    -2.063    -18.871    5.976
    510    O    -3.244    -17.459    6.937
    511    H    -3.919    -18.115    7.140
    512    C    -1.744    -18.933    8.133
    513    H    -0.906    -19.652    7.977
    514    O    -2.906    -19.530    8.749
    515    P    -3.180    -21.065    8.556
    516    O    -1.905    -21.805    8.646
    517    O    -4.243    -21.462    9.504
    518    O    -3.723    -21.181    7.085
    519    C    -4.881    -20.471    6.595
    520    H    -4.901    -19.412    6.933
    521    H    -5.807    -20.954    6.980
    522    C    -4.938    -20.493    5.057
    523    H    -5.839    -19.963    4.678
    524    O    -3.781    -19.806    4.512
    525    C    -3.368    -20.441    3.318
    526    H    -3.432    -19.651    2.533
    527    N    -1.976    -20.952    3.424
    528    C    -1.437    -21.338    4.630
    529    H    -2.090    -21.214    5.492
    530    C    -1.245    -21.058    2.270
    531    O    -1.713    -20.775    1.176
    532    N    0.041    -21.491    2.423
    533    H    0.559    -21.603    1.561
    534    C    0.684    -21.763    3.610
    535    O    1.891    -21.974    3.627
    536    C    -0.163    -21.731    4.761
    537    H    0.277    -21.939    5.732
    538    C    -4.377    -21.535    3.011
    539    H    -3.924    -22.424    2.521
    540    O    -5.403    -21.005    2.194
    541    H    -5.016    -20.715    1.345
    542    C    -4.885    -21.880    4.408
    543    H    -4.109    -22.454    4.965
    544    O    -6.190    -22.500    4.460
    545    P    -6.274    -24.073    4.455
    546    O    -5.252    -24.626    5.369
    547    O    -7.667    -24.476    4.731
    548    O    -5.909    -24.559    3.012
    549    C    -6.637    -24.119    1.847
    550    H    -6.718    -23.010    1.823
    551    H    -7.677    -24.525    1.843
    552    C    -5.900    -24.536    0.563
    553    H    -6.396    -24.064    -0.314
    554    O    -4.496    -24.108    0.588
    555    C    -3.648    -25.238    0.477
    556    H    -3.351    -25.300    -0.592
    557    N    -2.461    -25.105    1.326
    558    C    -0.402    -24.978    2.100
    559    N    -1.243    -24.885    3.209
    560    C    -2.450    -24.971    2.693
    561    H    -3.385    -24.924    3.260
    562    N    1.525    -25.126    0.725
    563    C    0.690    -25.232    -0.301
    564    H    1.192    -25.347    -1.266
    565    N    -0.646    -25.215    -0.318
    566    C    -1.140    -25.104    0.932
    567    C    1.007    -24.989    1.966
    568    N    1.874    -24.873    2.982
    569    H    1.560    -24.614    3.895
    570    H    2.821    -24.601    2.748
    571    C    -4.473    -26.454    0.842
    572    H    -4.513    -26.608    1.944
    573    O    -3.980    -27.602    0.188
    574    H    -4.121    -27.459    -0.761
    575    C    -5.862    -26.056    0.335
    576    H    -6.639    -26.494    1.003
    577    O    -6.111    -26.379    -1.043
    578    P    -6.978    -27.608    -1.486
    579    O    -6.351    -28.865    -1.027
    580    O    -8.390    -27.394    -1.085
    581    O    -6.822    -27.540    -3.052
    582    C    -7.933    -27.188    -3.903
    583    H    -8.593    -26.430    -3.424
    584    H    -8.537    -28.099    -4.108
    585    C    -7.471    -26.572    -5.235
    586    H    -8.336    -26.326    -5.883
    587    O    -6.805    -25.311    -4.944
    588    C    -5.626    -25.179    -5.718
    589    H    -5.700    -24.192    -6.226
    590    N    -4.413    -25.188    -4.884
    591    C    -2.346    -25.032    -4.145
    592    N    -3.113    -25.419    -3.065
    593    C    -4.321    -25.499    -3.553
    594    H    -5.209    -25.769    -2.995
    595    N    -0.507    -24.503    -5.530
    596    C    -1.384    -24.405    -6.528
    597    H    -0.950    -24.142    -7.498
    598    N    -2.718    -24.539    -6.506
    599    C    -3.133    -24.882    -5.275
    600    C    -0.963    -24.826    -4.297
    601    N    -0.085    -24.943    -3.291
    602    H    -0.460    -24.976    -2.355
    603    H    0.846    -24.634    -3.469
    604    C    -5.639    -26.286    -6.746
    605    H    -4.617    -26.638    -6.988
    606    O    -6.274    -25.833    -7.927
    607    H    -6.508    -26.616    -8.446
    608    C    -6.439    -27.376    -6.043