!*** FMO 5.3 (Gamess) INPUT generated by Facio 22.1.1.32 ***
 $CONTRL RUNTYP=ENERGY NPRINT=-5 ISPHER=1 MAXIT=200 $END
 $SYSTEM MWORDS=63 MEMDDI=63 $END
 $GDDI NGROUP=1 $END
 $SCF DIRSCF=.TRUE. NPUNCH=0 $END
!*** NumCPU : 2  MemPerNode : 512MB
 $PCM SOLVNT=WATER IEF=-10 ICOMP=2 ICAV=1 IDISP=1 IFMO=-1 $END
 $PCMCAV RADII=SUAHF $END
 $TESCAV NTSALL=60 $END
 $FMOPRP
    NAODIR=200
    NGRFMO(1)=1, 1, 0, 0, 0,   0, 0, 0, 0, 0
    IPIEDA=1
    NPRINT=9
 $END
 $FMO
      SCFTYP(1)=RHF
      MODGRD=10
      MODMUL=0
      MAXCAO=5
      MAXBND=23
      NLAYER=1
      MPLEVL(1)=2
      NFRAG=21
      ICHARG(1)=-1, -1, -1, -1, -1, -1, -1, 0, -1, -1, -1, -1, -1, 0, -1,
-1, -1, -1, -1, -1, 0
      FRGNAM(1)=F1, F2, F3, F4, F5, F6, F7, F8, F9, F10, F11, F12, F13,
F14, F15, F16, F17, F18, F19, F20, F21
      indat(1)=0
               1   -36   0
               37   -70   0
               71   -104   0
               105   -137   0
               138   -170   0
               171   -203   0
               204   -234   0
               235   -263   0
               264   -296   0
               297   -326   0
               327   -359   0
               360   -389   0
               390   -423   0
               424   -456   0
               457   -487   0
               488   -518   0
               519   -548   0
               549   -581   0
               582   -614   0
               615   -648   0
               649   -675   0
 $END

 $FMOBND
   -37   36       6-31G*    MINI
   -71   70       6-31G*    MINI
   -105   104       6-31G*    MINI
   -138   137       6-31G*    MINI
   -171   170       6-31G*    MINI
   -204   203       6-31G*    MINI
   -235   234       6-31G*    MINI
   -264   263       6-31G*    MINI
   -297   296       6-31G*    MINI
   -327   326       6-31G*    MINI
   -360   359       6-31G*    MINI
   -390   389       6-31G*    MINI
   -424   423       6-31G*    MINI
   -457   456       6-31G*    MINI
   -488   487       6-31G*    MINI
   -519   518       6-31G*    MINI
   -549   548       6-31G*    MINI
   -582   581       6-31G*    MINI
   -615   614       6-31G*    MINI
   -649   648       6-31G*    MINI
 $END
 $FMOHYB
 6-31G*      15   5
   1 0  -0.065034   0.288264   0.000000   0.000000   0.604412
         0.290129   0.000000   0.000000   0.319045  -0.017106
        -0.017106   0.057934   0.000000   0.000000   0.000000
   0 1  -0.065040   0.288293   0.569832   0.000000  -0.201456
         0.290147   0.300783   0.000000  -0.106342   0.049598
        -0.017106  -0.008771   0.000000  -0.027223   0.000000
   0 1  -0.065039   0.288293  -0.284916  -0.493490  -0.201455
         0.290145  -0.150392  -0.260486  -0.106340  -0.000427
         0.032923  -0.008771   0.033353   0.013612   0.023576
   0 1  -0.065039   0.288293  -0.284916   0.493490  -0.201455
         0.290145  -0.150392   0.260486  -0.106340  -0.000427
         0.032923  -0.008771  -0.033353   0.013612  -0.023576
   0 1   1.010938  -0.011975   0.000000   0.000000   0.000000
        -0.054085   0.000000   0.000000  -0.000000  -0.003174
        -0.003174  -0.003174   0.000000   0.000000   0.000000
 MINI         5   5
   1 0  -0.104883   0.308874   0.000000   0.000000   0.521806
   0 1  -0.104883   0.308874   0.491961   0.000000  -0.173934
   0 1  -0.104883   0.308876  -0.245980  -0.426050  -0.173933
   0 1  -0.104883   0.308876  -0.245980   0.426050  -0.173933
   0 1   0.988209   0.063992   0.000000   0.000000   0.000000
 $END
 
 $DATA
 FMO calculation
 C1 
 H.1-1    1
      N31 6
   
 O.1-1    8
      N31 6
      d 1
      1 0.800 1.0
   
 C.1-1    6
      N31 6
      d 1
      1 0.800 1.0
   
 N.1-1    7
      N31 6
      d 1
      1 0.800 1.0
   
 P.1-1   15
      N31 6
      d 1
      1 0.550 1.0
   
 $END
 $FMOXYZ
    1    H    -16.437    -6.808    -7.463
    2    O    -15.475    -6.639    -7.415
    3    C    -15.145    -5.802    -8.535
    4    H    -15.697    -4.840    -8.446
    5    H    -15.475    -6.297    -9.475
    6    C    -13.644    -5.503    -8.645
    7    H    -13.429    -4.863    -9.528
    8    O    -13.193    -4.785    -7.460
    9    C    -11.924    -5.287    -7.065
    10    H    -11.242    -4.409    -7.007
    11    N    -11.975    -5.924    -5.741
    12    C    -10.902    -6.297    -4.973
    13    N    -7.480    -6.645    -4.538
    14    H    -6.845    -6.977    -3.845
    15    H    -7.115    -6.251    -5.383
    16    N    -9.605    -6.166    -5.310
    17    C    -8.790    -6.650    -4.373
    18    N    -9.232    -7.159    -3.180
    19    H    -8.540    -7.485    -2.526
    20    C    -10.562    -7.278    -2.793
    21    O    -10.859    -7.747    -1.687
    22    C    -11.442    -6.795    -3.800
    23    N    -12.832    -6.739    -3.830
    24    C    -13.103    -6.226    -5.010
    25    H    -14.104    -6.034    -5.405
    26    C    -11.440    -6.222    -8.151
    27    H    -10.802    -7.041    -7.756
    28    O    -10.728    -5.487    -9.127
    29    H    -10.605    -6.070    -9.889
    30    C    -12.751    -6.753    -8.714
    31    H    -13.191    -7.508    -8.022
    32    O    -12.683    -7.230    -10.076
    33    P    -12.307    -8.734    -10.367
    34    O    -13.342    -9.617    -9.776
    35    O    -12.070    -8.881    -11.819
    36    O    -10.956    -8.975    -9.594
    37    C    -9.684    -8.570    -10.157
    38    H    -9.629    -7.464    -10.274
    39    H    -9.534    -9.012    -11.167
    40    C    -8.502    -9.010    -9.280
    41    H    -7.538    -8.667    -9.723
    42    O    -8.606    -8.401    -7.965
    43    C    -8.128    -9.319    -6.993
    44    H    -7.298    -8.813    -6.450
    45    N    -9.178    -9.674    -6.033
    46    C    -8.964    -10.218    -4.803
    47    N    -6.807    -11.506    -2.439
    48    H    -6.849    -11.910    -1.522
    49    H    -5.911    -11.384    -2.874
    50    N    -7.764    -10.519    -4.281
    51    C    -7.867    -11.098    -3.089
    52    N    -9.054    -11.275    -2.436
    53    H    -9.025    -11.736    -1.540
    54    C    -10.301    -10.920    -2.928
    55    O    -11.331    -11.105    -2.269
    56    C    -10.212    -10.363    -4.235
    57    N    -11.206    -9.920    -5.107
    58    C    -10.540    -9.526    -6.168
    59    H    -10.972    -9.107    -7.079
    60    C    -7.586    -10.531    -7.718
    61    H    -7.732    -11.475    -7.150
    62    O    -6.213    -10.354    -8.005
    63    H    -5.945    -11.115    -8.534
    64    C    -8.407    -10.514    -8.996
    65    H    -9.449    -10.859    -8.793
    66    O    -7.780    -11.185    -10.111
    67    P    -8.230    -12.643    -10.479
    68    O    -9.706    -12.674    -10.568
    69    O    -7.492    -13.073    -11.688
    70    O    -7.817    -13.529    -9.258
    71    C    -6.444    -13.850    -8.972
    72    H    -5.816    -12.938    -8.863
    73    H    -6.019    -14.454    -9.799
    74    C    -6.349    -14.656    -7.665
    75    H    -5.293    -14.919    -7.458
    76    O    -6.806    -13.837    -6.553
    77    C    -7.534    -14.630    -5.641
    78    H    -7.047    -14.511    -4.647
    79    N    -8.916    -14.166    -5.547
    80    C    -9.742    -14.299    -4.470
    81    N    -10.330    -15.434    -1.274
    82    H    -11.138    -15.838    -0.827
    83    H    -9.446    -15.871    -1.094
    84    N    -9.417    -14.861    -3.295
    85    C    -10.451    -14.907    -2.466
    86    N    -11.682    -14.372    -2.749
    87    H    -12.391    -14.407    -2.039
    88    C    -12.026    -13.735    -3.937
    89    O    -13.156    -13.271    -4.130
    90    C    -10.938    -13.719    -4.850
    91    N    -10.848    -13.192    -6.135
    92    C    -9.621    -13.470    -6.500
    93    H    -9.152    -13.178    -7.436
    94    C    -7.430    -16.080    -6.087
    95    H    -8.351    -16.658    -5.887
    96    O    -6.368    -16.710    -5.418
    97    H    -5.517    -16.358    -5.698
    98    C    -7.189    -15.948    -7.591
    99    H    -8.158    -15.706    -8.087
    100    O    -6.479    -17.065    -8.215
    101    P    -7.316    -18.068    -9.102
    102    O    -8.016    -17.301    -10.154
    103    O    -6.436    -19.151    -9.595
    104    O    -8.415    -18.700    -8.161
    105    C    -9.638    -19.253    -8.724
    106    H    -9.484    -19.639    -9.760
    107    H    -10.432    -18.476    -8.781
    108    C    -10.189    -20.410    -7.878
    109    H    -11.174    -20.761    -8.260
    110    O    -9.260    -21.530    -8.000
    111    C    -9.026    -22.107    -6.728
    112    H    -9.196    -23.202    -6.839
    113    N    -7.642    -21.896    -6.286
    114    C    -5.788    -21.963    -5.125
    115    N    -5.450    -21.375    -6.338
    116    C    -6.590    -21.338    -6.986
    117    H    -6.737    -20.914    -7.982
    118    N    -5.653    -22.911    -2.962
    119    C    -6.958    -23.146    -3.049
    120    H    -7.420    -23.633    -2.179
    121    N    -7.779    -22.898    -4.072
    122    C    -7.125    -22.293    -5.083
    123    C    -5.030    -22.318    -4.002
    124    N    -3.726    -22.128    -3.951
    125    H    -3.286    -21.440    -4.521
    126    H    -3.238    -22.346    -3.106
    127    C    -10.046    -21.530    -5.770
    128    H    -9.663    -21.419    -4.734
    129    O    -11.221    -22.323    -5.757
    130    H    -11.864    -21.842    -5.218
    131    C    -10.288    -20.156    -6.362
    132    H    -9.420    -19.504    -6.093
    133    O    -11.580    -19.604    -6.007
    134    P    -11.653    -18.207    -5.279
    135    O    -10.489    -17.411    -5.673
    136    O    -12.977    -17.610    -5.564
    137    O    -11.597    -18.530    -3.734
    138    C    -12.578    -19.371    -3.084
    139    H    -13.074    -20.065    -3.802
    140    H    -13.383    -18.737    -2.644
    141    C    -11.963    -20.232    -1.969
    142    H    -12.693    -20.982    -1.593
    143    O    -10.824    -20.963    -2.514
    144    C    -9.765    -20.980    -1.575
    145    H    -9.501    -22.053    -1.427
    146    N    -8.574    -20.257    -2.072
    147    C    -6.498    -19.578    -2.350
    148    N    -7.240    -18.978    -3.345
    149    C    -8.461    -19.394    -3.140
    150    H    -9.319    -19.106    -3.746
    151    N    -4.713    -20.263    -0.967
    152    C    -5.619    -20.963    -0.278
    153    H    -5.216    -21.528    0.570
    154    N    -6.946    -21.062    -0.472
    155    C    -7.306    -20.362    -1.554
    156    C    -5.125    -19.544    -2.036
    157    N    -4.209    -18.843    -2.723
    158    H    -4.452    -18.268    -3.513
    159    H    -3.305    -18.712    -2.316
    160    C    -10.296    -20.417    -0.277
    161    H    -9.507    -19.893    0.290
    162    O    -10.815    -21.454    0.531
    163    H    -11.228    -21.025    1.294
    164    C    -11.398    -19.467    -0.752
    165    H    -10.935    -18.536    -1.157
    166    O    -12.435    -19.222    0.238
    167    P    -12.773    -17.772    0.768
    168    O    -12.418    -16.768    -0.257
    169    O    -14.162    -17.720    1.275
    170    O    -11.814    -17.563    1.997
    171    C    -11.949    -18.320    3.223
    172    H    -12.472    -19.296    3.068
    173    H    -12.547    -17.737    3.959
    174    C    -10.580    -18.618    3.853
    175    H    -10.689    -19.282    4.739
    176    O    -9.754    -19.323    2.873
    177    C    -8.415    -18.861    2.974
    178    H    -7.762    -19.755    3.099
    179    N    -7.999    -18.113    1.775
    180    C    -6.853    -17.088    0.204
    181    N    -8.183    -17.018    -0.176
    182    C    -8.813    -17.608    0.795
    183    H    -9.889    -17.751    0.826
    184    N    -4.526    -16.757    0.283
    185    C    -4.557    -17.389    1.467
    186    H    -3.599    -17.472    1.987
    187    N    -5.584    -17.948    2.112
    188    C    -6.721    -17.749    1.418
    189    C    -5.684    -16.590    -0.394
    190    N    -5.686    -15.956    -1.581
    191    H    -6.494    -15.975    -2.169
    192    H    -4.809    -15.704    -1.998
    193    C    -8.342    -17.996    4.203
    194    H    -7.571    -17.205    4.091
    195    O    -8.059    -18.780    5.343
    196    H    -8.118    -18.197    6.114
    197    C    -9.739    -17.397    4.272
    198    H    -9.876    -16.614    3.492
    199    O    -10.156    -16.923    5.572
    200    P    -9.520    -15.666    6.288
    201    O    -10.218    -14.455    5.808
    202    O    -9.530    -15.904    7.746
    203    O    -8.023    -15.593    5.843
    204    C    -7.206    -14.400    5.969
    205    H    -6.650    -14.431    6.931
    206    H    -7.828    -13.472    5.981
    207    C    -6.172    -14.242    4.822
    208    H    -5.200    -14.699    5.098
    209    O    -6.641    -14.931    3.623
    210    C    -6.438    -14.121    2.488
    211    H    -5.948    -14.764    1.721
    212    N    -7.726    -13.575    1.951
    213    C    -8.888    -13.694    2.692
    214    H    -8.801    -14.169    3.672
    215    C    -10.062    -13.264    2.219
    216    H    -10.984    -13.376    2.778
    217    C    -7.785    -13.006    0.679
    218    O    -6.763    -12.963    -0.015
    219    N    -8.960    -12.511    0.215
    220    C    -10.082    -12.659    0.932
    221    N    -11.230    -12.219    0.423
    222    H    -11.240    -11.806    -0.489
    223    H    -12.102    -12.332    0.902
    224    C    -5.463    -13.050    2.908
    225    H    -5.541    -12.133    2.289
    226    O    -4.133    -13.548    2.873
    227    H    -3.605    -12.823    3.204
    228    C    -5.898    -12.800    4.346
    229    H    -6.874    -12.254    4.382
    230    O    -4.867    -12.198    5.163
    231    P    -4.826    -10.657    5.419
    232    O    -6.152    -10.259    5.936
    233    O    -3.651    -10.331    6.263
    234    O    -4.629    -9.985    4.010
    235    C    -3.403    -10.119    3.251
    236    H    -3.131    -11.183    3.088
    237    H    -2.561    -9.625    3.784
    238    C    -3.522    -9.472    1.861
    239    H    -2.577    -9.596    1.289
    240    O    -4.565    -10.117    1.100
    241    C    -5.279    -9.175    0.321
    242    H    -5.183    -9.522    -0.735
    243    N    -6.726    -9.131    0.711
    244    C    -7.128    -9.622    1.935
    245    H    -6.335    -10.019    2.563
    246    C    -7.659    -8.649    -0.183
    247    O    -7.360    -8.213    -1.289
    248    N    -8.962    -8.687    0.250
    249    H    -9.668    -8.352    -0.390
    250    C    -9.422    -9.149    1.464
    251    O    -10.617    -9.081    1.737
    252    C    -8.405    -9.655    2.331
    253    H    -8.689    -10.023    3.315
    254    C    -4.565    -7.838    0.484
    255    H    -5.283    -6.994    0.488
    256    O    -3.615    -7.640    -0.551
    257    H    -2.946    -8.338    -0.483
    258    C    -3.910    -7.998    1.856
    259    H    -4.666    -7.837    2.652
    260    O    -2.745    -7.183    2.079
    261    H    -2.997    -6.243    2.033
    262    H    2.213    -29.258    9.315
    263    O    2.646    -29.333    8.444
    264    C    4.029    -29.617    8.698
    265    H    4.103    -30.515    9.354
    266    H    4.490    -28.761    9.239
    267    C    4.828    -29.875    7.416
    268    H    5.898    -30.064    7.658
    269    O    4.315    -31.062    6.741
    270    C    4.358    -30.862    5.338
    271    H    4.957    -31.707    4.919
    272    N    3.012    -30.884    4.756
    273    C    1.313    -31.058    3.370
    274    N    0.765    -30.860    4.632
    275    C    1.813    -30.765    5.416
    276    H    1.777    -30.606    6.498
    277    N    1.567    -31.405    1.039
    278    C    2.887    -31.369    1.257
    279    H    3.519    -31.494    0.369
    280    N    3.548    -31.211    2.408
    281    C    2.696    -31.064    3.434
    282    C    0.731    -31.257    2.099
    283    N    -0.597    -31.331    1.905
    284    H    -1.242    -31.275    2.675
    285    H    -0.979    -31.389    0.979
    286    C    5.085    -29.557    5.090
    287    H    4.725    -29.033    4.181
    288    O    6.475    -29.802    4.991
    289    H    6.909    -28.940    4.981
    290    C    4.758    -28.765    6.354
    291    H    3.702    -28.408    6.331
    292    O    5.701    -27.714    6.674
    293    P    5.438    -26.243    6.174
    294    O    4.062    -25.843    6.553
    295    O    6.534    -25.367    6.641
    296    O    5.511    -26.355    4.611
    297    C    6.734    -26.580    3.879
    298    H    7.247    -27.496    4.239
    299    H    7.437    -25.725    4.018
    300    C    6.476    -26.740    2.365
    301    H    7.421    -26.940    1.818
    302    O    5.592    -27.871    2.113
    303    C    4.684    -27.557    1.063
    304    H    4.858    -28.333    0.279
    305    N    3.259    -27.592    1.520
    306    C    2.950    -27.418    2.848
    307    H    3.803    -27.265    3.502
    308    C    2.256    -27.787    0.591
    309    O    2.483    -27.943    -0.606
    310    N    0.978    -27.813    1.105
    311    H    0.221    -27.985    0.454
    312    C    0.613    -27.682    2.423
    313    O    -0.569    -27.728    2.737
    314    C    1.701    -27.479    3.327
    315    H    1.491    -27.369    4.387
    316    C    5.085    -26.196    0.513
    317    H    4.200    -25.595    0.205
    318    O    5.972    -26.333    -0.584
    319    H    6.262    -25.434    -0.804
    320    C    5.776    -25.544    1.709
    321    H    5.015    -25.189    2.438
    322    O    6.743    -24.512    1.391
    323    P    6.211    -23.157    0.774
    324    O    4.760    -23.044    1.013
    325    O    7.056    -22.056    1.281
    326    O    6.504    -23.348    -0.769
    327    C    6.744    -22.192    -1.619
    328    H    7.844    -22.034    -1.735
    329    H    6.326    -21.253    -1.180
    330    C    6.133    -22.390    -3.023
    331    H    6.677    -23.186    -3.571
    332    O    4.729    -22.760    -2.912
    333    C    3.934    -21.665    -3.321
    334    H    3.646    -21.894    -4.370
    335    N    2.742    -21.522    -2.496
    336    C    0.618    -21.408    -1.960
    337    N    1.318    -21.353    -0.755
    338    C    2.580    -21.453    -1.129
    339    H    3.437    -21.487    -0.452
    340    N    -1.084    -21.452    -3.589
    341    C    -0.136    -21.536    -4.507
    342    H    -0.494    -21.576    -5.544
    343    N    1.180    -21.592    -4.338
    344    C    1.493    -21.505    -3.030
    345    C    -0.759    -21.411    -2.279
    346    N    -1.772    -21.387    -1.396
    347    H    -2.664    -21.010    -1.653
    348    H    -1.630    -21.352    -0.401
    349    C    4.819    -20.446    -3.367
    350    H    4.948    -20.000    -2.359
    351    O    4.379    -19.472    -4.288
    352    H    4.359    -19.907    -5.152
    353    C    6.094    -21.092    -3.869
    354    H    6.962    -20.459    -3.569
    355    O    6.051    -21.360    -5.302
    356    P    7.119    -20.717    -6.262
    357    O    7.400    -19.329    -5.832
    358    O    8.283    -21.625    -6.319
    359    O    6.393    -20.682    -7.671
    360    C    5.253    -19.814    -7.946
    361    H    5.614    -18.845    -8.357
    362    H    4.694    -19.565    -7.014
    363    C    4.210    -20.394    -8.956
    364    H    4.462    -20.084    -9.992
    365    O    4.247    -21.856    -8.948
    366    C    2.930    -22.399    -8.935
    367    H    2.911    -23.137    -9.768
    368    N    2.618    -23.106    -7.648
    369    C    3.628    -23.331    -6.732
    370    H    4.564    -22.797    -6.909
    371    C    1.368    -23.673    -7.452
    372    O    0.465    -23.623    -8.284
    373    N    1.216    -24.342    -6.263
    374    H    0.266    -24.620    -6.042
    375    C    2.168    -24.541    -5.283
    376    O    1.872    -25.093    -4.225
    377    C    3.463    -24.053    -5.617
    378    H    4.251    -24.140    -4.874
    379    C    1.982    -21.260    -9.254
    380    H    0.987    -21.357    -8.772
    381    O    1.810    -21.156    -10.657
    382    H    1.451    -20.272    -10.837
    383    C    2.720    -20.062    -8.676
    384    H    2.579    -20.046    -7.568
    385    O    2.325    -18.842    -9.327
    386    P    2.000    -17.530    -8.556
    387    O    3.191    -17.200    -7.740
    388    O    1.610    -16.505    -9.548
    389    O    0.766    -17.867    -7.651
    390    C    -0.542    -18.128    -8.229
    391    H    -0.577    -19.155    -8.669
    392    H    -0.797    -17.397    -9.032
    393    C    -1.649    -18.039    -7.169
    394    H    -2.644    -18.254    -7.615
    395    O    -1.405    -19.036    -6.132
    396    C    -1.645    -18.452    -4.853
    397    H    -2.292    -19.167    -4.301
    398    N    -0.404    -18.270    -4.075
    399    C    -0.302    -18.004    -2.731
    400    N    -1.723    -17.357    0.340
    401    H    -1.430    -17.121    1.270
    402    H    -2.689    -17.233    0.095
    403    N    -1.323    -17.838    -1.872
    404    C    -0.892    -17.631    -0.628
    405    N    0.423    -17.667    -0.260
    406    H    0.644    -17.516    0.711
    407    C    1.490    -17.863    -1.115
    408    O    2.644    -17.881    -0.680
    409    C    1.056    -17.995    -2.459
    410    N    1.788    -18.197    -3.612
    411    C    0.887    -18.368    -4.543
    412    H    1.103    -18.630    -5.577
    413    C    -2.380    -17.156    -5.087
    414    H    -2.237    -16.415    -4.273
    415    O    -3.756    -17.425    -5.255
    416    H    -3.867    -17.877    -6.097
    417    C    -1.749    -16.714    -6.398
    418    H    -0.708    -16.391    -6.202
    419    O    -2.517    -15.761    -7.166
    420    P    -2.133    -14.237    -7.037
    421    O    -0.675    -14.092    -7.189
    422    O    -2.968    -13.454    -7.968
    423    O    -2.509    -13.875    -5.550
    424    C    -3.908    -13.852    -5.179
    425    H    -4.382    -14.848    -5.338
    426    H    -4.464    -13.102    -5.793
    427    C    -4.100    -13.481    -3.706
    428    H    -5.181    -13.436    -3.454
    429    O    -3.505    -14.496    -2.848
    430    C    -2.896    -13.878    -1.726
    431    H    -3.360    -14.321    -0.812
    432    N    -1.458    -14.129    -1.697
    433    C    -0.636    -13.986    -0.615
    434    N    -0.208    -13.187    2.713
    435    H    -1.151    -13.004    2.963
    436    H    0.513    -13.217    3.411
    437    N    -1.005    -13.574    0.606
    438    C    -0.009    -13.583    1.473
    439    N    1.275    -13.921    1.132
    440    H    1.979    -13.894    1.851
    441    C    1.702    -14.301    -0.136
    442    O    2.888    -14.566    -0.360
    443    C    0.625    -14.318    -1.064
    444    N    0.598    -14.645    -2.417
    445    C    -0.666    -14.525    -2.746
    446    H    -1.090    -14.697    -3.739
    447    C    -3.201    -12.399    -1.798
    448    H    -2.369    -11.769    -1.438
    449    O    -4.336    -12.102    -1.025
    450    H    -5.036    -12.761    -1.135
    451    C    -3.416    -12.176    -3.289
    452    H    -2.439    -12.116    -3.813
    453    O    -4.232    -11.033    -3.616
    454    H    -3.796    -10.226    -3.304
    455    H    7.914    -14.316    8.126
    456    O    6.971    -14.261    7.882
    457    C    6.315    -13.526    8.927
    458    H    6.806    -12.534    9.047
    459    H    6.423    -14.075    9.888
    460    C    4.821    -13.295    8.668
    461    H    4.338    -12.815    9.545
    462    O    4.648    -12.394    7.532
    463    C    3.545    -12.841    6.754
    464    H    2.858    -11.968    6.670
    465    N    3.937    -13.285    5.388
    466    C    5.248    -13.608    5.107
    467    H    5.956    -13.514    5.932
    468    C    5.624    -13.999    3.883
    469    H    6.654    -14.246    3.641
    470    C    2.978    -13.364    4.382
    471    O    1.802    -13.054    4.635
    472    N    3.341    -13.765    3.144
    473    C    4.624    -14.068    2.875
    474    N    4.955    -14.437    1.641
    475    H    4.243    -14.489    0.935
    476    H    5.902    -14.624    1.380
    477    C    2.848    -13.929    7.544
    478    H    2.345    -14.675    6.897
    479    O    1.917    -13.349    8.435
    480    H    1.573    -14.066    8.982
    481    C    4.015    -14.549    8.303
    482    H    4.646    -15.138    7.603
    483    O    3.668    -15.281    9.507
    484    P    3.323    -16.816    9.370
    485    O    4.401    -17.477    8.600
    486    O    3.062    -17.351    10.721
    487    O    1.987    -16.854    8.535
    488    C    0.744    -16.400    9.119
    489    H    0.826    -15.368    9.528
    490    H    0.446    -17.066    9.965
    491    C    -0.395    -16.416    8.091
    492    H    -1.339    -16.031    8.538
    493    O    -0.088    -15.566    6.937
    494    C    -0.601    -16.191    5.756
    495    H    -1.308    -15.466    5.285
    496    N    0.459    -16.552    4.755
    497    C    1.757    -16.726    5.181
    498    H    1.933    -16.552    6.241
    499    C    2.743    -17.034    4.328
    500    H    3.783    -17.129    4.642
    501    C    0.146    -16.756    3.404
    502    O    -1.023    -16.609    3.014
    503    N    1.131    -17.098    2.535
    504    C    2.401    -17.211    2.957
    505    N    3.363    -17.477    2.071
    506    H    3.113    -17.607    1.108
    507    H    4.310    -17.638    2.349
    508    C    -1.383    -17.410    6.212
    509    H    -1.346    -18.225    5.464
    510    O    -2.717    -17.053    6.492
    511    H    -3.204    -17.881    6.579
    512    C    -0.669    -17.802    7.496
    513    H    0.321    -18.250    7.271
    514    O    -1.445    -18.594    8.428
    515    P    -1.365    -20.164    8.443
    516    O    0.006    -20.582    8.075
    517    O    -1.891    -20.665    9.735
    518    O    -2.314    -20.658    7.296
    519    C    -3.679    -20.243    7.106
    520    H    -3.851    -19.190    7.434
    521    H    -4.348    -20.885    7.713
    522    C    -4.102    -20.373    5.631
    523    H    -5.133    -19.975    5.499
    524    O    -3.232    -19.556    4.796
    525    C    -2.983    -20.207    3.566
    526    H    -3.259    -19.476    2.768
    527    N    -1.542    -20.593    3.416
    528    C    -0.682    -20.683    4.485
    529    H    -1.118    -20.444    5.449
    530    C    -1.070    -20.760    2.143
    531    O    -1.794    -20.640    1.170
    532    N    0.265    -21.040    2.023
    533    H    0.625    -21.154    1.083
    534    C    1.191    -21.032    3.037
    535    O    2.387    -21.114    2.781
    536    C    0.635    -20.900    4.349
    537    H    1.309    -20.894    5.205
    538    C    -3.950    -21.379    3.507
    539    H    -3.570    -22.223    2.895
    540    O    -5.184    -20.906    2.987
    541    H    -5.338    -20.033    3.367
    542    C    -4.063    -21.756    4.985
    543    H    -3.126    -22.233    5.345
    544    O    -5.256    -22.490    5.343
    545    P    -5.211    -24.060    5.477
    546    O    -3.979    -24.455    6.197
    547    O    -6.484    -24.512    6.079
    548    O    -5.115    -24.620    4.007
    549    C    -6.036    -24.210    2.965
    550    H    -6.163    -23.106    2.930
    551    H    -7.048    -24.640    3.145
    552    C    -5.571    -24.648    1.563
    553    H    -6.262    -24.244    0.794
    554    O    -4.253    -24.111    1.266
    555    C    -3.356    -25.170    1.030
    556    H    -3.288    -25.274    -0.077
    557    N    -2.054    -24.868    1.617
    558    C    0.082    -24.467    1.926
    559    N    -0.516    -24.341    3.179
    560    C    -1.787    -24.589    2.937
    561    H    -2.590    -24.564    3.679
    562    N    1.695    -24.565    0.190
    563    C    0.697    -24.896    -0.611
    564    H    0.995    -25.076    -1.644
    565    N    -0.603    -25.033    -0.343
    566    C    -0.853    -24.795    0.960
    567    C    1.422    -24.345    1.492
    568    N    2.460    -24.047    2.278
    569    H    2.340    -23.769    3.232
    570    H    3.288    -23.712    1.798
    571    C    -3.976    -26.411    1.634
    572    H    -3.799    -26.453    2.733
    573    O    -3.502    -27.583    1.017
    574    H    -3.802    -27.579    0.097
    575    C    -5.464    -26.172    1.384
    576    H    -6.056    -26.619    2.213
    577    O    -5.951    -26.591    0.085
    578    P    -6.790    -27.918    -0.057
    579    O    -5.983    -29.038    0.446
    580    O    -8.121    -27.756    0.572
    581    O    -6.936    -28.089    -1.614
    582    C    -8.196    -27.936    -2.299
    583    H    -8.818    -27.133    -1.840
    584    H    -8.767    -28.887    -2.244
    585    C    -8.006    -27.585    -3.782
    586    H    -8.977    -27.591    -4.320
    587    O    -7.491    -26.230    -3.865
    588    C    -6.461    -26.160    -4.838
    589    H    -6.701    -25.308    -5.516
    590    N    -5.159    -25.925    -4.207
    591    C    -3.054    -25.456    -3.835
    592    N    -3.607    -25.715    -2.598
    593    C    -4.855    -25.974    -2.868
    594    H    -5.628    -26.171    -2.134
    595    N    -1.508    -24.945    -5.553
    596    C    -2.523    -25.090    -6.413
    597    H    -2.270    -24.950    -7.469
    598    N    -3.806    -25.382    -6.162
    599    C    -3.995    -25.578    -4.836
    600    C    -1.753    -25.111    -4.225
    601    N    -0.768    -24.962    -3.331
    602    H    -0.983    -24.958    -2.345
    603    H    0.169    -24.805    -3.651
    604    C    -6.493    -27.451    -5.618
    605    H    -5.487    -27.749    -5.977
    606    O    -7.377    -27.321    -6.721
    607    H    -7.567    -28.210    -7.059
    608    C    -6.998    -28.436    -4.570
    609    H    -6.170    -28.681    -3.864