!*** FMO 5.3 (Gamess) INPUT generated by Facio 22.1.1.32 ***
 $CONTRL RUNTYP=ENERGY NPRINT=-5 ISPHER=1 MAXIT=200 $END
 $SYSTEM MWORDS=63 MEMDDI=63 $END
 $GDDI NGROUP=1 $END
 $SCF DIRSCF=.TRUE. NPUNCH=0 $END
!*** NumCPU : 2  MemPerNode : 512MB
 $PCM SOLVNT=WATER IEF=-10 ICOMP=2 ICAV=1 IDISP=1 IFMO=-1 $END
 $PCMCAV RADII=SUAHF $END
 $TESCAV NTSALL=60 $END
 $FMOPRP
    NAODIR=200
    NGRFMO(1)=1, 1, 0, 0, 0,   0, 0, 0, 0, 0
    IPIEDA=1
    NPRINT=9
 $END
 $FMO
      SCFTYP(1)=RHF
      MODGRD=10
      MODMUL=0
      MAXCAO=5
      MAXBND=23
      NLAYER=1
      MPLEVL(1)=2
      NFRAG=21
      ICHARG(1)=-1, -1, -1, -1, -1, -1, -1, 0, -1, -1, -1, -1, -1, 0, -1,
-1, -1, -1, -1, -1, 0
      FRGNAM(1)=F1, F2, F3, F4, F5, F6, F7, F8, F9, F10, F11, F12, F13,
F14, F15, F16, F17, F18, F19, F20, F21
      indat(1)=0
               1   -36   0
               37   -70   0
               71   -104   0
               105   -137   0
               138   -170   0
               171   -203   0
               204   -234   0
               235   -263   0
               264   -296   0
               297   -326   0
               327   -359   0
               360   -389   0
               390   -423   0
               424   -456   0
               457   -487   0
               488   -518   0
               519   -548   0
               549   -581   0
               582   -614   0
               615   -648   0
               649   -675   0
 $END

 $FMOBND
   -37   36       6-31G*    MINI
   -71   70       6-31G*    MINI
   -105   104       6-31G*    MINI
   -138   137       6-31G*    MINI
   -171   170       6-31G*    MINI
   -204   203       6-31G*    MINI
   -235   234       6-31G*    MINI
   -264   263       6-31G*    MINI
   -297   296       6-31G*    MINI
   -327   326       6-31G*    MINI
   -360   359       6-31G*    MINI
   -390   389       6-31G*    MINI
   -424   423       6-31G*    MINI
   -457   456       6-31G*    MINI
   -488   487       6-31G*    MINI
   -519   518       6-31G*    MINI
   -549   548       6-31G*    MINI
   -582   581       6-31G*    MINI
   -615   614       6-31G*    MINI
   -649   648       6-31G*    MINI
 $END
 $FMOHYB
 6-31G*      15   5
   1 0  -0.065034   0.288264   0.000000   0.000000   0.604412
         0.290129   0.000000   0.000000   0.319045  -0.017106
        -0.017106   0.057934   0.000000   0.000000   0.000000
   0 1  -0.065040   0.288293   0.569832   0.000000  -0.201456
         0.290147   0.300783   0.000000  -0.106342   0.049598
        -0.017106  -0.008771   0.000000  -0.027223   0.000000
   0 1  -0.065039   0.288293  -0.284916  -0.493490  -0.201455
         0.290145  -0.150392  -0.260486  -0.106340  -0.000427
         0.032923  -0.008771   0.033353   0.013612   0.023576
   0 1  -0.065039   0.288293  -0.284916   0.493490  -0.201455
         0.290145  -0.150392   0.260486  -0.106340  -0.000427
         0.032923  -0.008771  -0.033353   0.013612  -0.023576
   0 1   1.010938  -0.011975   0.000000   0.000000   0.000000
        -0.054085   0.000000   0.000000  -0.000000  -0.003174
        -0.003174  -0.003174   0.000000   0.000000   0.000000
 MINI         5   5
   1 0  -0.104883   0.308874   0.000000   0.000000   0.521806
   0 1  -0.104883   0.308874   0.491961   0.000000  -0.173934
   0 1  -0.104883   0.308876  -0.245980  -0.426050  -0.173933
   0 1  -0.104883   0.308876  -0.245980   0.426050  -0.173933
   0 1   0.988209   0.063992   0.000000   0.000000   0.000000
 $END
 
 $DATA
 FMO calculation
 C1 
 H.1-1    1
      N31 6
   
 O.1-1    8
      N31 6
      d 1
      1 0.800 1.0
   
 C.1-1    6
      N31 6
      d 1
      1 0.800 1.0
   
 N.1-1    7
      N31 6
      d 1
      1 0.800 1.0
   
 P.1-1   15
      N31 6
      d 1
      1 0.550 1.0
   
 $END
 $FMOXYZ
    1    H    -17.808    -7.038    -7.937
    2    O    -16.877    -6.752    -7.981
    3    C    -16.731    -6.018    -9.207
    4    H    -17.379    -5.117    -9.164
    5    H    -17.077    -6.646    -10.059
    6    C    -15.295    -5.561    -9.481
    7    H    -15.232    -5.003    -10.441
    8    O    -14.870    -4.644    -8.432
    9    C    -13.521    -4.924    -8.083
    10    H    -12.964    -3.966    -8.185
    11    N    -13.413    -5.384    -6.689
    12    C    -12.255    -5.517    -5.969
    13    N    -8.801    -5.336    -5.760
    14    H    -8.090    -5.444    -5.070
    15    H    -8.549    -4.985    -6.662
    16    N    -11.011    -5.277    -6.425
    17    C    -10.083    -5.498    -5.496
    18    N    -10.375    -5.881    -4.214
    19    H    -9.608    -6.001    -3.575
    20    C    -11.650    -6.108    -3.709
    21    O    -11.804    -6.434    -2.526
    22    C    -12.649    -5.910    -4.702
    23    N    -14.032    -6.044    -4.632
    24    C    -14.443    -5.735    -5.841
    25    H    -15.484    -5.730    -6.178
    26    C    -12.979    -5.927    -9.082
    27    H    -12.227    -6.615    -8.636
    28    O    -12.406    -5.249    -10.187
    29    H    -12.260    -5.905    -10.883
    30    C    -14.242    -6.679    -9.481
    31    H    -14.535    -7.382    -8.663
    32    O    -14.181    -7.304    -10.787
    33    P    -13.863    -8.846    -10.861
    34    O    -14.847    -9.559    -10.019
    35    O    -13.745    -9.266    -12.278
    36    O    -12.451    -8.974    -10.169
    37    C    -11.263    -8.630    -10.921
    38    H    -11.227    -7.535    -11.126
    39    H    -11.238    -9.157    -11.905
    40    C    -9.985    -9.003    -10.163
    41    H    -9.083    -8.790    -10.778
    42    O    -9.887    -8.183    -8.968
    43    C    -9.288    -8.940    -7.929
    44    H    -8.370    -8.387    -7.625
    45    N    -10.177    -9.052    -6.769
    46    C    -9.798    -9.382    -5.497
    47    N    -7.330    -10.275    -3.239
    48    H    -6.518    -10.293    -3.820
    49    H    -7.237    -10.459    -2.253
    50    N    -8.550    -9.673    -5.098
    51    C    -8.479    -9.941    -3.797
    52    N    -9.567    -9.906    -2.968
    53    H    -9.432    -10.128    -1.993
    54    C    -10.868    -9.610    -3.352
    55    O    -11.788    -9.611    -2.529
    56    C    -10.950    -9.330    -4.743
    57    N    -12.039    -8.982    -5.531
    58    C    -11.535    -8.837    -6.732
    59    H    -12.091    -8.562    -7.631
    60    C    -8.903    -10.293    -8.496
    61    H    -9.011    -11.116    -7.757
    62    O    -7.570    -10.247    -8.969
    63    H    -7.412    -11.059    -9.471
    64    C    -9.898    -10.444    -9.641
    65    H    -10.908    -10.687    -9.237
    66    O    -9.469    -11.335    -10.702
    67    P    -10.023    -12.815    -10.700
    68    O    -11.496    -12.785    -10.656
    69    O    -9.416    -13.518    -11.855
    70    O    -9.490    -13.466    -9.382
    71    C    -8.148    -13.988    -9.281
    72    H    -7.399    -13.179    -9.456
    73    H    -7.980    -14.804    -10.028
    74    C    -7.903    -14.564    -7.881
    75    H    -6.860    -14.926    -7.762
    76    O    -8.128    -13.523    -6.888
    77    C    -8.791    -14.081    -5.768
    78    H    -8.143    -13.844    -4.910
    79    N    -10.121    -13.473    -5.559
    80    C    -10.801    -13.343    -4.373
    81    N    -10.980    -13.819    -0.956
    82    H    -11.650    -13.710    -0.221
    83    H    -10.147    -14.355    -0.789
    84    N    -10.377    -13.757    -3.170
    85    C    -11.234    -13.463    -2.197
    86    N    -12.411    -12.794    -2.407
    87    H    -13.017    -12.646    -1.619
    88    C    -12.886    -12.366    -3.642
    89    O    -13.972    -11.788    -3.760
    90    C    -11.979    -12.694    -4.687
    91    N    -12.045    -12.424    -6.046
    92    C    -10.921    -12.898    -6.520
    93    H    -10.609    -12.840    -7.560
    94    C    -8.843    -15.585    -5.960
    95    H    -9.738    -16.064    -5.503
    96    O    -7.662    -16.138    -5.420
    97    H    -7.887    -16.558    -4.565
    98    C    -8.860    -15.695    -7.475
    99    H    -9.869    -15.406    -7.855
    100    O    -8.388    -16.960    -7.995
    101    P    -9.439    -18.034    -8.476
    102    O    -10.425    -17.375    -9.357
    103    O    -8.714    -19.173    -9.079
    104    O    -10.168    -18.558    -7.182
    105    C    -11.225    -19.551    -7.311
    106    H    -11.245    -20.053    -8.313
    107    H    -12.209    -19.048    -7.175
    108    C    -11.110    -20.657    -6.254
    109    H    -11.982    -21.342    -6.286
    110    O    -9.930    -21.458    -6.551
    111    C    -9.241    -21.771    -5.352
    112    H    -9.133    -22.880    -5.327
    113    N    -7.901    -21.162    -5.337
    114    C    -5.840    -20.578    -4.823
    115    N    -6.084    -20.044    -6.081
    116    C    -7.315    -20.424    -6.342
    117    H    -7.864    -20.196    -7.256
    118    N    -4.794    -21.201    -2.806
    119    C    -5.958    -21.738    -2.450
    120    H    -5.979    -22.190    -1.455
    121    N    -7.073    -21.884    -3.159
    122    C    -6.953    -21.264    -4.349
    123    C    -4.695    -20.580    -4.002
    124    N    -3.524    -20.003    -4.313
    125    H    -3.386    -19.441    -5.127
    126    H    -2.815    -20.023    -3.593
    127    C    -10.114    -21.324    -4.201
    128    H    -9.522    -20.971    -3.334
    129    O    -10.952    -22.393    -3.798
    130    H    -11.566    -22.035    -3.145
    131    C    -10.902    -20.185    -4.804
    132    H    -10.251    -19.279    -4.859
    133    O    -12.171    -19.962    -4.141
    134    P    -12.344    -18.669    -3.254
    135    O    -11.685    -17.537    -3.924
    136    O    -13.795    -18.531    -2.994
    137    O    -11.628    -18.947    -1.880
    138    C    -11.849    -20.114    -1.058
    139    H    -12.041    -21.028    -1.668
    140    H    -12.732    -19.956    -0.398
    141    C    -10.651    -20.393    -0.123
    142    H    -10.860    -21.260    0.538
    143    O    -9.482    -20.724    -0.924
    144    C    -8.335    -20.067    -0.409
    145    H    -7.548    -20.843    -0.275
    146    N    -7.827    -19.066    -1.354
    147    C    -6.535    -17.733    -2.525
    148    N    -7.777    -17.671    -3.121
    149    C    -8.503    -18.469    -2.391
    150    H    -9.547    -18.678    -2.587
    151    N    -4.260    -17.384    -2.065
    152    C    -4.413    -18.214    -1.036
    153    H    -3.516    -18.381    -0.435
    154    N    -5.508    -18.869    -0.633
    155    C    -6.545    -18.593    -1.436
    156    C    -5.318    -17.110    -2.844
    157    N    -5.156    -16.248    -3.857
    158    H    -5.889    -16.047    -4.513
    159    H    -4.266    -15.782    -3.932
    160    C    -8.703    -19.508    0.947
    161    H    -8.155    -18.569    1.149
    162    O    -8.411    -20.470    1.960
    163    H    -7.438    -20.474    2.030
    164    C    -10.195    -19.221    0.768
    165    H    -10.317    -18.307    0.144
    166    O    -10.967    -19.184    1.993
    167    P    -11.388    -17.812    2.641
    168    O    -11.912    -16.946    1.568
    169    O    -12.296    -18.067    3.785
    170    O    -10.068    -17.175    3.203
    171    C    -9.259    -17.817    4.214
    172    H    -9.171    -18.916    4.036
    173    H    -9.723    -17.675    5.215
    174    C    -7.839    -17.232    4.245
    175    H    -7.217    -17.723    5.019
    176    O    -7.202    -17.483    2.964
    177    C    -6.412    -16.383    2.578
    178    H    -5.384    -16.765    2.378
    179    N    -6.939    -15.741    1.361
    180    C    -7.204    -14.643    -0.527
    181    N    -8.452    -15.146    -0.196
    182    C    -8.238    -15.789    0.917
    183    H    -9.003    -16.341    1.456
    184    N    -5.438    -13.645    -1.726
    185    C    -4.631    -14.096    -0.764
    186    H    -3.572    -13.900    -0.912
    187    N    -4.947    -14.677    0.397
    188    C    -6.259    -14.989    0.425
    189    C    -6.755    -13.912    -1.632
    190    N    -7.554    -13.486    -2.612
    191    H    -8.528    -13.743    -2.662
    192    H    -7.140    -12.967    -3.352
    193    C    -6.401    -15.447    3.751
    194    H    -6.350    -14.415    3.412
    195    O    -5.283    -15.690    4.570
    196    H    -5.326    -16.568    4.974
    197    C    -7.732    -15.719    4.435
    198    H    -8.569    -15.267    3.860
    199    O    -7.784    -15.374    5.838
    200    P    -8.032    -13.868    6.254
    201    O    -9.091    -13.324    5.375
    202    O    -8.322    -13.832    7.711
    203    O    -6.688    -13.062    6.013
    204    C    -6.732    -11.666    5.586
    205    H    -6.325    -11.013    6.389
    206    H    -7.762    -11.295    5.366
    207    C    -5.879    -11.434    4.333
    208    H    -4.825    -11.743    4.505
    209    O    -6.408    -12.250    3.266
    210    C    -6.402    -11.557    2.047
    211    H    -5.879    -12.218    1.318
    212    N    -7.786    -11.288    1.559
    213    C    -8.878    -11.610    2.348
    214    H    -8.669    -12.026    3.341
    215    C    -10.129    -11.411    1.920
    216    H    -10.998    -11.657    2.525
    217    C    -7.992    -10.801    0.271
    218    O    -7.018    -10.581    -0.462
    219    N    -9.251    -10.582    -0.167
    220    C    -10.303    -10.885    0.610
    221    N    -11.527    -10.687    0.132
    222    H    -11.637    -10.265    -0.771
    223    H    -12.347    -10.902    0.665
    224    C    -5.577    -10.314    2.287
    225    H    -5.852    -9.474    1.619
    226    O    -4.204    -10.634    2.137
    227    H    -3.972    -10.624    1.189
    228    C    -5.896    -10.016    3.747
    229    H    -6.933    -9.626    3.863
    230    O    -4.908    -9.205    4.408
    231    P    -5.022    -7.648    4.385
    232    O    -6.355    -7.300    4.921
    233    O    -3.851    -7.077    5.088
    234    O    -4.996    -7.155    2.887
    235    C    -3.814    -7.259    2.065
    236    H    -3.422    -8.300    2.049
    237    H    -3.003    -6.610    2.469
    238    C    -4.090    -6.812    0.615
    239    H    -3.163    -6.864    0.009
    240    O    -5.062    -7.691    -0.020
    241    C    -5.964    -6.935    -0.819
    242    H    -5.902    -7.379    -1.840
    243    N    -7.373    -7.027    -0.323
    244    C    -7.632    -7.361    0.987
    245    H    -6.758    -7.585    1.590
    246    C    -8.411    -6.805    -1.205
    247    O    -8.231    -6.513    -2.382
    248    N    -9.672    -6.933    -0.668
    249    H    -10.455    -6.786    -1.290
    250    C    -9.993    -7.258    0.633
    251    O    -11.170    -7.340    0.978
    252    C    -8.868    -7.473    1.487
    253    H    -9.039    -7.750    2.524
    254    C    -5.437    -5.507    -0.862
    255    H    -6.258    -4.762    -0.901
    256    O    -4.582    -5.335    -1.982
    257    H    -3.823    -5.930    -1.887
    258    C    -4.684    -5.408    0.467
    259    H    -5.405    -5.248    1.300
    260    O    -3.638    -4.417    0.501
    261    H    -4.030    -3.528    0.417
    262    H    4.984    -29.581    8.912
    263    O    5.348    -29.809    8.035
    264    C    6.719    -30.181    8.250
    265    H    6.769    -30.998    9.005
    266    H    7.279    -29.306    8.645
    267    C    7.417    -30.663    6.973
    268    H    8.477    -30.928    7.179
    269    O    6.763    -31.873    6.484
    270    C    6.738    -31.851    5.067
    271    H    7.238    -32.786    4.719
    272    N    5.361    -31.827    4.557
    273    C    3.567    -32.031    3.295
    274    N    3.121    -31.607    4.540
    275    C    4.219    -31.508    5.254
    276    H    4.262    -31.212    6.306
    277    N    3.641    -32.663    1.013
    278    C    4.971    -32.724    1.155
    279    H    5.528    -33.014    0.256
    280    N    5.714    -32.515    2.247
    281    C    4.946    -32.157    3.288
    282    C    2.889    -32.320    2.090
    283    N    1.550    -32.272    1.963
    284    H    0.960    -32.034    2.739
    285    H    1.110    -32.483    1.086
    286    C    7.552    -30.660    4.619
    287    H    7.172    -30.221    3.676
    288    O    8.905    -31.042    4.465
    289    H    9.403    -30.227    4.320
    290    C    7.389    -29.689    5.783
    291    H    6.371    -29.233    5.775
    292    O    8.454    -28.704    5.902
    293    P    8.266    -27.305    5.191
    294    O    6.980    -26.734    5.643
    295    O    9.470    -26.471    5.404
    296    O    8.136    -27.641    3.662
    297    C    9.257    -28.068    2.856
    298    H    9.755    -28.957    3.299
    299    H    10.026    -27.264    2.791
    300    C    8.823    -28.441    1.425
    301    H    9.685    -28.817    0.834
    302    O    7.828    -29.505    1.470
    303    C    6.851    -29.298    0.462
    304    H    6.856    -30.225    -0.154
    305    N    5.479    -29.085    1.018
    306    C    5.299    -28.758    2.342
    307    H    6.214    -28.626    2.915
    308    C    4.394    -29.243    0.181
    309    O    4.503    -29.514    -1.009
    310    N    3.170    -29.070    0.775
    311    H    2.362    -29.258    0.198
    312    C    2.919    -28.828    2.106
    313    O    1.762    -28.773    2.510
    314    C    4.090    -28.653    2.911
    315    H    3.976    -28.471    3.977
    316    C    7.329    -28.134    -0.376
    317    H    6.486    -27.529    -0.757
    318    O    8.127    -28.607    -1.451
    319    H    8.543    -27.832    -1.849
    320    C    8.144    -27.323    0.625
    321    H    7.475    -26.788    1.337
    322    O    9.137    -26.459    0.030
    323    P    8.769    -24.980    -0.373
    324    O    8.347    -24.246    0.839
    325    O    9.931    -24.427    -1.103
    326    O    7.548    -25.079    -1.353
    327    C    7.701    -25.513    -2.726
    328    H    8.225    -26.490    -2.790
    329    H    8.304    -24.779    -3.324
    330    C    6.327    -25.669    -3.395
    331    H    6.423    -26.072    -4.426
    332    O    5.466    -26.578    -2.645
    333    C    4.153    -26.059    -2.614
    334    H    3.502    -26.876    -2.995
    335    N    3.735    -25.723    -1.236
    336    C    2.520    -25.342    0.565
    337    N    3.848    -25.282    0.971
    338    C    4.527    -25.517    -0.127
    339    H    5.615    -25.560    -0.184
    340    N    0.152    -25.364    0.552
    341    C    0.237    -25.582    -0.760
    342    H    -0.719    -25.675    -1.286
    343    N    1.327    -25.718    -1.524
    344    C    2.441    -25.603    -0.791
    345    C    1.299    -25.219    1.266
    346    N    1.217    -24.943    2.582
    347    H    2.025    -24.831    3.170
    348    H    0.317    -24.870    3.014
    349    C    4.109    -24.878    -3.572
    350    H    3.374    -24.096    -3.283
    351    O    3.857    -25.326    -4.894
    352    H    3.146    -25.971    -4.921
    353    C    5.537    -24.364    -3.456
    354    H    5.693    -23.857    -2.478
    355    O    6.010    -23.591    -4.572
    356    P    5.934    -22.029    -4.536
    357    O    6.174    -21.539    -3.161
    358    O    6.846    -21.513    -5.581
    359    O    4.461    -21.659    -4.913
    360    C    3.820    -21.916    -6.172
    361    H    3.803    -23.009    -6.375
    362    H    4.371    -21.409    -6.995
    363    C    2.367    -21.402    -6.196
    364    H    1.905    -21.565    -7.193
    365    O    1.575    -22.139    -5.217
    366    C    0.658    -21.254    -4.589
    367    H    -0.354    -21.700    -4.732
    368    N    0.936    -21.102    -3.126
    369    C    2.194    -21.310    -2.618
    370    H    2.923    -21.664    -3.338
    371    C    -0.083    -20.685    -2.307
    372    O    -1.183    -20.371    -2.742
    373    N    0.194    -20.698    -0.963
    374    H    -0.558    -20.402    -0.366
    375    C    1.434    -20.911    -0.386
    376    O    1.569    -20.842    0.832
    377    C    2.482    -21.221    -1.314
    378    H    3.475    -21.442    -0.933
    379    C    0.718    -19.947    -5.345
    380    H    0.473    -19.092    -4.696
    381    O    -0.175    -19.964    -6.443
    382    H    -0.081    -19.114    -6.891
    383    C    2.169    -19.928    -5.799
    384    H    2.836    -19.745    -4.927
    385    O    2.443    -19.060    -6.922
    386    P    2.955    -17.590    -6.662
    387    O    3.978    -17.603    -5.596
    388    O    3.356    -16.998    -7.955
    389    O    1.707    -16.825    -6.113
    390    C    0.532    -16.569    -6.902
    391    H    0.193    -17.478    -7.453
    392    H    0.733    -15.778    -7.659
    393    C    -0.611    -16.090    -6.002
    394    H    -1.517    -15.886    -6.613
    395    O    -0.978    -17.135    -5.059
    396    C    -1.309    -16.539    -3.812
    397    H    -2.306    -16.935    -3.528
    398    N    -0.342    -16.888    -2.766
    399    C    -0.513    -16.755    -1.416
    400    N    -2.427    -15.890    1.319
    401    H    -3.255    -15.503    0.911
    402    H    -2.396    -16.042    2.313
    403    N    -1.581    -16.237    -0.790
    404    C    -1.463    -16.288    0.529
    405    N    -0.349    -16.746    1.173
    406    H    -0.361    -16.744    2.181
    407    C    0.772    -17.278    0.563
    408    O    1.727    -17.705    1.218
    409    C    0.649    -17.254    -0.849
    410    N    1.544    -17.661    -1.823
    411    C    0.924    -17.397    -2.943
    412    H    1.341    -17.554    -3.936
    413    C    -1.394    -15.053    -4.039
    414    H    -1.160    -14.468    -3.127
    415    O    -2.690    -14.712    -4.498
    416    H    -2.674    -13.761    -4.662
    417    C    -0.342    -14.855    -5.129
    418    H    0.686    -14.951    -4.695
    419    O    -0.521    -13.669    -5.940
    420    P    0.250    -12.359    -5.541
    421    O    1.664    -12.701    -5.276
    422    O    -0.004    -11.328    -6.571
    423    O    -0.437    -11.915    -4.198
    424    C    -1.806    -11.439    -4.207
    425    H    -2.509    -12.181    -4.652
    426    H    -1.891    -10.495    -4.795
    427    C    -2.279    -11.158    -2.782
    428    H    -3.343    -10.817    -2.778
    429    O    -2.204    -12.382    -2.000
    430    C    -1.808    -12.072    -0.674
    431    H    -2.610    -12.443    0.006
    432    N    -0.557    -12.756    -0.320
    433    C    -0.092    -12.984    0.945
    434    N    -0.537    -12.764    4.367
    435    H    -1.347    -12.188    4.429
    436    H    -0.026    -12.976    5.204
    437    N    -0.686    -12.592    2.079
    438    C    -0.049    -13.015    3.164
    439    N    1.133    -13.708    3.113
    440    H    1.580    -13.950    3.983
    441    C    1.793    -14.097    1.952
    442    O    2.855    -14.727    1.996
    443    C    1.082    -13.692    0.790
    444    N    1.361    -13.899    -0.557
    445    C    0.363    -13.316    -1.180
    446    H    0.220    -13.267    -2.262
    447    C    -1.727    -10.564    -0.565
    448    H    -0.938    -10.236    0.143
    449    O    -2.986    -10.061    -0.156
    450    H    -3.083    -9.140    -0.436
    451    C    -1.413    -10.168    -1.997
    452    H    -0.346    -10.376    -2.232
    453    O    -1.763    -8.810    -2.318
    454    H    -1.166    -8.203    -1.850
    455    H    5.127    -16.680    11.444
    456    O    4.367    -16.293    10.969
    457    C    3.671    -15.452    11.902
    458    H    4.372    -14.676    12.283
    459    H    3.346    -16.071    12.768
    460    C    2.430    -14.767    11.309
    461    H    1.865    -14.234    12.102
    462    O    2.827    -13.770    10.320
    463    C    1.914    -13.812    9.226
    464    H    1.527    -12.772    9.114
    465    N    2.562    -14.229    7.949
    466    C    3.749    -14.927    7.968
    467    H    4.173    -15.135    8.952
    468    C    4.369    -15.289    6.838
    469    H    5.316    -15.823    6.836
    470    C    1.963    -13.930    6.729
    471    O    0.883    -13.321    6.718
    472    N    2.574    -14.289    5.577
    473    C    3.749    -14.945    5.606
    474    N    4.334    -15.280    4.457
    475    H    3.858    -15.088    3.595
    476    H    5.175    -15.829    4.435
    477    C    0.762    -14.715    9.626
    478    H    0.303    -15.234    8.761
    479    O    -0.228    -13.970    10.310
    480    H    -0.905    -14.598    10.598
    481    C    1.465    -15.696    10.556
    482    H    2.094    -16.397    9.958
    483    O    0.604    -16.369    11.502
    484    P    0.075    -17.813    11.176
    485    O    1.167    -18.632    10.602
    486    O    -0.596    -18.371    12.373
    487    O    -0.988    -17.561    10.046
    488    C    -2.261    -16.955    10.364
    489    H    -2.136    -15.949    10.831
    490    H    -2.829    -17.592    11.076
    491    C    -3.128    -16.804    9.114
    492    H    -4.134    -16.407    9.377
    493    O    -2.506    -15.844    8.214
    494    C    -2.749    -16.241    6.872
    495    H    -3.294    -15.398    6.384
    496    N    -1.484    -16.521    6.119
    497    C    -0.352    -16.901    6.802
    498    H    -0.449    -16.943    7.886
    499    C    0.802    -17.147    6.166
    500    H    1.716    -17.407    6.696
    501    C    -1.452    -16.489    4.727
    502    O    -2.487    -16.255    4.102
    503    N    -0.297    -16.708    4.068
    504    C    0.809    -17.033    4.745
    505    N    1.918    -17.267    4.053
    506    H    1.884    -17.266    3.050
    507    H    2.778    -17.529    4.491
    508    C    -3.679    -17.442    6.931
    509    H    -3.507    -18.135    6.084
    510    O    -5.033    -17.034    6.964
    511    H    -5.554    -17.827    7.131
    512    C    -3.311    -18.076    8.263
    513    H    -2.330    -18.595    8.202
    514    O    -4.339    -18.913    8.841
    515    P    -4.534    -20.403    8.384
    516    O    -3.326    -21.169    8.765
    517    O    -5.827    -20.888    8.908
    518    O    -4.610    -20.345    6.820
    519    C    -5.841    -20.082    6.110
    520    H    -6.274    -19.102    6.397
    521    H    -6.604    -20.861    6.346
    522    C    -5.610    -20.105    4.591
    523    H    -6.532    -19.833    4.035
    524    O    -4.570    -19.177    4.168
    525    C    -3.854    -19.734    3.071
    526    H    -3.990    -19.033    2.212
    527    N    -2.395    -19.912    3.400
    528    C    -2.004    -20.105    4.707
    529    H    -2.813    -20.129    5.434
    530    C    -1.450    -19.894    2.392
    531    O    -1.723    -19.709    1.213
    532    N    -0.157    -20.094    2.802
    533    H    0.536    -20.175    2.070
    534    C    0.297    -20.302    4.082
    535    O    1.495    -20.483    4.292
    536    C    -0.726    -20.280    5.078
    537    H    -0.442    -20.441    6.116
    538    C    -4.528    -21.069    2.744
    539    H    -3.774    -21.818    2.427
    540    O    -5.498    -20.923    1.717
    541    H    -5.834    -21.794    1.472
    542    C    -5.139    -21.459    4.092
    543    H    -4.341    -21.810    4.781
    544    O    -6.257    -22.356    4.105
    545    P    -6.217    -23.838    3.623
    546    O    -6.335    -24.714    4.808
    547    O    -7.298    -23.922    2.623
    548    O    -4.770    -24.044    2.995
    549    C    -4.412    -25.200    2.201
    550    H    -4.313    -26.107    2.838
    551    H    -3.409    -25.017    1.744
    552    C    -5.394    -25.472    1.056
    553    H    -6.419    -25.621    1.440
    554    O    -5.413    -24.326    0.161
    555    C    -5.755    -24.772    -1.128
    556    H    -6.668    -24.213    -1.438
    557    N    -4.660    -24.521    -2.069
    558    C    -3.472    -24.082    -3.860
    559    N    -2.588    -24.044    -2.789
    560    C    -3.340    -24.307    -1.757
    561    H    -2.999    -24.318    -0.719
    562    N    -4.392    -23.990    -6.050
    563    C    -5.547    -24.360    -5.488
    564    H    -6.389    -24.481    -6.178
    565    N    -5.833    -24.584    -4.203
    566    C    -4.747    -24.409    -3.433
    567    C    -3.309    -23.831    -5.240
    568    N    -2.140    -23.441    -5.781
    569    H    -1.372    -23.166    -5.207
    570    H    -2.108    -23.237    -6.762
    571    C    -6.070    -26.232    -1.011
    572    H    -5.786    -26.765    -1.915
    573    O    -7.448    -26.431    -0.746
    574    H    -7.578    -27.367    -0.541
    575    C    -5.181    -26.674    0.145
    576    H    -4.106    -26.708    -0.139
    577    O    -5.641    -27.878    0.789
    578    P    -5.150    -29.286    0.298
    579    O    -3.736    -29.402    0.705
    580    O    -6.063    -30.326    0.828
    581    O    -5.208    -29.238    -1.275
    582    C    -6.407    -29.506    -2.031
    583    H    -7.254    -28.882    -1.665
    584    H    -6.703    -30.573    -1.914
    585    C    -6.232    -29.212    -3.541
    586    H    -7.223    -29.216    -4.045
    587    O    -5.654    -27.897    -3.756
    588    C    -4.724    -27.921    -4.807
    589    H    -5.024    -27.107    -5.507
    590    N    -3.364    -27.662    -4.324
    591    C    -1.245    -27.112    -4.285
    592    N    -1.576    -27.429    -2.978
    593    C    -2.841    -27.767    -3.054
    594    H    -3.449    -28.094    -2.209
    595    N    -0.047    -26.446    -6.216
    596    C    -1.192    -26.597    -6.883
    597    H    -1.136    -26.383    -7.955
    598    N    -2.383    -27.009    -6.435
    599    C    -2.337    -27.242    -5.117
    600    C    -0.044    -26.706    -4.892
    601    N    1.102    -26.481    -4.257
    602    H    1.068    -26.383    -3.251
    603    H    1.643    -25.810    -4.746
    604    C    -4.853    -29.260    -5.475
    605    H    -3.895    -29.615    -5.903
    606    O    -5.834    -29.178    -6.492
    607    H    -6.105    -30.080    -6.724
    608    C    -5.294    -30.140    -4.307