!*** FMO 5.3 (Gamess) INPUT generated by Facio 22.1.1.32 ***
 $CONTRL RUNTYP=ENERGY NPRINT=-5 ISPHER=1 MAXIT=200 $END
 $SYSTEM MWORDS=63 MEMDDI=63 $END
 $GDDI NGROUP=1 $END
 $SCF DIRSCF=.TRUE. NPUNCH=0 $END
!*** NumCPU : 2  MemPerNode : 512MB
 $PCM SOLVNT=WATER IEF=-10 ICOMP=2 ICAV=1 IDISP=1 IFMO=-1 $END
 $PCMCAV RADII=SUAHF $END
 $TESCAV NTSALL=60 $END
 $FMOPRP
    NAODIR=200
    NGRFMO(1)=1, 1, 0, 0, 0,   0, 0, 0, 0, 0
    IPIEDA=1
    NPRINT=9
 $END
 $FMO
      SCFTYP(1)=RHF
      MODGRD=10
      MODMUL=0
      MAXCAO=5
      MAXBND=23
      NLAYER=1
      MPLEVL(1)=2
      NFRAG=21
      ICHARG(1)=-1, -1, -1, -1, -1, -1, -1, 0, -1, -1, -1, -1, -1, 0, -1,
-1, -1, -1, -1, -1, 0
      FRGNAM(1)=F1, F2, F3, F4, F5, F6, F7, F8, F9, F10, F11, F12, F13,
F14, F15, F16, F17, F18, F19, F20, F21
      indat(1)=0
               1   -36   0
               37   -70   0
               71   -104   0
               105   -137   0
               138   -170   0
               171   -203   0
               204   -234   0
               235   -263   0
               264   -296   0
               297   -326   0
               327   -359   0
               360   -389   0
               390   -423   0
               424   -456   0
               457   -487   0
               488   -518   0
               519   -548   0
               549   -581   0
               582   -614   0
               615   -648   0
               649   -675   0
 $END

 $FMOBND
   -37   36       6-31G*    MINI
   -71   70       6-31G*    MINI
   -105   104       6-31G*    MINI
   -138   137       6-31G*    MINI
   -171   170       6-31G*    MINI
   -204   203       6-31G*    MINI
   -235   234       6-31G*    MINI
   -264   263       6-31G*    MINI
   -297   296       6-31G*    MINI
   -327   326       6-31G*    MINI
   -360   359       6-31G*    MINI
   -390   389       6-31G*    MINI
   -424   423       6-31G*    MINI
   -457   456       6-31G*    MINI
   -488   487       6-31G*    MINI
   -519   518       6-31G*    MINI
   -549   548       6-31G*    MINI
   -582   581       6-31G*    MINI
   -615   614       6-31G*    MINI
   -649   648       6-31G*    MINI
 $END
 $FMOHYB
 6-31G*      15   5
   1 0  -0.065034   0.288264   0.000000   0.000000   0.604412
         0.290129   0.000000   0.000000   0.319045  -0.017106
        -0.017106   0.057934   0.000000   0.000000   0.000000
   0 1  -0.065040   0.288293   0.569832   0.000000  -0.201456
         0.290147   0.300783   0.000000  -0.106342   0.049598
        -0.017106  -0.008771   0.000000  -0.027223   0.000000
   0 1  -0.065039   0.288293  -0.284916  -0.493490  -0.201455
         0.290145  -0.150392  -0.260486  -0.106340  -0.000427
         0.032923  -0.008771   0.033353   0.013612   0.023576
   0 1  -0.065039   0.288293  -0.284916   0.493490  -0.201455
         0.290145  -0.150392   0.260486  -0.106340  -0.000427
         0.032923  -0.008771  -0.033353   0.013612  -0.023576
   0 1   1.010938  -0.011975   0.000000   0.000000   0.000000
        -0.054085   0.000000   0.000000  -0.000000  -0.003174
        -0.003174  -0.003174   0.000000   0.000000   0.000000
 MINI         5   5
   1 0  -0.104883   0.308874   0.000000   0.000000   0.521806
   0 1  -0.104883   0.308874   0.491961   0.000000  -0.173934
   0 1  -0.104883   0.308876  -0.245980  -0.426050  -0.173933
   0 1  -0.104883   0.308876  -0.245980   0.426050  -0.173933
   0 1   0.988209   0.063992   0.000000   0.000000   0.000000
 $END
 
 $DATA
 FMO calculation
 C1 
 H.1-1    1
      N31 6
   
 O.1-1    8
      N31 6
      d 1
      1 0.800 1.0
   
 C.1-1    6
      N31 6
      d 1
      1 0.800 1.0
   
 N.1-1    7
      N31 6
      d 1
      1 0.800 1.0
   
 P.1-1   15
      N31 6
      d 1
      1 0.550 1.0
   
 $END
 $FMOXYZ
    1    H    -18.529    -8.812    -8.751
    2    O    -17.644    -8.400    -8.824
    3    C    -17.566    -7.814    -10.133
    4    H    -18.279    -6.961    -10.183
    5    H    -17.878    -8.560    -10.898
    6    C    -16.165    -7.296    -10.482
    7    H    -16.152    -6.837    -11.492
    8    O    -15.781    -6.259    -9.530
    9    C    -14.416    -6.431    -9.170
    10    H    -13.916    -5.456    -9.367
    11    N    -14.262    -6.747    -7.741
    12    C    -13.085    -6.754    -7.038
    13    N    -9.651    -6.342    -6.928
    14    H    -8.926    -6.306    -6.243
    15    H    -9.447    -6.081    -7.872
    16    N    -11.867    -6.486    -7.539
    17    C    -10.914    -6.554    -6.613
    18    N    -11.162    -6.827    -5.293
    19    H    -10.380    -6.849    -4.662
    20    C    -12.413    -7.095    -4.746
    21    O    -12.540    -7.320    -3.537
    22    C    -13.434    -7.051    -5.734
    23    N    -14.806    -7.234    -5.617
    24    C    -15.258    -7.046    -6.837
    25    H    -16.304    -7.116    -7.148
    26    C    -13.827    -7.488    -10.079
    27    H    -13.031    -8.086    -9.586
    28    O    -13.312    -6.873    -11.244
    29    H    -13.153    -7.571    -11.894
    30    C    -15.043    -8.347    -10.397
    31    H    -15.287    -8.991    -9.517
    32    O    -14.941    -9.085    -11.644
    33    P    -14.498    -10.607    -11.570
    34    O    -15.440    -11.306    -10.672
    35    O    -14.412    -11.124    -12.957
    36    O    -13.063    -10.606    -10.919
    37    C    -11.926    -10.163    -11.697
    38    H    -12.026    -9.089    -11.976
    39    H    -11.834    -10.756    -12.637
    40    C    -10.614    -10.324    -10.919
    41    H    -9.745    -10.064    -11.558
    42    O    -10.594    -9.403    -9.795
    43    C    -9.916    -10.013    -8.705
    44    H    -9.058    -9.349    -8.451
    45    N    -10.790    -10.133    -7.533
    46    C    -10.379    -10.340    -6.245
    47    N    -7.820    -10.829    -3.958
    48    H    -7.008    -10.813    -4.542
    49    H    -7.707    -10.933    -2.964
    50    N    -9.102    -10.459    -5.839
    51    C    -9.001    -10.650    -4.527
    52    N    -10.088    -10.672    -3.691
    53    H    -9.928    -10.808    -2.705
    54    C    -11.413    -10.525    -4.081
    55    O    -12.322    -10.560    -3.248
    56    C    -11.528    -10.351    -5.485
    57    N    -12.648    -10.162    -6.284
    58    C    -12.162    -10.045    -7.496
    59    H    -12.746    -9.889    -8.407
    60    C    -9.394    -11.361    -9.170
    61    H    -9.424    -12.132    -8.369
    62    O    -8.070    -11.231    -9.651
    63    H    -7.849    -12.052    -10.111
    64    C    -10.363    -11.703    -10.292
    65    H    -11.336    -12.029    -9.854
    66    O    -9.832    -12.621    -11.284
    67    P    -10.300    -14.126    -11.220
    68    O    -11.774    -14.185    -11.175
    69    O    -9.658    -14.845    -12.346
    70    O    -9.729    -14.669    -9.857
    71    C    -8.315    -14.951    -9.705
    72    H    -7.703    -14.048    -9.928
    73    H    -7.990    -15.758    -10.401
    74    C    -7.987    -15.406    -8.274
    75    H    -6.898    -15.632    -8.168
    76    O    -8.305    -14.327    -7.348
    77    C    -8.874    -14.879    -6.172
    78    H    -8.253    -14.474    -5.351
    79    N    -10.251    -14.434    -5.966
    80    C    -10.876    -14.286    -4.757
    81    N    -10.827    -14.473    -1.306
    82    H    -11.481    -14.374    -0.556
    83    H    -9.941    -14.914    -1.126
    84    N    -10.337    -14.545    -3.553
    85    C    -11.179    -14.276    -2.559
    86    N    -12.452    -13.804    -2.751
    87    H    -13.052    -13.709    -1.947
    88    C    -13.040    -13.552    -3.985
    89    O    -14.203    -13.148    -4.080
    90    C    -12.143    -13.821    -5.054
    91    N    -12.311    -13.684    -6.428
    92    C    -11.156    -14.051    -6.926
    93    H    -10.896    -14.051    -7.983
    94    C    -8.712    -16.387    -6.230
    95    H    -9.520    -16.941    -5.704
    96    O    -7.444    -16.733    -5.681
    97    H    -7.540    -16.960    -4.741
    98    C    -8.777    -16.613    -7.741
    99    H    -9.820    -16.474    -8.103
    100    O    -8.177    -17.843    -8.208
    101    P    -9.100    -19.074    -8.521
    102    O    -10.259    -18.624    -9.321
    103    O    -8.256    -20.142    -9.107
    104    O    -9.629    -19.569    -7.120
    105    C    -10.674    -20.581    -7.084
    106    H    -10.744    -21.172    -8.031
    107    H    -11.658    -20.085    -6.931
    108    C    -10.457    -21.590    -5.948
    109    H    -11.280    -22.337    -5.905
    110    O    -9.232    -22.333    -6.207
    111    C    -8.482    -22.440    -5.007
    112    H    -8.231    -23.517    -4.875
    113    N    -7.235    -21.670    -5.091
    114    C    -5.198    -20.929    -4.713
    115    N    -5.583    -20.404    -5.940
    116    C    -6.793    -20.875    -6.120
    117    H    -7.418    -20.690    -6.992
    118    N    -3.904    -21.679    -2.890
    119    C    -4.982    -22.361    -2.506
    120    H    -4.869    -22.950    -1.589
    121    N    -6.209    -22.347    -3.018
    122    C    -6.222    -21.688    -4.176
    123    C    -3.975    -20.917    -4.000
    124    N    -2.892    -20.203    -4.350
    125    H    -2.879    -19.545    -5.098
    126    H    -2.093    -20.280    -3.745
    127    C    -9.367    -22.004    -3.868
    128    H    -8.787    -21.535    -3.049
    129    O    -10.110    -23.101    -3.365
    130    H    -10.746    -22.733    -2.739
    131    C    -10.265    -20.986    -4.545
    132    H    -9.702    -20.032    -4.687
    133    O    -11.538    -20.816    -3.884
    134    P    -11.917    -19.456    -3.192
    135    O    -11.370    -18.348    -3.993
    136    O    -13.376    -19.459    -2.955
    137    O    -11.163    -19.530    -1.812
    138    C    -11.404    -20.578    -0.845
    139    H    -11.624    -21.559    -1.330
    140    H    -12.278    -20.310    -0.207
    141    C    -10.198    -20.769    0.088
    142    H    -10.391    -21.603    0.801
    143    O    -9.020    -21.138    -0.686
    144    C    -7.885    -20.453    -0.187
    145    H    -7.115    -21.224    0.032
    146    N    -7.335    -19.528    -1.193
    147    C    -5.976    -18.296    -2.409
    148    N    -7.228    -18.160    -2.989
    149    C    -7.995    -18.904    -2.233
    150    H    -9.057    -19.057    -2.403
    151    N    -3.692    -18.010    -1.925
    152    C    -3.903    -18.784    -0.866
    153    H    -3.024    -18.952    -0.239
    154    N    -5.011    -19.433    -0.482
    155    C    -6.024    -19.134    -1.303
    156    C    -4.730    -17.735    -2.741
    157    N    -4.545    -16.941    -3.814
    158    H    -5.297    -16.708    -4.425
    159    H    -3.685    -16.428    -3.899
    160    C    -8.287    -19.774    1.111
    161    H    -7.751    -18.815    1.237
    162    O    -8.045    -20.614    2.230
    163    H    -8.517    -20.233    2.980
    164    C    -9.779    -19.532    0.906
    165    H    -9.934    -18.644    0.244
    166    O    -10.542    -19.469    2.139
    167    P    -11.010    -18.081    2.712
    168    O    -11.617    -17.348    1.579
    169    O    -11.885    -18.310    3.879
    170    O    -9.711    -17.342    3.185
    171    C    -8.833    -17.877    4.206
    172    H    -8.683    -18.983    4.115
    173    H    -9.266    -17.702    5.213
    174    C    -7.475    -17.160    4.164
    175    H    -6.816    -17.494    4.988
    176    O    -6.804    -17.489    2.913
    177    C    -6.116    -16.357    2.423
    178    H    -5.053    -16.661    2.271
    179    N    -6.685    -15.892    1.145
    180    C    -7.006    -15.029    -0.854
    181    N    -8.237    -15.506    -0.439
    182    C    -7.992    -16.004    0.741
    183    H    -8.741    -16.486    1.366
    184    N    -5.294    -14.051    -2.155
    185    C    -4.468    -14.345    -1.146
    186    H    -3.420    -14.073    -1.290
    187    N    -4.741    -14.907    0.039
    188    C    -6.036    -15.254    0.111
    189    C    -6.597    -14.391    -2.037
    190    N    -7.417    -14.112    -3.055
    191    H    -8.397    -14.350    -3.038
    192    H    -7.025    -13.666    -3.856
    193    C    -6.198    -15.296    3.492
    194    H    -6.239    -14.297    3.060
    195    O    -5.076    -15.352    4.333
    196    H    -5.135    -16.089    4.961
    197    C    -7.511    -15.627    4.205
    198    H    -8.376    -15.306    3.576
    199    O    -7.621    -15.165    5.580
    200    P    -8.039    -13.652    5.824
    201    O    -9.096    -13.338    4.834
    202    O    -8.450    -13.478    7.237
    203    O    -6.783    -12.729    5.552
    204    C    -6.934    -11.395    4.981
    205    H    -6.519    -10.645    5.688
    206    H    -8.000    -11.111    4.801
    207    C    -6.185    -11.250    3.652
    208    H    -5.116    -11.490    3.772
    209    O    -6.716    -12.194    2.706
    210    C    -6.751    -11.636    1.415
    211    H    -6.186    -12.336    0.754
    212    N    -8.143    -11.506    0.914
    213    C    -9.205    -11.817    1.745
    214    H    -8.966    -12.116    2.771
    215    C    -10.468    -11.752    1.314
    216    H    -11.311    -12.010    1.949
    217    C    -8.381    -11.174    -0.417
    218    O    -7.425    -10.988    -1.185
    219    N    -9.660    -11.069    -0.853
    220    C    -10.684    -11.365    -0.035
    221    N    -11.926    -11.311    -0.507
    222    H    -12.086    -10.983    -1.441
    223    H    -12.721    -11.529    0.063
    224    C    -6.010    -10.328    1.495
    225    H    -6.353    -9.580    0.753
    226    O    -4.641    -10.607    1.317
    227    H    -4.163    -9.792    1.115
    228    C    -6.285    -9.900    2.936
    229    H    -7.342    -9.566    3.059
    230    O    -5.309    -8.972    3.485
    231    P    -5.624    -7.434    3.318
    232    O    -6.977    -7.176    3.858
    233    O    -4.511    -6.669    3.925
    234    O    -5.651    -7.139    1.776
    235    C    -4.474    -7.187    0.946
    236    H    -3.985    -8.179    1.001
    237    H    -3.728    -6.432    1.282
    238    C    -4.800    -6.912    -0.530
    239    H    -3.880    -6.983    -1.149
    240    O    -5.739    -7.894    -1.054
    241    C    -6.682    -7.256    -1.900
    242    H    -6.606    -7.792    -2.875
    243    N    -8.073    -7.378    -1.371
    244    C    -8.291    -7.631    -0.036
    245    H    -7.397    -7.727    0.571
    246    C    -9.132    -7.310    -2.248
    247    O    -8.982    -7.128    -3.454
    248    N    -10.375    -7.468    -1.679
    249    H    -11.173    -7.426    -2.297
    250    C    -10.656    -7.719    -0.351
    251    O    -11.820    -7.830    0.028
    252    C    -9.508    -7.801    0.493
    253    H    -9.648    -7.985    1.556
    254    C    -6.224    -5.814    -2.085
    255    H    -7.084    -5.118    -2.175
    256    O    -5.392    -5.704    -3.231
    257    H    -4.598    -6.243    -3.087
    258    C    -5.460    -5.557    -0.787
    259    H    -6.172    -5.354    0.045
    260    O    -4.455    -4.529    -0.864
    261    H    -4.876    -3.682    -1.089
    262    H    3.529    -33.958    6.708
    263    O    3.839    -33.900    5.785
    264    C    5.134    -34.514    5.734
    265    H    5.044    -35.572    6.071
    266    H    5.816    -33.986    6.436
    267    C    5.750    -34.496    4.330
    268    H    6.759    -34.963    4.338
    269    O    4.914    -35.280    3.421
    270    C    4.893    -34.652    2.149
    271    H    5.231    -35.416    1.410
    272    N    3.541    -34.207    1.791
    273    C    1.754    -33.582    0.667
    274    N    1.362    -33.680    1.996
    275    C    2.454    -34.055    2.622
    276    H    2.536    -34.238    3.696
    277    N    1.760    -33.183    -1.670
    278    C    3.059    -33.500    -1.642
    279    H    3.578    -33.453    -2.606
    280    N    3.816    -33.864    -0.601
    281    C    3.096    -33.893    0.531
    282    C    1.056    -33.230    -0.510
    283    N    -0.259    -32.952    -0.538
    284    H    -0.815    -32.957    0.299
    285    H    -0.700    -32.659    -1.391
    286    C    5.894    -33.521    2.185
    287    H    5.608    -32.680    1.528
    288    O    7.169    -34.008    1.814
    289    H    7.800    -33.301    2.000
    290    C    5.861    -33.114    3.654
    291    H    4.920    -32.564    3.886
    292    O    7.045    -32.421    4.113
    293    P    7.113    -30.844    4.106
    294    O    5.918    -30.319    4.795
    295    O    8.427    -30.425    4.634
    296    O    7.019    -30.460    2.586
    297    C    8.115    -30.681    1.671
    298    H    8.467    -31.737    1.709
    299    H    8.975    -30.029    1.938
    300    C    7.712    -30.360    0.219
    301    H    8.545    -30.591    -0.482
    302    O    6.577    -31.187    -0.174
    303    C    5.682    -30.434    -0.977
    304    H    5.582    -31.003    -1.933
    305    N    4.336    -30.276    -0.345
    306    C    4.145    -30.543    0.993
    307    H    5.045    -30.783    1.550
    308    C    3.276    -29.900    -1.142
    309    O    3.395    -29.649    -2.338
    310    N    2.065    -29.828    -0.498
    311    H    1.254    -29.601    -1.060
    312    C    1.793    -30.153    0.813
    313    O    0.637    -30.123    1.224
    314    C    2.945    -30.500    1.585
    315    H    2.814    -30.726    2.641
    316    C    6.352    -29.107    -1.253
    317    H    5.623    -28.278    -1.315
    318    O    7.107    -29.201    -2.447
    319    H    7.665    -28.415    -2.483
    320    C    7.244    -28.919    -0.034
    321    H    6.640    -28.624    0.854
    322    O    8.381    -28.057    -0.259
    323    P    8.351    -26.532    0.137
    324    O    7.752    -26.384    1.479
    325    O    9.710    -25.980    -0.047
    326    O    7.390    -25.849    -0.900
    327    C    7.615    -25.881    -2.328
    328    H    8.018    -26.862    -2.652
    329    H    8.370    -25.111    -2.614
    330    C    6.324    -25.649    -3.147
    331    H    6.453    -26.013    -4.189
    332    O    5.186    -26.364    -2.580
    333    C    4.022    -25.579    -2.707
    334    H    3.262    -26.216    -3.217
    335    N    3.512    -25.173    -1.400
    336    C    2.201    -24.449    0.204
    337    N    3.430    -24.698    0.794
    338    C    4.170    -25.133    -0.196
    339    H    5.210    -25.454    -0.107
    340    N    -0.070    -23.914    -0.141
    341    C    0.107    -24.282    -1.411
    342    H    -0.783    -24.210    -2.049
    343    N    1.213    -24.733    -2.007
    344    C    2.240    -24.752    -1.145
    345    C    0.979    -23.975    0.718
    346    N    0.797    -23.607    2.001
    347    H    1.438    -23.930    2.700
    348    H    -0.144    -23.482    2.299
    349    C    4.376    -24.396    -3.581
    350    H    3.794    -23.480    -3.344
    351    O    4.182    -24.764    -4.936
    352    H    3.237    -24.764    -5.119
    353    C    5.853    -24.197    -3.242
    354    H    5.965    -23.755    -2.223
    355    O    6.628    -23.500    -4.246
    356    P    6.670    -21.931    -4.201
    357    O    6.817    -21.500    -2.791
    358    O    7.719    -21.438    -5.124
    359    O    5.265    -21.438    -4.680
    360    C    4.699    -21.686    -5.976
    361    H    4.782    -22.759    -6.258
    362    H    5.235    -21.088    -6.741
    363    C    3.217    -21.276    -6.021
    364    H    2.766    -21.521    -7.006
    365    O    2.458    -21.997    -4.998
    366    C    1.458    -21.135    -4.481
    367    H    0.487    -21.629    -4.682
    368    N    1.612    -20.911    -3.019
    369    C    2.854    -20.774    -2.439
    370    H    3.696    -20.806    -3.129
    371    C    0.467    -20.824    -2.259
    372    O    -0.653    -20.895    -2.753
    373    N    0.668    -20.650    -0.916
    374    H    -0.163    -20.600    -0.357
    375    C    1.872    -20.555    -0.260
    376    O    1.884    -20.416    0.960
    377    C    3.023    -20.632    -1.115
    378    H    4.014    -20.544    -0.671
    379    C    1.489    -19.861    -5.292
    380    H    1.194    -18.993    -4.682
    381    O    0.624    -19.958    -6.407
    382    H    0.737    -19.144    -6.911
    383    C    2.943    -19.791    -5.727
    384    H    3.597    -19.510    -4.870
    385    O    3.183    -18.984    -6.907
    386    P    3.479    -17.447    -6.712
    387    O    4.532    -17.294    -5.688
    388    O    3.737    -16.851    -8.038
    389    O    2.142    -16.863    -6.138
    390    C    0.961    -16.675    -6.947
    391    H    0.703    -17.600    -7.512
    392    H    1.122    -15.867    -7.697
    393    C    -0.243    -16.282    -6.080
    394    H    -1.163    -16.213    -6.701
    395    O    -0.487    -17.284    -5.055
    396    C    -0.883    -16.632    -3.852
    397    H    -1.836    -17.108    -3.535
    398    N    0.098    -16.810    -2.774
    399    C    -0.101    -16.565    -1.439
    400    N    -2.211    -15.698    1.165
    401    H    -3.077    -15.503    0.686
    402    H    -2.254    -15.884    2.151
    403    N    -1.212    -16.059    -0.876
    404    C    -1.175    -16.084    0.448
    405    N    -0.062    -16.465    1.150
    406    H    -0.109    -16.415    2.155
    407    C    1.143    -16.888    0.594
    408    O    2.117    -17.187    1.294
    409    C    1.072    -16.947    -0.821
    410    N    2.011    -17.377    -1.753
    411    C    1.397    -17.245    -2.899
    412    H    1.847    -17.429    -3.875
    413    C    -1.110    -15.182    -4.186
    414    H    -0.926    -14.507    -3.327
    415    O    -2.438    -15.021    -4.641
    416    H    -2.524    -14.097    -4.905
    417    C    -0.094    -14.969    -5.309
    418    H    0.944    -14.960    -4.902
    419    O    -0.367    -13.860    -6.198
    420    P    0.308    -12.469    -5.916
    421    O    1.753    -12.666    -5.675
    422    O    -0.056    -11.534    -7.004
    423    O    -0.388    -12.007    -4.582
    424    C    -1.781    -11.613    -4.637
    425    H    -2.419    -12.435    -5.027
    426    H    -1.910    -10.727    -5.303
    427    C    -2.297    -11.217    -3.252
    428    H    -3.359    -10.895    -3.300
    429    O    -2.231    -12.350    -2.348
    430    C    -1.829    -11.904    -1.065
    431    H    -2.621    -12.222    -0.346
    432    N    -0.552    -12.514    -0.672
    433    C    -0.073    -12.609    0.601
    434    N    -0.521    -12.132    3.997
    435    H    -1.356    -11.588    4.027
    436    H    -0.012    -12.286    4.847
    437    N    -0.673    -12.133    1.696
    438    C    -0.033    -12.456    2.813
    439    N    1.179    -13.092    2.818
    440    H    1.626    -13.248    3.707
    441    C    1.877    -13.512    1.691
    442    O    2.987    -14.049    1.780
    443    C    1.145    -13.244    0.502
    444    N    1.434    -13.544    -0.823
    445    C    0.404    -13.075    -1.487
    446    H    0.261    -13.124    -2.567
    447    C    -1.749    -10.388    -1.107
    448    H    -0.940    -9.997    -0.459
    449    O    -2.972    -9.802    -0.717
    450    H    -3.668    -10.119    -1.306
    451    C    -1.456    -10.128    -2.579
    452    H    -0.382    -10.316    -2.794
    453    O    -1.864    -8.836    -3.064
    454    H    -1.421    -8.144    -2.549
    455    H    5.227    -15.157    11.384
    456    O    4.444    -14.868    10.882
    457    C    3.703    -13.984    11.735
    458    H    4.352    -13.129    12.035
    459    H    3.416    -14.522    12.668
    460    C    2.431    -13.424    11.086
    461    H    1.839    -12.854    11.830
    462    O    2.773    -12.480    10.029
    463    C    1.875    -12.655    8.940
    464    H    1.438    -11.649    8.742
    465    N    2.558    -13.145    7.708
    466    C    3.782    -13.772    7.793
    467    H    4.209    -13.869    8.793
    468    C    4.428    -14.198    6.701
    469    H    5.405    -14.675    6.754
    470    C    1.953    -12.986    6.464
    471    O    0.845    -12.437    6.396
    472    N    2.581    -13.431    5.352
    473    C    3.796    -14.001    5.441
    474    N    4.408    -14.394    4.325
    475    H    3.939    -14.282    3.446
    476    H    5.296    -14.862    4.346
    477    C    0.765    -13.582    9.405
    478    H    0.348    -14.194    8.580
    479    O    -0.278    -12.838    10.011
    480    H    -0.896    -13.479    10.385
    481    C    1.500    -14.450    10.420
    482    H    2.160    -15.175    9.887
    483    O    0.655    -15.065    11.422
    484    P    0.215    -16.565    11.237
    485    O    1.385    -17.368    10.816
    486    O    -0.487    -16.998    12.466
    487    O    -0.818    -16.496    10.053
    488    C    -2.103    -15.857    10.260
    489    H    -1.989    -14.798    10.589
    490    H    -2.683    -16.383    11.051
    491    C    -2.966    -15.869    8.995
    492    H    -3.981    -15.472    9.217
    493    O    -2.389    -14.973    8.005
    494    C    -2.600    -15.520    6.706
    495    H    -3.153    -14.745    6.120
    496    N    -1.316    -15.840    6.012
    497    C    -0.183    -16.083    6.755
    498    H    -0.298    -15.989    7.835
    499    C    0.991    -16.365    6.173
    500    H    1.903    -16.514    6.747
    501    C    -1.261    -15.980    4.628
    502    O    -2.291    -15.852    3.963
    503    N    -0.089    -16.255    4.023
    504    C    1.019    -16.443    4.751
    505    N    2.155    -16.720    4.119
    506    H    2.161    -16.811    3.120
    507    H    3.005    -16.913    4.611
    508    C    -3.497    -16.733    6.867
    509    H    -3.300    -17.512    6.102
    510    O    -4.862    -16.359    6.838
    511    H    -5.346    -17.083    7.254
    512    C    -3.128    -17.212    8.261
    513    H    -2.136    -17.710    8.258
    514    O    -4.147    -18.002    8.907
    515    P    -4.204    -19.562    8.740
    516    O    -2.908    -20.118    9.178
    517    O    -5.403    -20.034    9.464
    518    O    -4.348    -19.813    7.193
    519    C    -5.583    -19.618    6.473
    520    H    -5.958    -18.582    6.607
    521    H    -6.367    -20.309    6.854
    522    C    -5.420    -19.866    4.964
    523    H    -6.347    -19.608    4.415
    524    O    -4.358    -19.036    4.419
    525    C    -3.684    -19.724    3.378
    526    H    -3.850    -19.116    2.456
    527    N    -2.225    -19.864    3.669
    528    C    -1.792    -19.952    4.970
    529    H    -2.576    -19.889    5.724
    530    C    -1.313    -19.843    2.634
    531    O    -1.630    -19.661    1.465
    532    N    -0.005    -20.033    3.003
    533    H    0.674    -20.102    2.255
    534    C    0.494    -20.127    4.280
    535    O    1.703    -20.244    4.465
    536    C    -0.500    -20.059    5.306
    537    H    -0.178    -20.095    6.343
    538    C    -4.370    -21.084    3.208
    539    H    -3.642    -21.901    3.030
    540    O    -5.266    -21.063    2.123
    541    H    -5.958    -20.392    2.254
    542    C    -5.064    -21.285    4.563
    543    H    -4.291    -21.602    5.297
    544    O    -6.260    -22.116    4.571
    545    P    -6.221    -23.485    5.362
    546    O    -5.545    -23.285    6.665
    547    O    -7.590    -24.047    5.462
    548    O    -5.329    -24.464    4.512
    549    C    -5.697    -24.990    3.215
    550    H    -6.583    -24.499    2.771
    551    H    -5.966    -26.063    3.341
    552    C    -4.586    -24.912    2.143
    553    H    -4.758    -24.033    1.483
    554    O    -3.270    -24.732    2.739
    555    C    -2.328    -25.520    2.059
    556    H    -1.518    -24.819    1.774
    557    N    -1.787    -26.542    2.940
    558    C    -0.425    -27.908    3.982
    559    N    -1.632    -27.968    4.669
    560    C    -2.402    -27.125    4.021
    561    H    -3.437    -26.882    4.277
    562    N    1.874    -28.102    3.437
    563    C    1.625    -27.247    2.443
    564    H    2.483    -26.986    1.817
    565    N    0.473    -26.679    2.083
    566    C    -0.510    -27.026    2.923
    567    C    0.837    -28.487    4.228
    568    N    1.044    -29.382    5.211
    569    H    0.341    -29.594    5.895
    570    H    1.979    -29.682    5.399
    571    C    -2.985    -26.055    0.806
    572    H    -2.584    -27.039    0.486
    573    O    -2.827    -25.110    -0.239
    574    H    -1.879    -25.010    -0.389
    575    C    -4.435    -26.170    1.273
    576    H    -4.538    -27.032    1.970
    577    O    -5.432    -26.192    0.222
    578    P    -5.786    -27.594    -0.414
    579    O    -4.661    -28.531    -0.205
    580    O    -7.087    -28.030    0.131
    581    O    -5.939    -27.326    -1.957
    582    C    -7.237    -26.979    -2.499
    583    H    -7.770    -26.258    -1.833
    584    H    -7.864    -27.897    -2.602
    585    C    -7.103    -26.303    -3.871
    586    H    -8.091    -25.933    -4.225
    587    O    -6.242    -25.156    -3.748
    588    C    -5.469    -24.983    -4.914
    589    H    -5.726    -23.979    -5.312
    590    N    -4.024    -25.016    -4.630
    591    C    -1.858    -24.623    -4.708
    592    N    -2.039    -25.570    -3.722
    593    C    -3.341    -25.763    -3.696
    594    H    -3.863    -26.440    -3.016
    595    N    -0.877    -23.048    -6.160
    596    C    -2.116    -22.740    -6.552
    597    H    -2.190    -21.947    -7.303
    598    N    -3.268    -23.338    -6.222
    599    C    -3.070    -24.259    -5.265
    600    C    -0.703    -23.999    -5.214
    601    N    0.547    -24.264    -4.792
    602    H    0.644    -24.650    -3.865
    603    H    1.211    -23.542    -5.000
    604    C    -5.906    -26.034    -5.903
    605    H    -5.064    -26.414    -6.501
    606    O    -6.901    -25.515    -6.769
    607    H    -7.695    -25.328    -6.252