!*** FMO 5.3 (Gamess) INPUT generated by Facio 22.1.1.32 ***
 $CONTRL RUNTYP=ENERGY NPRINT=-5 ISPHER=1 MAXIT=200 $END
 $SYSTEM MWORDS=63 MEMDDI=63 $END
 $GDDI NGROUP=1 $END
 $SCF DIRSCF=.TRUE. NPUNCH=0 $END
!*** NumCPU : 2  MemPerNode : 512MB
 $PCM SOLVNT=WATER IEF=-10 ICOMP=2 ICAV=1 IDISP=1 IFMO=-1 $END
 $PCMCAV RADII=SUAHF $END
 $TESCAV NTSALL=60 $END
 $FMOPRP
    NAODIR=200
    NGRFMO(1)=1, 1, 0, 0, 0,   0, 0, 0, 0, 0
    IPIEDA=1
    NPRINT=9
 $END
 $FMO
      SCFTYP(1)=RHF
      MODGRD=10
      MODMUL=0
      MAXCAO=5
      MAXBND=23
      NLAYER=1
      MPLEVL(1)=2
      NFRAG=21
      ICHARG(1)=-1, -1, -1, -1, -1, -1, -1, 0, -1, -1, -1, -1, -1, 0, -1,
-1, -1, -1, -1, -1, 0
      FRGNAM(1)=F1, F2, F3, F4, F5, F6, F7, F8, F9, F10, F11, F12, F13,
F14, F15, F16, F17, F18, F19, F20, F21
      indat(1)=0
               1   -36   0
               37   -70   0
               71   -104   0
               105   -137   0
               138   -170   0
               171   -203   0
               204   -234   0
               235   -263   0
               264   -296   0
               297   -326   0
               327   -359   0
               360   -389   0
               390   -423   0
               424   -456   0
               457   -487   0
               488   -518   0
               519   -548   0
               549   -581   0
               582   -614   0
               615   -648   0
               649   -675   0
 $END

 $FMOBND
   -37   36       6-31G*    MINI
   -71   70       6-31G*    MINI
   -105   104       6-31G*    MINI
   -138   137       6-31G*    MINI
   -171   170       6-31G*    MINI
   -204   203       6-31G*    MINI
   -235   234       6-31G*    MINI
   -264   263       6-31G*    MINI
   -297   296       6-31G*    MINI
   -327   326       6-31G*    MINI
   -360   359       6-31G*    MINI
   -390   389       6-31G*    MINI
   -424   423       6-31G*    MINI
   -457   456       6-31G*    MINI
   -488   487       6-31G*    MINI
   -519   518       6-31G*    MINI
   -549   548       6-31G*    MINI
   -582   581       6-31G*    MINI
   -615   614       6-31G*    MINI
   -649   648       6-31G*    MINI
 $END
 $FMOHYB
 6-31G*      15   5
   1 0  -0.065034   0.288264   0.000000   0.000000   0.604412
         0.290129   0.000000   0.000000   0.319045  -0.017106
        -0.017106   0.057934   0.000000   0.000000   0.000000
   0 1  -0.065040   0.288293   0.569832   0.000000  -0.201456
         0.290147   0.300783   0.000000  -0.106342   0.049598
        -0.017106  -0.008771   0.000000  -0.027223   0.000000
   0 1  -0.065039   0.288293  -0.284916  -0.493490  -0.201455
         0.290145  -0.150392  -0.260486  -0.106340  -0.000427
         0.032923  -0.008771   0.033353   0.013612   0.023576
   0 1  -0.065039   0.288293  -0.284916   0.493490  -0.201455
         0.290145  -0.150392   0.260486  -0.106340  -0.000427
         0.032923  -0.008771  -0.033353   0.013612  -0.023576
   0 1   1.010938  -0.011975   0.000000   0.000000   0.000000
        -0.054085   0.000000   0.000000  -0.000000  -0.003174
        -0.003174  -0.003174   0.000000   0.000000   0.000000
 MINI         5   5
   1 0  -0.104883   0.308874   0.000000   0.000000   0.521806
   0 1  -0.104883   0.308874   0.491961   0.000000  -0.173934
   0 1  -0.104883   0.308876  -0.245980  -0.426050  -0.173933
   0 1  -0.104883   0.308876  -0.245980   0.426050  -0.173933
   0 1   0.988209   0.063992   0.000000   0.000000   0.000000
 $END
 
 $DATA
 FMO calculation
 C1 
 H.1-1    1
      N31 6
   
 O.1-1    8
      N31 6
      d 1
      1 0.800 1.0
   
 C.1-1    6
      N31 6
      d 1
      1 0.800 1.0
   
 N.1-1    7
      N31 6
      d 1
      1 0.800 1.0
   
 P.1-1   15
      N31 6
      d 1
      1 0.550 1.0
   
 $END
 $FMOXYZ
    1    H    -17.884    -9.427    -8.749
    2    O    -16.915    -9.345    -8.688
    3    C    -16.486    -8.640    -9.862
    4    H    -16.962    -7.632    -9.869
    5    H    -16.836    -9.184    -10.768
    6    C    -14.962    -8.465    -9.936
    7    H    -14.663    -7.970    -10.889
    8    O    -14.534    -7.599    -8.848
    9    C    -13.247    -7.984    -8.405
    10    H    -12.583    -7.129    -8.682
    11    N    -13.171    -8.134    -6.956
    12    C    -12.045    -7.995    -6.186
    13    N    -8.660    -7.288    -5.867
    14    H    -7.995    -7.173    -5.132
    15    H    -8.363    -7.155    -6.815
    16    N    -10.807    -7.707    -6.635
    17    C    -9.930    -7.570    -5.640
    18    N    -10.266    -7.707    -4.321
    19    H    -9.541    -7.536    -3.647
    20    C    -11.530    -8.002    -3.829
    21    O    -11.722    -8.100    -2.613
    22    C    -12.470    -8.165    -4.882
    23    N    -13.833    -8.433    -4.839
    24    C    -14.206    -8.403    -6.097
    25    H    -15.218    -8.566    -6.474
    26    C    -12.826    -9.225    -9.151
    27    H    -12.388    -10.003    -8.490
    28    O    -11.881    -8.835    -10.122
    29    H    -11.000    -8.988    -9.747
    30    C    -14.131    -9.746    -9.770
    31    H    -14.671    -10.387    -9.037
    32    O    -13.993    -10.405    -11.048
    33    P    -13.381    -11.856    -11.155
    34    O    -13.150    -12.178    -12.584
    35    O    -14.279    -12.787    -10.435
    36    O    -11.968    -11.839    -10.426
    37    C    -10.811    -11.422    -11.213
    38    H    -10.889    -10.372    -11.568
    39    H    -10.716    -12.048    -12.132
    40    C    -9.497    -11.596    -10.439
    41    H    -8.617    -11.269    -11.037
    42    O    -9.468    -10.840    -9.191
    43    C    -8.816    -11.610    -8.188
    44    H    -7.862    -11.084    -7.955
    45    N    -9.638    -11.679    -6.958
    46    C    -9.192    -11.655    -5.657
    47    N    -6.610    -11.461    -3.353
    48    H    -5.800    -11.390    -3.930
    49    H    -6.490    -11.469    -2.354
    50    N    -7.909    -11.595    -5.261
    51    C    -7.785    -11.580    -3.934
    52    N    -8.850    -11.619    -3.081
    53    H    -8.642    -11.627    -2.094
    54    C    -10.181    -11.659    -3.456
    55    O    -11.059    -11.683    -2.592
    56    C    -10.326    -11.676    -4.872
    57    N    -11.466    -11.713    -5.660
    58    C    -11.010    -11.743    -6.891
    59    H    -11.621    -11.816    -7.795
    60    C    -8.483    -12.981    -8.767
    61    H    -8.863    -13.743    -8.070
    62    O    -7.099    -13.179    -8.992
    63    H    -7.026    -14.059    -9.401
    64    C    -9.306    -13.049    -10.057
    65    H    -10.316    -13.447    -9.812
    66    O    -8.733    -13.738    -11.185
    67    P    -8.586    -15.288    -11.270
    68    O    -7.253    -15.634    -10.730
    69    O    -8.850    -15.718    -12.657
    70    O    -9.780    -15.798    -10.369
    71    C    -9.741    -17.080    -9.709
    72    H    -9.665    -17.914    -10.440
    73    H    -10.718    -17.217    -9.195
    74    C    -8.629    -17.221    -8.635
    75    H    -7.673    -17.548    -9.101
    76    O    -8.379    -15.933    -8.011
    77    C    -8.512    -15.993    -6.614
    78    H    -7.694    -15.369    -6.184
    79    N    -9.817    -15.459    -6.190
    80    C    -10.218    -15.174    -4.911
    81    N    -9.674    -15.018    -1.503
    82    H    -10.201    -14.758    -0.697
    83    H    -8.731    -15.303    -1.321
    84    N    -9.481    -15.323    -3.788
    85    C    -10.176    -14.969    -2.709
    86    N    -11.461    -14.521    -2.735
    87    H    -11.879    -14.233    -1.868
    88    C    -12.232    -14.331    -3.863
    89    O    -13.387    -13.904    -3.770
    90    C    -11.526    -14.726    -5.032
    91    N    -11.931    -14.724    -6.360
    92    C    -10.882    -15.149    -7.011
    93    H    -10.824    -15.254    -8.098
    94    C    -8.339    -17.439    -6.249
    95    H    -8.887    -17.715    -5.321
    96    O    -6.953    -17.709    -6.075
    97    H    -6.812    -17.639    -5.119
    98    C    -8.976    -18.136    -7.456
    99    H    -10.082    -18.114    -7.325
    100    O    -8.470    -19.450    -7.697
    101    P    -9.358    -20.630    -8.193
    102    O    -8.466    -21.542    -8.941
    103    O    -10.543    -20.102    -8.895
    104    O    -9.807    -21.295    -6.871
    105    C    -11.085    -21.584    -6.320
    106    H    -11.665    -22.199    -7.046
    107    H    -11.644    -20.639    -6.141
    108    C    -11.005    -22.376    -4.979
    109    H    -11.858    -23.085    -4.909
    110    O    -9.790    -23.192    -4.898
    111    C    -9.107    -22.946    -3.676
    112    H    -8.856    -23.945    -3.254
    113    N    -7.846    -22.213    -3.881
    114    C    -5.810    -21.432    -3.738
    115    N    -6.281    -20.988    -4.943
    116    C    -7.490    -21.440    -4.955
    117    H    -8.156    -21.159    -5.725
    118    N    -4.398    -21.755    -1.905
    119    C    -5.376    -22.485    -1.356
    120    H    -5.159    -22.863    -0.355
    121    N    -6.602    -22.750    -1.848
    122    C    -6.744    -22.197    -3.066
    123    C    -4.592    -21.208    -3.124
    124    N    -3.694    -20.447    -3.753
    125    H    -3.956    -19.833    -4.497
    126    H    -2.749    -20.376    -3.400
    127    C    -10.062    -22.232    -2.754
    128    H    -9.511    -21.507    -2.138
    129    O    -10.732    -23.150    -1.911
    130    H    -11.388    -22.635    -1.396
    131    C    -11.011    -21.503    -3.720
    132    H    -10.579    -20.516    -4.019
    133    O    -12.379    -21.353    -3.289
    134    P    -12.784    -20.560    -2.006
    135    O    -12.525    -21.431    -0.836
    136    O    -14.170    -20.066    -2.181
    137    O    -11.786    -19.341    -2.043
    138    C    -11.556    -18.543    -0.864
    139    H    -12.514    -18.213    -0.398
    140    H    -11.038    -17.618    -1.200
    141    C    -10.678    -19.219    0.218
    142    H    -11.295    -19.853    0.884
    143    O    -9.719    -20.107    -0.388
    144    C    -8.405    -19.779    -0.035
    145    H    -7.906    -20.743    0.220
    146    N    -7.714    -19.196    -1.168
    147    C    -6.202    -18.362    -2.491
    148    N    -7.336    -18.514    -3.267
    149    C    -8.194    -19.047    -2.446
    150    H    -9.216    -19.332    -2.705
    151    N    -3.987    -17.982    -1.824
    152    C    -4.346    -18.386    -0.607
    153    H    -3.558    -18.368    0.151
    154    N    -5.557    -18.743    -0.174
    155    C    -6.423    -18.773    -1.194
    156    C    -4.912    -17.933    -2.806
    157    N    -4.564    -17.523    -4.043
    158    H    -5.099    -17.665    -4.871
    159    H    -3.764    -16.902    -4.075
    160    C    -8.468    -18.883    1.181
    161    H    -7.671    -18.113    1.193
    162    O    -8.357    -19.668    2.349
    163    H    -7.453    -20.038    2.380
    164    C    -9.846    -18.226    1.033
    165    H    -9.731    -17.309    0.410
    166    O    -10.557    -17.964    2.251
    167    P    -10.478    -16.622    3.031
    168    O    -11.493    -16.635    4.104
    169    O    -10.542    -15.513    2.057
    170    O    -9.067    -16.657    3.698
    171    C    -8.651    -15.711    4.714
    172    H    -9.061    -16.046    5.692
    173    H    -9.064    -14.694    4.519
    174    C    -7.107    -15.570    4.890
    175    H    -6.825    -15.836    5.931
    176    O    -6.385    -16.500    4.029
    177    C    -5.489    -15.811    3.186
    178    H    -4.551    -16.415    3.147
    179    N    -6.031    -15.642    1.825
    180    C    -6.302    -15.393    -0.348
    181    N    -7.555    -15.450    0.195
    182    C    -7.344    -15.548    1.471
    183    H    -8.124    -15.468    2.206
    184    N    -4.552    -14.960    -1.840
    185    C    -3.729    -15.159    -0.804
    186    H    -2.662    -15.109    -1.039
    187    N    -4.023    -15.395    0.487
    188    C    -5.343    -15.492    0.649
    189    C    -5.867    -15.130    -1.658
    190    N    -6.625    -15.117    -2.771
    191    H    -7.580    -15.412    -2.816
    192    H    -6.108    -15.091    -3.625
    193    C    -5.210    -14.498    3.844
    194    H    -4.994    -13.774    3.044
    195    O    -4.112    -14.597    4.728
    196    H    -4.289    -15.314    5.352
    197    C    -6.533    -14.180    4.568
    198    H    -7.233    -13.706    3.844
    199    O    -6.393    -13.415    5.788
    200    P    -7.162    -12.087    6.116
    201    O    -7.133    -11.873    7.580
    202    O    -8.501    -12.113    5.478
    203    O    -6.317    -10.934    5.451
    204    C    -4.875    -10.849    5.531
    205    H    -4.418    -11.766    5.978
    206    H    -4.595    -9.993    6.185
    207    C    -4.207    -10.633    4.157
    208    H    -3.105    -10.751    4.237
    209    O    -4.669    -11.626    3.243
    210    C    -4.841    -11.111    1.951
    211    H    -4.165    -11.724    1.308
    212    N    -6.233    -11.276    1.455
    213    C    -7.274    -11.341    2.347
    214    H    -7.004    -11.257    3.391
    215    C    -8.535    -11.529    1.949
    216    H    -9.360    -11.600    2.654
    217    C    -6.494    -11.375    0.094
    218    O    -5.552    -11.310    -0.705
    219    N    -7.767    -11.547    -0.337
    220    C    -8.773    -11.636    0.553
    221    N    -10.019    -11.808    0.124
    222    H    -10.256    -11.801    -0.847
    223    H    -10.782    -11.853    0.776
    224    C    -4.357    -9.683    1.975
    225    H    -4.985    -9.010    1.361
    226    O    -3.008    -9.653    1.540
    227    H    -2.967    -9.992    0.630
    228    C    -4.495    -9.311    3.459
    229    H    -5.552    -9.053    3.703
    230    O    -3.554    -8.332    3.933
    231    P    -3.883    -6.808    3.866
    232    O    -2.673    -6.059    4.277
    233    O    -5.111    -6.546    4.649
    234    O    -4.216    -6.491    2.360
    235    C    -3.171    -6.465    1.361
    236    H    -2.525    -7.365    1.408
    237    H    -2.502    -5.589    1.529
    238    C    -3.758    -6.349    -0.055
    239    H    -2.956    -6.431    -0.820
    240    O    -4.724    -7.393    -0.344
    241    C    -5.769    -6.887    -1.149
    242    H    -5.647    -7.407    -2.128
    243    N    -7.105    -7.204    -0.572
    244    C    -7.268    -7.331    0.788
    245    H    -6.368    -7.164    1.386
    246    C    -8.169    -7.374    -1.431
    247    O    -8.056    -7.271    -2.647
    248    N    -9.366    -7.682    -0.826
    249    H    -10.181    -7.768    -1.414
    250    C    -9.600    -7.825    0.526
    251    O    -10.731    -8.083    0.931
    252    C    -8.444    -7.645    1.351
    253    H    -8.556    -7.741    2.428
    254    C    -5.542    -5.387    -1.346
    255    H    -6.474    -4.808    -1.159
    256    O    -5.071    -5.115    -2.656
    257    H    -4.178    -5.484    -2.746
    258    C    -4.510    -5.045    -0.263
    259    H    -5.033    -4.796    0.690
    260    O    -3.573    -4.015    -0.619
    261    H    -4.052    -3.198    -0.840
    262    H    1.855    -32.838    6.785
    263    O    2.318    -32.627    5.949
    264    C    3.665    -33.093    6.107
    265    H    3.646    -34.197    6.263
    266    H    4.108    -32.619    7.011
    267    C    4.554    -32.779    4.898
    268    H    5.608    -33.073    5.090
    269    O    4.094    -33.550    3.747
    270    C    4.127    -32.744    2.586
    271    H    4.789    -33.278    1.863
    272    N    2.804    -32.615    1.982
    273    C    1.164    -32.476    0.527
    274    N    0.568    -32.499    1.785
    275    C    1.584    -32.577    2.611
    276    H    1.508    -32.628    3.699
    277    N    1.512    -32.429    -1.817
    278    C    2.821    -32.482    -1.547
    279    H    3.484    -32.499    -2.422
    280    N    3.434    -32.567    -0.364
    281    C    2.541    -32.546    0.639
    282    C    0.632    -32.420    -0.780
    283    N    -0.691    -32.384    -1.028
    284    H    -1.368    -32.413    -0.285
    285    H    -1.017    -32.329    -1.977
    286    C    4.755    -31.417    2.935
    287    H    4.253    -30.571    2.426
    288    O    6.129    -31.459    2.601
    289    H    6.599    -31.968    3.278
    290    C    4.524    -31.308    4.445
    291    H    3.494    -30.924    4.635
    292    O    5.525    -30.562    5.170
    293    P    5.369    -29.034    5.498
    294    O    6.580    -28.585    6.227
    295    O    4.073    -28.839    6.184
    296    O    5.297    -28.306    4.102
    297    C    6.435    -28.249    3.206
    298    H    6.956    -29.227    3.152
    299    H    7.169    -27.498    3.568
    300    C    6.052    -27.843    1.768
    301    H    6.937    -27.872    1.102
    302    O    5.096    -28.770    1.214
    303    C    4.131    -28.090    0.455
    304    H    4.287    -28.478    -0.579
    305    N    2.759    -28.393    0.937
    306    C    2.468    -28.526    2.273
    307    H    3.327    -28.459    2.939
    308    C    1.786    -28.518    -0.014
    309    O    2.037    -28.384    -1.207
    310    N    0.532    -28.806    0.461
    311    H    -0.169    -28.883    -0.265
    312    C    0.164    -28.998    1.779
    313    O    -0.996    -29.279    2.071
    314    C    1.241    -28.838    2.717
    315    H    1.039    -29.006    3.773
    316    C    4.453    -26.601    0.477
    317    H    3.545    -25.991    0.667
    318    O    5.048    -26.194    -0.741
    319    H    5.265    -25.250    -0.649
    320    C    5.410    -26.471    1.662
    321    H    4.819    -26.334    2.594
    322    O    6.458    -25.491    1.536
    323    P    6.185    -23.974    1.770
    324    O    7.488    -23.376    2.137
    325    O    5.094    -23.790    2.753
    326    O    5.769    -23.465    0.343
    327    C    6.263    -22.181    -0.120
    328    H    7.358    -22.060    0.060
    329    H    5.745    -21.356    0.418
    330    C    6.048    -22.014    -1.638
    331    H    6.761    -22.662    -2.189
    332    O    4.702    -22.421    -2.046
    333    C    3.974    -21.286    -2.440
    334    H    3.930    -21.358    -3.551
    335    N    2.627    -21.250    -1.868
    336    C    0.457    -20.999    -1.692
    337    N    0.931    -21.088    -0.406
    338    C    2.230    -21.219    -0.556
    339    H    2.954    -21.328    0.255
    340    N    -0.961    -20.747    -3.569
    341    C    0.145    -20.842    -4.296
    342    H    -0.011    -20.811    -5.381
    343    N    1.379    -21.131    -3.916
    344    C    1.485    -21.118    -2.593
    345    C    -0.828    -20.779    -2.214
    346    N    -1.887    -20.559    -1.429
    347    H    -1.874    -20.613    -0.431
    348    H    -2.819    -20.734    -1.776
    349    C    4.761    -20.062    -2.032
    350    H    4.500    -19.734    -1.003
    351    O    4.549    -19.014    -2.928
    352    H    5.121    -19.191    -3.687
    353    C    6.207    -20.547    -2.100
    354    H    6.803    -20.016    -1.323
    355    O    6.837    -20.446    -3.400
    356    P    7.703    -19.206    -3.871
    357    O    9.136    -19.459    -3.589
    358    O    7.139    -17.947    -3.343
    359    O    7.460    -19.262    -5.421
    360    C    7.147    -18.134    -6.275
    361    H    7.867    -18.149    -7.121
    362    H    7.282    -17.149    -5.779
    363    C    5.733    -18.192    -6.906
    364    H    5.678    -17.484    -7.759
    365    O    5.488    -19.519    -7.434
    366    C    4.177    -19.959    -7.158
    367    H    3.521    -19.651    -7.999
    368    N    4.118    -21.447    -6.956
    369    C    3.065    -21.931    -6.221
    370    H    2.265    -21.227    -6.019
    371    C    4.969    -22.336    -7.602
    372    O    5.792    -22.012    -8.438
    373    N    4.799    -23.652    -7.246
    374    H    5.427    -24.303    -7.695
    375    C    3.823    -24.184    -6.440
    376    O    3.774    -25.399    -6.259
    377    C    2.910    -23.224    -5.908
    378    H    2.070    -23.559    -5.302
    379    C    3.786    -19.215    -5.897
    380    H    4.133    -19.815    -5.036
    381    O    2.402    -19.020    -5.792
    382    H    2.250    -18.069    -5.692
    383    C    4.564    -17.893    -5.958
    384    H    5.028    -17.727    -4.965
    385    O    3.866    -16.688    -6.295
    386    P    2.894    -16.359    -7.471
    387    O    2.922    -17.414    -8.500
    388    O    3.192    -14.988    -7.932
    389    O    1.544    -16.394    -6.685
    390    C    0.372    -17.151    -7.051
    391    H    0.578    -18.240    -7.131
    392    H    -0.001    -16.808    -8.042
    393    C    -0.752    -16.921    -6.027
    394    H    -1.742    -17.019    -6.517
    395    O    -0.725    -17.909    -4.970
    396    C    -1.111    -17.316    -3.728
    397    H    -2.034    -17.836    -3.401
    398    N    -0.074    -17.520    -2.683
    399    C    -0.158    -17.445    -1.303
    400    N    -2.001    -17.035    1.620
    401    H    -1.824    -17.004    2.607
    402    H    -2.823    -16.600    1.243
    403    N    -1.244    -17.132    -0.568
    404    C    -1.039    -17.275    0.740
    405    N    0.177    -17.618    1.267
    406    H    0.287    -17.607    2.268
    407    C    1.333    -17.890    0.546
    408    O    2.397    -18.195    1.107
    409    C    1.103    -17.779    -0.843
    410    N    1.960    -18.015    -1.890
    411    C    1.231    -17.847    -2.953
    412    H    1.576    -17.987    -3.970
    413    C    -1.393    -15.841    -3.992
    414    H    -0.952    -15.248    -3.173
    415    O    -2.758    -15.525    -4.091
    416    H    -2.792    -14.559    -4.090
    417    C    -0.689    -15.575    -5.323
    418    H    0.366    -15.326    -5.083
    419    O    -1.290    -14.623    -6.217
    420    P    -1.135    -13.085    -6.149
    421    O    -2.302    -12.574    -5.405
    422    O    -0.998    -12.587    -7.540
    423    O    0.217    -12.919    -5.373
    424    C    0.553    -11.906    -4.423
    425    H    0.709    -10.936    -4.940
    426    H    1.532    -12.190    -3.974
    427    C    -0.446    -11.739    -3.268
    428    H    -1.406    -11.306    -3.612
    429    O    -0.745    -13.032    -2.680
    430    C    -0.464    -13.029    -1.298
    431    H    -1.292    -13.578    -0.798
    432    N    0.802    -13.728    -1.000
    433    C    1.346    -13.984    0.237
    434    N    1.157    -13.818    3.685
    435    H    0.322    -13.288    3.816
    436    H    1.735    -14.024    4.477
    437    N    0.825    -13.633    1.420
    438    C    1.544    -14.064    2.449
    439    N    2.733    -14.727    2.307
    440    H    3.233    -14.998    3.139
    441    C    3.325    -15.069    1.099
    442    O    4.423    -15.634    1.078
    443    C    2.525    -14.654    -0.007
    444    N    2.716    -14.823    -1.373
    445    C    1.662    -14.283    -1.923
    446    H    1.445    -14.258    -2.993
    447    C    -0.467    -11.575    -0.884
    448    H    0.176    -11.391    0.005
    449    O    -1.798    -11.159    -0.614
    450    H    -2.325    -11.321    -1.409
    451    C    0.114    -10.899    -2.121
    452    H    1.221    -11.002    -2.131
    453    O    -0.276    -9.528    -2.312
    454    H    -0.171    -9.052    -1.475
    455    H    7.824    -16.692    10.997
    456    O    7.144    -16.002    10.866
    457    C    5.895    -16.669    10.634
    458    H    5.660    -17.314    11.505
    459    H    6.016    -17.334    9.751
    460    C    4.707    -15.719    10.371
    461    H    4.427    -15.157    11.290
    462    O    5.080    -14.721    9.370
    463    C    4.113    -14.659    8.337
    464    H    3.834    -13.580    8.266
    465    N    4.649    -15.095    7.013
    466    C    5.868    -15.740    6.922
    467    H    6.401    -15.909    7.861
    468    C    6.367    -16.123    5.740
    469    H    7.327    -16.627    5.648
    470    C    3.938    -14.810    5.848
    471    O    2.865    -14.193    5.927
    472    N    4.423    -15.204    4.651
    473    C    5.603    -15.844    4.573
    474    N    6.052    -16.222    3.379
    475    H    5.500    -16.024    2.564
    476    H    6.949    -16.651    3.252
    477    C    2.892    -15.449    8.779
    478    H    2.432    -15.992    7.930
    479    O    1.921    -14.600    9.359
    480    H    1.235    -15.178    9.725
    481    C    3.469    -16.440    9.792
    482    H    3.856    -17.331    9.242
    483    O    2.561    -16.798    10.853
    484    P    1.963    -18.222    11.102
    485    O    1.288    -18.224    12.419
    486    O    3.025    -19.225    10.889
    487    O    0.889    -18.357    9.961
    488    C    -0.522    -18.575    10.215
    489    H    -0.826    -18.251    11.235
    490    H    -0.727    -19.671    10.180
    491    C    -1.503    -17.892    9.212
    492    H    -2.305    -17.367    9.775
    493    O    -0.850    -16.877    8.386
    494    C    -1.176    -17.081    7.009
    495    H    -1.539    -16.093    6.644
    496    N    -0.004    -17.485    6.172
    497    C    1.180    -17.873    6.755
    498    H    1.194    -17.868    7.840
    499    C    2.256    -18.200    6.025
    500    H    3.204    -18.487    6.476
    501    C    -0.088    -17.417    4.785
    502    O    -1.136    -17.013    4.261
    503    N    0.975    -17.778    4.035
    504    C    2.125    -18.156    4.610
    505    N    3.142    -18.498    3.824
    506    H    2.982    -18.446    2.833
    507    H    4.030    -18.787    4.174
    508    C    -2.332    -18.066    6.926
    509    H    -2.241    -18.750    6.053
    510    O    -3.574    -17.387    6.851
    511    H    -4.248    -18.079    6.873
    512    C    -2.181    -18.857    8.226
    513    H    -1.442    -19.674    8.063
    514    O    -3.427    -19.318    8.788
    515    P    -3.828    -20.824    8.865
    516    O    -4.494    -21.068    10.162
    517    O    -2.653    -21.670    8.568
    518    O    -4.905    -20.942    7.726
    519    C    -4.825    -21.977    6.720
    520    H    -5.465    -22.836    7.023
    521    H    -3.792    -22.373    6.565
    522    C    -5.336    -21.459    5.377
    523    H    -6.299    -20.916    5.480
    524    O    -4.380    -20.515    4.833
    525    C    -4.122    -20.793    3.475
    526    H    -4.408    -19.860    2.932
    527    N    -2.675    -21.091    3.242
    528    C    -1.776    -21.258    4.276
    529    H    -2.194    -21.188    5.281
    530    C    -2.245    -21.076    1.942
    531    O    -3.008    -20.836    1.015
    532    N    -0.904    -21.317    1.764
    533    H    -0.514    -21.278    0.830
    534    C    0.057    -21.421    2.747
    535    O    1.247    -21.500    2.462
    536    C    -0.460    -21.424    4.075
    537    H    0.253    -21.513    4.890
    538    C    -5.053    -21.923    3.025
    539    H    -4.509    -22.671    2.406
    540    O    -6.154    -21.433    2.286
    541    H    -6.704    -22.205    2.101
    542    C    -5.499    -22.576    4.340
    543    H    -4.777    -23.371    4.627
    544    O    -6.852    -23.082    4.386
    545    P    -7.364    -24.356    3.631
    546    O    -8.589    -24.029    2.866
    547    O    -7.441    -25.459    4.614
    548    O    -6.214    -24.670    2.622
    549    C    -6.100    -25.949    1.969
    550    H    -7.049    -26.532    1.990
    551    H    -5.321    -26.552    2.491
    552    C    -5.724    -25.772    0.498
    553    H    -6.553    -25.277    -0.056
    554    O    -4.538    -24.947    0.372
    555    C    -3.434    -25.722    -0.012
    556    H    -3.183    -25.393    -1.039
    557    N    -2.308    -25.456    0.875
    558    C    -0.328    -24.969    1.694
    559    N    -1.164    -25.177    2.790
    560    C    -2.327    -25.457    2.246
    561    H    -3.252    -25.657    2.791
    562    N    1.554    -24.502    0.335
    563    C    0.744    -24.662    -0.709
    564    H    1.216    -24.519    -1.685
    565    N    -0.550    -24.991    -0.737
    566    C    -1.030    -25.126    0.509
    567    C    1.045    -24.648    1.582
    568    N    1.875    -24.484    2.629
    569    H    1.528    -24.441    3.569
    570    H    2.769    -24.077    2.435
    571    C    -3.848    -27.185    -0.005
    572    H    -3.590    -27.668    0.963
    573    O    -3.235    -27.890    -1.062
    574    H    -3.494    -27.461    -1.898
    575    C    -5.376    -27.123    -0.152
    576    H    -5.805    -27.936    0.481
    577    O    -5.852    -27.194    -1.511
    578    P    -7.187    -27.955    -1.852
    579    O    -8.348    -27.293    -1.218
    580    O    -7.011    -29.394    -1.550
    581    O    -7.243    -27.779    -3.423
    582    C    -8.395    -27.213    -4.098
    583    H    -8.909    -26.443    -3.477
    584    H    -9.128    -28.024    -4.306
    585    C    -8.042    -26.546    -5.448
    586    H    -8.961    -26.236    -5.989
    587    O    -7.288    -25.336    -5.195
    588    C    -6.130    -25.285    -6.006
    589    H    -6.139    -24.287    -6.502
    590    N    -4.927    -25.404    -5.184
    591    C    -2.851    -25.462    -4.470
    592    N    -3.647    -25.708    -3.373
    593    C    -4.867    -25.635    -3.837
    594    H    -5.781    -25.732    -3.252
    595    N    -0.989    -24.977    -5.846
    596    C    -1.867    -24.820    -6.840
    597    H    -1.435    -24.554    -7.811
    598    N    -3.199    -24.937    -6.819
    599    C    -3.629    -25.268    -5.593
    600    C    -1.458    -25.308    -4.619
    601    N    -0.563    -25.498    -3.640
    602    H    -0.860    -25.558    -2.676
    603    H    0.377    -25.262    -3.853
    604    C    -6.228    -26.379    -7.052
    605    H    -5.240    -26.853    -7.242
    606    O    -6.736    -25.876    -8.274
    607    H    -6.927    -26.640    -8.848
    608    C    -7.167    -27.394    -6.382