!*** FMO 5.3 (Gamess) INPUT generated by Facio 22.1.1.32 ***
 $CONTRL RUNTYP=ENERGY NPRINT=-5 ISPHER=1 MAXIT=200 $END
 $SYSTEM MWORDS=63 MEMDDI=63 $END
 $GDDI NGROUP=1 $END
 $SCF DIRSCF=.TRUE. NPUNCH=0 $END
!*** NumCPU : 2  MemPerNode : 512MB
 $PCM SOLVNT=WATER IEF=-10 ICOMP=2 ICAV=1 IDISP=1 IFMO=-1 $END
 $PCMCAV RADII=SUAHF $END
 $TESCAV NTSALL=60 $END
 $FMOPRP
    NAODIR=200
    NGRFMO(1)=1, 1, 0, 0, 0,   0, 0, 0, 0, 0
    IPIEDA=1
    NPRINT=9
 $END
 $FMO
      SCFTYP(1)=RHF
      MODGRD=10
      MODMUL=0
      MAXCAO=5
      MAXBND=14
      NLAYER=1
      MPLEVL(1)=2
      NFRAG=12
      ICHARG(1)=-1, -1, -1, -1, -1, 0, -1, -1, -1, -1, -1, 0
      FRGNAM(1)=F1, F2, F3, F4, F5, F6, F7, F8, F9, F10, F11, F12
      indat(1)=0
               1   -35   0
               36   -69   0
               70   -99   0
               100   -133   0
               134   -167   0
               168   -197   0
               198   -231   0
               232   -262   0
               263   -295   0
               296   -325   0
               326   -356   0
               357   -383   0
 $END

 $FMOBND
   -36   35       6-31G*    MINI
   -70   69       6-31G*    MINI
   -100   99       6-31G*    MINI
   -134   133       6-31G*    MINI
   -168   167       6-31G*    MINI
   -198   197       6-31G*    MINI
   -232   231       6-31G*    MINI
   -263   262       6-31G*    MINI
   -296   295       6-31G*    MINI
   -326   325       6-31G*    MINI
   -357   356       6-31G*    MINI
 $END
 $FMOHYB
 6-31G*      15   5
   1 0  -0.065034   0.288264   0.000000   0.000000   0.604412
         0.290129   0.000000   0.000000   0.319045  -0.017106
        -0.017106   0.057934   0.000000   0.000000   0.000000
   0 1  -0.065040   0.288293   0.569832   0.000000  -0.201456
         0.290147   0.300783   0.000000  -0.106342   0.049598
        -0.017106  -0.008771   0.000000  -0.027223   0.000000
   0 1  -0.065039   0.288293  -0.284916  -0.493490  -0.201455
         0.290145  -0.150392  -0.260486  -0.106340  -0.000427
         0.032923  -0.008771   0.033353   0.013612   0.023576
   0 1  -0.065039   0.288293  -0.284916   0.493490  -0.201455
         0.290145  -0.150392   0.260486  -0.106340  -0.000427
         0.032923  -0.008771  -0.033353   0.013612  -0.023576
   0 1   1.010938  -0.011975   0.000000   0.000000   0.000000
        -0.054085   0.000000   0.000000  -0.000000  -0.003174
        -0.003174  -0.003174   0.000000   0.000000   0.000000
 MINI         5   5
   1 0  -0.104883   0.308874   0.000000   0.000000   0.521806
   0 1  -0.104883   0.308874   0.491961   0.000000  -0.173934
   0 1  -0.104883   0.308876  -0.245980  -0.426050  -0.173933
   0 1  -0.104883   0.308876  -0.245980   0.426050  -0.173933
   0 1   0.988209   0.063992   0.000000   0.000000   0.000000
 $END
 
 $DATA
 FMO calculation
 C1 
 H.1-1    1
      N31 6
   
 O.1-1    8
      N31 6
      d 1
      1 0.800 1.0
   
 C.1-1    6
      N31 6
      d 1
      1 0.800 1.0
   
 N.1-1    7
      N31 6
      d 1
      1 0.800 1.0
   
 P.1-1   15
      N31 6
      d 1
      1 0.550 1.0
   
 $END
 $FMOXYZ
    1    H    5.623    8.782    2.650
    2    O    5.124    8.994    1.836
    3    C    4.678    10.352    1.971
    4    H    5.565    11.021    2.043
    5    H    4.099    10.456    2.917
    6    C    3.803    10.818    0.803
    7    H    3.471    11.866    0.952
    8    O    4.560    10.774    -0.446
    9    C    3.705    10.335    -1.490
    10    H    3.752    11.114    -2.287
    11    N    4.151    9.055    -2.050
    12    C    4.482    7.341    -3.388
    13    N    5.261    7.109    -2.261
    14    C    5.019    8.146    -1.492
    15    H    5.464    8.320    -0.509
    16    N    3.455    7.131    -5.514
    17    C    2.831    8.283    -5.239
    18    H    2.157    8.652    -6.021
    19    N    2.942    9.068    -4.160
    20    C    3.786    8.530    -3.265
    21    C    4.306    6.618    -4.589
    22    N    4.960    5.475    -4.869
    23    H    5.619    5.074    -4.226
    24    H    4.785    4.983    -5.725
    25    C    2.302    10.275    -0.935
    26    H    1.686    9.492    -1.419
    27    O    1.676    11.535    -1.079
    28    H    0.813    11.456    -0.654
    29    C    2.563    9.951    0.533
    30    H    2.881    8.889    0.647
    31    O    1.498    10.316    1.441
    32    P    0.354    9.270    1.734
    33    O    0.970    7.983    2.117
    34    O    -0.595    9.862    2.698
    35    O    -0.360    9.111    0.343
    36    C    -1.231    10.165    -0.134
    37    H    -0.707    11.147    -0.179
    38    H    -2.107    10.298    0.550
    39    C    -1.755    9.843    -1.538
    40    H    -2.339    10.700    -1.945
    41    O    -0.647    9.591    -2.453
    42    C    -1.007    8.550    -3.350
    43    H    -0.899    8.965    -4.377
    44    N    -0.123    7.380    -3.218
    45    C    0.035    6.385    -4.147
    46    N    -0.838    4.889    -7.155
    47    H    -1.540    5.502    -7.514
    48    H    -0.640    4.036    -7.644
    49    N    -0.602    6.298    -5.331
    50    C    -0.274    5.190    -5.998
    51    N    0.657    4.292    -5.549
    52    H    0.846    3.484    -6.121
    53    C    1.353    4.374    -4.352
    54    O    2.174    3.510    -4.036
    55    C    0.972    5.522    -3.608
    56    N    1.389    5.961    -2.357
    57    C    0.705    7.064    -2.162
    58    H    0.764    7.700    -1.278
    59    C    -2.460    8.210    -3.092
    60    H    -2.681    7.133    -3.255
    61    O    -3.295    9.005    -3.915
    62    H    -4.209    8.804    -3.659
    63    C    -2.617    8.582    -1.620
    64    H    -2.133    7.820    -0.967
    65    O    -3.967    8.890    -1.210
    66    P    -4.959    7.698    -0.955
    67    O    -4.197    6.574    -0.358
    68    O    -6.113    8.211    -0.193
    69    O    -5.479    7.278    -2.382
    70    C    -6.139    5.989    -2.549
    71    H    -7.245    6.116    -2.517
    72    H    -5.868    5.256    -1.750
    73    C    -5.758    5.328    -3.888
    74    H    -6.239    5.859    -4.736
    75    O    -4.317    5.421    -4.095
    76    C    -3.826    4.238    -4.692
    77    H    -3.307    4.565    -5.624
    78    N    -2.861    3.521    -3.803
    79    C    -2.701    3.882    -2.479
    80    H    -3.354    4.682    -2.118
    81    C    -2.079    2.526    -4.353
    82    O    -2.154    2.199    -5.533
    83    N    -1.185    1.940    -3.497
    84    H    -0.609    1.204    -3.882
    85    C    -0.950    2.270    -2.182
    86    O    -0.082    1.681    -1.544
    87    C    -1.794    3.309    -1.674
    88    H    -1.681    3.605    -0.634
    89    C    -5.035    3.400    -5.060
    90    H    -4.816    2.320    -4.997
    91    O    -5.476    3.720    -6.367
    92    H    -6.360    3.336    -6.476
    93    C    -6.053    3.822    -4.012
    94    H    -5.785    3.372    -3.028
    95    O    -7.426    3.581    -4.412
    96    P    -8.326    2.567    -3.609
    97    O    -8.259    2.932    -2.177
    98    O    -9.671    2.523    -4.223
    99    O    -7.649    1.162    -3.805
    100    C    -7.447    0.571    -5.105
    101    H    -7.119    1.325    -5.864
    102    H    -8.401    0.128    -5.465
    103    C    -6.394    -0.548    -5.043
    104    H    -6.273    -1.042    -6.032
    105    O    -5.104    0.035    -4.693
    106    C    -4.425    -0.800    -3.776
    107    H    -3.418    -0.982    -4.212
    108    N    -4.250    -0.146    -2.457
    109    C    -3.260    -0.382    -1.526
    110    N    -0.382    -2.037    -0.519
    111    H    0.252    -1.999    0.252
    112    H    -0.155    -2.644    -1.283
    113    N    -2.255    -1.272    -1.640
    114    C    -1.432    -1.242    -0.587
    115    N    -1.602    -0.403    0.481
    116    H    -0.922    -0.424    1.221
    117    C    -2.617    0.532    0.616
    118    O    -2.698    1.272    1.602
    119    C    -3.506    0.500    -0.490
    120    N    -4.632    1.266    -0.748
    121    C    -5.030    0.859    -1.926
    122    H    -5.899    1.246    -2.448
    123    C    -5.200    -2.102    -3.708
    124    H    -5.132    -2.581    -2.709
    125    O    -4.759    -2.990    -4.729
    126    H    -3.795    -3.012    -4.779
    127    C    -6.627    -1.631    -3.976
    128    H    -7.026    -1.108    -3.077
    129    O    -7.520    -2.653    -4.482
    130    P    -8.492    -3.409    -3.509
    131    O    -8.248    -2.962    -2.112
    132    O    -9.866    -3.279    -4.015
    133    O    -8.081    -4.924    -3.586
    134    C    -8.320    -5.724    -4.764
    135    H    -8.272    -5.114    -5.695
    136    H    -9.337    -6.178    -4.720
    137    C    -7.269    -6.835    -4.903
    138    H    -7.433    -7.415    -5.837
    139    O    -5.945    -6.230    -5.005
    140    C    -5.011    -7.012    -4.276
    141    H    -4.161    -7.225    -4.963
    142    N    -4.495    -6.295    -3.099
    143    C    -3.371    -6.594    -2.374
    144    N    -0.582    -8.559    -1.793
    145    H    -0.656    -9.269    -2.492
    146    H    0.206    -8.563    -1.170
    147    N    -2.524    -7.617    -2.600
    148    C    -1.507    -7.622    -1.743
    149    N    -1.331    -6.669    -0.775
    150    H    -0.527    -6.736    -0.171
    151    C    -2.177    -5.602    -0.524
    152    O    -1.947    -4.789    0.374
    153    C    -3.289    -5.613    -1.400
    154    N    -4.357    -4.738    -1.490
    155    C    -5.045    -5.183    -2.511
    156    H    -5.936    -4.708    -2.921
    157    C    -5.709    -8.299    -3.906
    158    H    -5.306    -8.742    -2.976
    159    O    -5.577    -9.222    -4.971
    160    H    -6.120    -9.986    -4.749
    161    C    -7.157    -7.831    -3.739
    162    H    -7.268    -7.234    -2.804
    163    O    -8.166    -8.868    -3.873
    164    P    -8.646    -9.619    -2.566
    165    O    -8.976    -8.616    -1.527
    166    O    -9.712    -10.585    -2.927
    167    O    -7.367    -10.413    -2.104
    168    C    -6.853    -11.524    -2.871
    169    H    -6.641    -11.234    -3.921
    170    H    -7.592    -12.356    -2.902
    171    C    -5.567    -12.088    -2.255
    172    H    -5.181    -12.946    -2.845
    173    O    -4.523    -11.072    -2.228
    174    C    -3.800    -11.180    -1.008
    175    H    -2.735    -11.319    -1.305
    176    N    -3.903    -9.953    -0.165
    177    C    -4.933    -9.063    -0.355
    178    H    -5.645    -9.316    -1.134
    179    C    -5.033    -7.937    0.366
    180    H    -5.825    -7.210    0.203
    181    C    -2.965    -9.713    0.833
    182    O    -2.058    -10.537    1.021
    183    N    -3.048    -8.584    1.576
    184    C    -4.046    -7.707    1.364
    185    N    -4.096    -6.598    2.099
    186    H    -3.405    -6.441    2.807
    187    H    -4.799    -5.901    1.957
    188    C    -4.280    -12.437    -0.294
    189    H    -4.250    -12.334    0.813
    190    O    -3.497    -13.550    -0.701
    191    H    -3.890    -14.371    -0.360
    192    C    -5.716    -12.529    -0.795
    193    H    -6.354    -11.784    -0.273
    194    O    -6.300    -13.841    -0.719
    195    H    -6.386    -14.113    0.214
    196    H    3.857    -4.400    9.454
    197    O    3.753    -5.096    8.775
    198    C    4.610    -6.182    9.153
    199    H    4.348    -6.517    10.182
    200    H    5.665    -5.828    9.171
    201    C    4.513    -7.389    8.211
    202    H    5.228    -8.181    8.516
    203    O    3.174    -7.969    8.272
    204    C    2.782    -8.367    6.962
    205    H    2.493    -9.441    7.022
    206    N    1.635    -7.593    6.476
    207    C    0.805    -7.953    5.453
    208    N    -0.090    -10.173    2.954
    209    H    0.606    -10.885    3.028
    210    H    -0.812    -10.271    2.265
    211    N    0.912    -9.066    4.708
    212    C    -0.050    -9.157    3.795
    213    N    -1.053    -8.231    3.664
    214    H    -1.750    -8.382    2.954
    215    C    -1.199    -7.079    4.431
    216    O    -2.133    -6.292    4.247
    217    C    -0.147    -6.954    5.377
    218    N    0.104    -5.960    6.316
    219    C    1.182    -6.379    6.941
    220    H    1.684    -5.864    7.763
    221    C    3.986    -8.227    6.058
    222    H    3.710    -7.981    5.012
    223    O    4.752    -9.416    6.077
    224    H    5.536    -9.246    5.541
    225    C    4.730    -7.079    6.722
    226    H    4.202    -6.116    6.522
    227    O    6.145    -7.037    6.428
    228    P    6.665    -6.071    5.303
    229    O    5.974    -4.773    5.427
    230    O    8.142    -6.042    5.346
    231    O    6.203    -6.766    3.966
    232    C    6.788    -8.034    3.580
    233    H    6.697    -8.795    4.388
    234    H    7.875    -7.910    3.362
    235    C    6.122    -8.601    2.316
    236    H    6.642    -9.525    1.981
    237    O    4.741    -8.967    2.589
    238    C    3.949    -8.689    1.435
    239    H    3.468    -9.654    1.152
    240    N    2.894    -7.668    1.697
    241    C    3.056    -6.772    2.729
    242    H    3.957    -6.897    3.327
    243    C    2.133    -5.842    3.002
    244    H    2.231    -5.161    3.842
    245    C    1.771    -7.577    0.878
    246    O    1.640    -8.367    -0.070
    247    N    0.835    -6.631    1.130
    248    C    0.992    -5.776    2.155
    249    N    0.051    -4.861    2.377
    250    H    -0.737    -4.819    1.755
    251    H    0.074    -4.251    3.172
    252    C    4.897    -8.262    0.324
    253    H    4.435    -7.522    -0.364
    254    O    5.344    -9.387    -0.414
    255    H    6.034    -9.083    -1.026
    256    C    6.031    -7.632    1.131
    257    H    5.718    -6.643    1.532
    258    O    7.306    -7.564    0.479
    259    P    7.589    -6.643    -0.754
    260    O    8.781    -5.823    -0.433
    261    O    7.688    -7.512    -1.946
    262    O    6.332    -5.694    -0.861
    263    C    6.071    -4.973    -2.088
    264    H    7.004    -4.556    -2.530
    265    H    5.426    -4.097    -1.851
    266    C    5.338    -5.831    -3.132
    267    H    5.924    -6.741    -3.386
    268    O    4.059    -6.267    -2.598
    269    C    3.116    -6.355    -3.650
    270    H    2.755    -7.409    -3.684
    271    N    1.987    -5.463    -3.408
    272    C    0.041    -4.455    -3.518
    273    N    0.725    -3.858    -2.474
    274    C    1.872    -4.494    -2.440
    275    H    2.686    -4.299    -1.735
    276    N    -1.637    -5.030    -5.072
    277    C    -0.775    -5.932    -5.548
    278    H    -1.141    -6.514    -6.403
    279    N    0.461    -6.226    -5.131
    280    C    0.808    -5.445    -4.103
    281    C    -1.253    -4.258    -4.035
    282    N    -2.142    -3.393    -3.530
    283    H    -1.885    -2.732    -2.810
    284    H    -3.084    -3.714    -3.457
    285    C    3.839    -6.022    -4.939
    286    H    3.200    -5.477    -5.663
    287    O    4.324    -7.212    -5.532
    288    H    4.961    -6.952    -6.211
    289    C    4.979    -5.135    -4.451
    290    H    4.615    -4.116    -4.188
    291    O    6.119    -5.120    -5.334
    292    P    6.297    -3.977    -6.393
    293    O    6.324    -2.698    -5.656
    294    O    7.485    -4.306    -7.218
    295    O    4.996    -4.022    -7.277
    296    C    4.769    -5.074    -8.246
    297    H    4.817    -6.077    -7.771
    298    H    5.539    -5.039    -9.051
    299    C    3.382    -4.939    -8.908
    300    H    3.203    -5.774    -9.615
    301    O    2.324    -5.006    -7.903
    302    C    1.291    -4.085    -8.233
    303    H    0.365    -4.703    -8.318
    304    N    1.098    -3.038    -7.189
    305    C    2.097    -2.696    -6.310
    306    H    3.039    -3.223    -6.458
    307    C    -0.120    -2.406    -7.153
    308    O    -1.009    -2.655    -7.958
    309    N    -0.266    -1.473    -6.157
    310    H    -1.156    -1.009    -6.134
    311    C    0.672    -1.101    -5.218
    312    O    0.397    -0.240    -4.385
    313    C    1.932    -1.781    -5.341
    314    H    2.739    -1.526    -4.655
    315    C    1.615    -3.506    -9.601
    316    H    1.299    -2.447    -9.692
    317    O    1.000    -4.272    -10.620
    318    H    1.403    -3.995    -11.453
    319    C    3.134    -3.626    -9.654
    320    H    3.603    -2.825    -9.036
    321    O    3.680    -3.715    -10.989
    322    P    4.371    -2.471    -11.648
    323    O    5.420    -1.945    -10.746
    324    O    4.800    -2.820    -13.016
    325    O    3.218    -1.409    -11.717
    326    C    2.149    -1.525    -12.679
    327    H    1.651    -2.520    -12.615
    328    H    2.552    -1.409    -13.712
    329    C    1.078    -0.442    -12.464
    330    H    0.286    -0.519    -13.237
    331    O    0.417    -0.632    -11.174
    332    C    0.178    0.645    -10.579
    333    H    -0.909    0.669    -10.342
    334    N    0.953    0.861    -9.317
    335    C    2.103    0.144    -9.082
    336    H    2.361    -0.595    -9.835
    337    C    2.825    0.317    -7.966
    338    H    3.723    -0.263    -7.759
    339    C    0.578    1.858    -8.421
    340    O    -0.388    2.583    -8.693
    341    N    1.275    2.027    -7.272
    342    C    2.363    1.278    -7.024
    343    N    3.001    1.431    -5.864
    344    H    2.691    2.137    -5.222
    345    H    3.868    0.971    -5.665
    346    C    0.469    1.696    -11.633
    347    H    0.823    2.651    -11.194
    348    O    -0.687    1.940    -12.420
    349    H    -0.416    2.514    -13.149
    350    C    1.572    1.011    -12.434
    351    H    2.523    1.013    -11.853
    352    O    1.727    1.495    -13.780
    353    P    2.897    2.470    -14.153
    354    O    4.127    2.064    -13.443
    355    O    2.976    2.575    -15.629
    356    O    2.424    3.846    -13.557
    357    C    1.254    4.501    -14.096
    358    H    0.367    3.827    -14.092
    359    H    1.442    4.824    -15.148
    360    C    0.901    5.750    -13.281
    361    H    0.064    6.306    -13.755
    362    O    0.460    5.366    -11.945
    363    C    0.949    6.306    -10.997
    364    H    0.054    6.698    -10.461
    365    N    1.890    5.676    -10.024
    366    C    2.527    4.488    -10.312
    367    H    2.289    4.058    -11.283
    368    C    2.106    6.313    -8.823
    369    O    1.562    7.373    -8.530
    370    N    2.978    5.678    -7.977
    371    H    3.168    6.163    -7.107
    372    C    3.646    4.492    -8.195
    373    O    4.407    4.046    -7.339
    374    C    3.360    3.879    -9.457
    375    H    3.843    2.936    -9.707
    376    C    1.597    7.445    -11.781
    377    H    2.459    7.883    -11.235
    378    O    0.637    8.454    -12.057
    379    H    1.016    9.073    -12.706
    380    C    2.064    6.725    -13.043
    381    H    2.983    6.138    -12.835
    382    O    2.243    7.583    -14.183
    383    H    2.999    8.178    -14.035
 $END
