!*** FMO 5.3 (Gamess) INPUT generated by Facio 22.1.1.32 ***
 $CONTRL RUNTYP=ENERGY NPRINT=-5 ISPHER=1 MAXIT=200 $END
 $SYSTEM MWORDS=63 MEMDDI=63 $END
 $GDDI NGROUP=1 $END
 $SCF DIRSCF=.TRUE. NPUNCH=0 $END
!*** NumCPU : 2  MemPerNode : 512MB
 $PCM SOLVNT=WATER IEF=-10 ICOMP=2 ICAV=1 IDISP=1 IFMO=-1 $END
 $PCMCAV RADII=SUAHF $END
 $TESCAV NTSALL=60 $END
 $FMOPRP
    NAODIR=200
    NGRFMO(1)=1, 1, 0, 0, 0,   0, 0, 0, 0, 0
    IPIEDA=1
    NPRINT=9
 $END
 $FMO
      SCFTYP(1)=RHF
      MODGRD=10
      MODMUL=0
      MAXCAO=5
      MAXBND=14
      NLAYER=1
      MPLEVL(1)=2
      NFRAG=12
      ICHARG(1)=-1, -1, -1, -1, -1, 0, -1, -1, -1, -1, -1, 0
      FRGNAM(1)=F1, F2, F3, F4, F5, F6, F7, F8, F9, F10, F11, F12
      indat(1)=0
               1   -35   0
               36   -69   0
               70   -99   0
               100   -133   0
               134   -167   0
               168   -197   0
               198   -231   0
               232   -262   0
               263   -295   0
               296   -325   0
               326   -356   0
               357   -383   0
 $END

 $FMOBND
   -36   35       6-31G*    MINI
   -70   69       6-31G*    MINI
   -100   99       6-31G*    MINI
   -134   133       6-31G*    MINI
   -168   167       6-31G*    MINI
   -198   197       6-31G*    MINI
   -232   231       6-31G*    MINI
   -263   262       6-31G*    MINI
   -296   295       6-31G*    MINI
   -326   325       6-31G*    MINI
   -357   356       6-31G*    MINI
 $END
 $FMOHYB
 6-31G*      15   5
   1 0  -0.065034   0.288264   0.000000   0.000000   0.604412
         0.290129   0.000000   0.000000   0.319045  -0.017106
        -0.017106   0.057934   0.000000   0.000000   0.000000
   0 1  -0.065040   0.288293   0.569832   0.000000  -0.201456
         0.290147   0.300783   0.000000  -0.106342   0.049598
        -0.017106  -0.008771   0.000000  -0.027223   0.000000
   0 1  -0.065039   0.288293  -0.284916  -0.493490  -0.201455
         0.290145  -0.150392  -0.260486  -0.106340  -0.000427
         0.032923  -0.008771   0.033353   0.013612   0.023576
   0 1  -0.065039   0.288293  -0.284916   0.493490  -0.201455
         0.290145  -0.150392   0.260486  -0.106340  -0.000427
         0.032923  -0.008771  -0.033353   0.013612  -0.023576
   0 1   1.010938  -0.011975   0.000000   0.000000   0.000000
        -0.054085   0.000000   0.000000  -0.000000  -0.003174
        -0.003174  -0.003174   0.000000   0.000000   0.000000
 MINI         5   5
   1 0  -0.104883   0.308874   0.000000   0.000000   0.521806
   0 1  -0.104883   0.308874   0.491961   0.000000  -0.173934
   0 1  -0.104883   0.308876  -0.245980  -0.426050  -0.173933
   0 1  -0.104883   0.308876  -0.245980   0.426050  -0.173933
   0 1   0.988209   0.063992   0.000000   0.000000   0.000000
 $END
 
 $DATA
 FMO calculation
 C1 
 H.1-1    1
      N31 6
   
 O.1-1    8
      N31 6
      d 1
      1 0.800 1.0
   
 C.1-1    6
      N31 6
      d 1
      1 0.800 1.0
   
 N.1-1    7
      N31 6
      d 1
      1 0.800 1.0
   
 P.1-1   15
      N31 6
      d 1
      1 0.550 1.0
   
 $END
 $FMOXYZ
    1    H    5.544    7.543    3.623
    2    O    5.056    7.818    2.826
    3    C    4.426    9.068    3.141
    4    H    5.212    9.835    3.326
    5    H    3.833    8.959    4.075
    6    C    3.505    9.566    2.025
    7    H    3.027    10.533    2.300
    8    O    4.282    9.777    0.806
    9    C    3.511    9.377    -0.313
    10    H    3.464    10.253    -0.998
    11    N    4.131    8.250    -1.022
    12    C    4.710    6.794    -2.568
    13    N    5.497    6.514    -1.457
    14    C    5.121    7.405    -0.569
    15    H    5.528    7.500    0.441
    16    N    3.758    6.754    -4.742
    17    C    2.980    7.760    -4.329
    18    H    2.276    8.137    -5.078
    19    N    2.959    8.392    -3.150
    20    C    3.860    7.856    -2.309
    21    C    4.654    6.231    -3.863
    22    N    5.444    5.216    -4.264
    23    H    6.123    4.811    -3.645
    24    H    5.351    4.822    -5.181
    25    C    2.121    9.059    0.190
    26    H    1.623    8.275    -0.412
    27    O    1.331    10.235    0.191
    28    H    0.463    9.968    0.516
    29    C    2.407    8.577    1.610
    30    H    2.872    7.568    1.596
    31    O    1.299    8.653    2.534
    32    P    0.302    7.437    2.666
    33    O    1.059    6.190    2.917
    34    O    -0.741    7.784    3.655
    35    O    -0.361    7.346    1.244
    36    C    -1.351    8.337    0.873
    37    H    -0.954    9.374    0.962
    38    H    -2.249    8.267    1.531
    39    C    -1.802    8.125    -0.573
    40    H    -2.504    8.929    -0.887
    41    O    -0.651    8.184    -1.469
    42    C    -0.841    7.254    -2.525
    43    H    -0.790    7.841    -3.471
    44    N    0.205    6.222    -2.560
    45    C    0.504    5.406    -3.623
    46    N    -0.179    4.232    -6.809
    47    H    -0.988    4.763    -7.062
    48    H    0.135    3.505    -7.424
    49    N    -0.122    5.392    -4.819
    50    C    0.359    4.447    -5.623
    51    N    1.419    3.644    -5.294
    52    H    1.723    2.963    -5.973
    53    C    2.114    3.669    -4.093
    54    O    3.061    2.903    -3.897
    55    C    1.567    4.628    -3.197
    56    N    1.920    4.941    -1.888
    57    C    1.080    5.888    -1.551
    58    H    1.040    6.383    -0.579
    59    C    -2.226    6.670    -2.365
    60    H    -2.290    5.620    -2.714
    61    O    -3.148    7.478    -3.070
    62    H    -4.032    7.177    -2.824
    63    C    -2.448    6.769    -0.864
    64    H    -1.854    6.002    -0.319
    65    O    -3.833    6.793    -0.466
    66    P    -4.603    5.452    -0.177
    67    O    -3.873    4.738    0.893
    68    O    -6.018    5.793    0.093
    69    O    -4.496    4.612    -1.504
    70    C    -5.266    4.903    -2.693
    71    H    -5.104    5.946    -3.040
    72    H    -6.355    4.795    -2.485
    73    C    -4.911    3.956    -3.859
    74    H    -5.492    4.218    -4.770
    75    O    -3.498    4.056    -4.202
    76    C    -2.982    2.769    -4.522
    77    H    -2.596    2.854    -5.566
    78    N    -1.874    2.368    -3.599
    79    C    -1.802    2.888    -2.325
    80    H    -2.603    3.570    -2.058
    81    C    -0.909    1.495    -4.056
    82    O    -0.920    1.010    -5.179
    83    N    0.088    1.218    -3.153
    84    H    0.826    0.601    -3.467
    85    C    0.212    1.682    -1.865
    86    O    1.133    1.283    -1.160
    87    C    -0.810    2.600    -1.469
    88    H    -0.770    3.025    -0.468
    89    C    -4.153    1.794    -4.507
    90    H    -3.857    0.799    -4.116
    91    O    -4.700    1.650    -5.804
    92    H    -5.522    1.149    -5.705
    93    C    -5.134    2.475    -3.555
    94    H    -4.801    2.322    -2.502
    95    O    -6.530    2.130    -3.752
    96    P    -7.063    0.825    -3.041
    97    O    -5.901    -0.017    -2.671
    98    O    -7.969    1.224    -1.942
    99    O    -7.908    0.118    -4.168
    100    C    -8.191    -1.297    -4.053
    101    H    -8.750    -1.515    -3.117
    102    H    -7.246    -1.878    -3.991
    103    C    -9.024    -1.833    -5.237
    104    H    -10.033    -1.368    -5.235
    105    O    -8.415    -1.512    -6.529
    106    C    -8.481    -2.651    -7.387
    107    H    -8.919    -2.280    -8.340
    108    N    -7.157    -3.266    -7.663
    109    C    -5.977    -3.141    -6.960
    110    N    -4.217    -1.785    -4.305
    111    H    -3.376    -2.014    -3.829
    112    H    -4.946    -1.299    -3.811
    113    N    -5.781    -2.397    -5.864
    114    C    -4.563    -2.467    -5.380
    115    N    -3.585    -3.218    -5.965
    116    H    -2.679    -3.202    -5.532
    117    C    -3.731    -4.002    -7.106
    118    O    -2.791    -4.664    -7.558
    119    C    -5.057    -3.928    -7.619
    120    N    -5.632    -4.528    -8.733
    121    C    -6.878    -4.107    -8.721
    122    H    -7.636    -4.369    -9.468
    123    C    -9.421    -3.643    -6.737
    124    H    -9.164    -4.697    -6.982
    125    O    -10.759    -3.383    -7.118
    126    H    -11.321    -3.968    -6.581
    127    C    -9.186    -3.358    -5.256
    128    H    -8.204    -3.773    -4.946
    129    O    -10.243    -3.741    -4.356
    130    P    -10.644    -5.243    -4.141
    131    O    -11.120    -5.383    -2.751
    132    O    -11.592    -5.605    -5.219
    133    O    -9.304    -6.060    -4.311
    134    C    -9.291    -7.213    -5.188
    135    H    -9.374    -6.885    -6.250
    136    H    -10.143    -7.903    -4.969
    137    C    -7.996    -8.023    -5.047
    138    H    -7.985    -8.889    -5.740
    139    O    -6.851    -7.187    -5.386
    140    C    -5.789    -7.458    -4.483
    141    H    -4.895    -7.696    -5.102
    142    N    -5.490    -6.293    -3.636
    143    C    -4.361    -6.093    -2.890
    144    N    -1.281    -7.193    -1.741
    145    H    -1.186    -8.083    -2.187
    146    H    -0.570    -6.888    -1.100
    147    N    -3.327    -6.944    -2.781
    148    C    -2.367    -6.481    -1.983
    149    N    -2.434    -5.257    -1.370
    150    H    -1.666    -4.979    -0.778
    151    C    -3.474    -4.342    -1.486
    152    O    -3.435    -3.257    -0.899
    153    C    -4.521    -4.852    -2.302
    154    N    -5.748    -4.298    -2.646
    155    C    -6.284    -5.189    -3.442
    156    H    -7.248    -5.102    -3.936
    157    C    -6.183    -8.676    -3.674
    158    H    -5.739    -8.674    -2.660
    159    O    -5.791    -9.850    -4.357
    160    H    -6.128    -10.594    -3.846
    161    C    -7.702    -8.537    -3.628
    162    H    -7.989    -7.715    -2.929
    163    O    -8.420    -9.776    -3.392
    164    P    -8.916    -10.095    -1.929
    165    O    -9.504    -8.875    -1.352
    166    O    -9.772    -11.301    -1.944
    167    O    -7.597    -10.433    -1.137
    168    C    -6.860    -11.635    -1.472
    169    H    -6.598    -11.666    -2.553
    170    H    -7.472    -12.540    -1.246
    171    C    -5.559    -11.743    -0.665
    172    H    -5.032    -12.696    -0.883
    173    O    -4.656    -10.664    -1.036
    174    C    -3.995    -10.182    0.132
    175    H    -2.905    -10.271    -0.088
    176    N    -4.309    -8.759    0.428
    177    C    -5.434    -8.170    -0.098
    178    H    -6.055    -8.807    -0.725
    179    C    -5.729    -6.887    0.137
    180    H    -6.600    -6.400    -0.298
    181    C    -3.475    -8.021    1.260
    182    O    -2.481    -8.569    1.760
    183    N    -3.759    -6.725    1.518
    184    C    -4.850    -6.152    0.980
    185    N    -5.100    -4.872    1.238
    186    H    -4.462    -4.343    1.802
    187    H    -5.891    -4.400    0.847
    188    C    -4.343    -11.119    1.282
    189    H    -4.394    -10.589    2.256
    190    O    -3.393    -12.172    1.348
    191    H    -3.733    -12.853    1.953
    192    C    -5.719    -11.614    0.854
    193    H    -6.486    -10.835    1.069
    194    O    -6.102    -12.876    1.430
    195    H    -6.280    -12.766    2.382
    196    H    2.111    1.170    7.107
    197    O    2.093    0.250    6.787
    198    C    3.045    -0.480    7.573
    199    H    2.739    -0.445    8.643
    200    H    4.041    0.013    7.493
    201    C    3.173    -1.946    7.150
    202    H    3.974    -2.456    7.731
    203    O    1.922    -2.645    7.422
    204    C    1.675    -3.571    6.375
    205    H    1.532    -4.569    6.851
    206    N    0.466    -3.225    5.613
    207    C    -0.243    -4.070    4.803
    208    N    -0.692    -7.203    3.409
    209    H    0.091    -7.710    3.758
    210    H    -1.345    -7.664    2.802
    211    N    0.056    -5.356    4.557
    212    C    -0.836    -5.941    3.764
    213    N    -1.939    -5.294    3.273
    214    H    -2.575    -5.815    2.689
    215    C    -2.282    -3.971    3.518
    216    O    -3.307    -3.470    3.041
    217    C    -1.312    -3.330    4.336
    218    N    -1.259    -2.025    4.815
    219    C    -0.180    -2.008    5.565
    220    H    0.184    -1.148    6.134
    221    C    2.906    -3.606    5.503
    222    H    2.675    -3.850    4.448
    223    O    3.829    -4.542    6.024
    224    H    4.587    -4.548    5.427
    225    C    3.423    -2.182    5.652
    226    H    2.772    -1.468    5.095
    227    O    4.824    -2.003    5.355
    228    P    5.278    -1.666    3.886
    229    O    4.480    -0.529    3.392
    230    O    6.744    -1.499    3.874
    231    O    4.907    -2.937    3.038
    232    C    5.658    -4.162    3.217
    233    H    5.698    -4.474    4.283
    234    H    6.711    -4.019    2.888
    235    C    5.059    -5.314    2.396
    236    H    5.640    -6.249    2.556
    237    O    3.687    -5.570    2.812
    238    C    2.904    -5.905    1.671
    239    H    2.457    -6.902    1.897
    240    N    1.807    -4.931    1.399
    241    C    1.877    -3.653    1.901
    242    H    2.754    -3.427    2.504
    243    C    0.905    -2.759    1.683
    244    H    0.931    -1.756    2.105
    245    C    0.736    -5.287    0.581
    246    O    0.710    -6.418    0.073
    247    N    -0.260    -4.401    0.354
    248    C    -0.199    -3.168    0.883
    249    N    -1.205    -2.328    0.663
    250    H    -2.007    -2.642    0.149
    251    H    -1.246    -1.429    1.105
    252    C    3.858    -6.041    0.501
    253    H    3.392    -5.766    -0.465
    254    O    4.348    -7.366    0.432
    255    H    5.030    -7.369    -0.253
    256    C    4.961    -5.058    0.884
    257    H    4.618    -4.002    0.759
    258    O    6.240    -5.308    0.259
    259    P    6.606    -4.590    -1.091
    260    O    6.201    -3.171    -1.019
    261    O    8.032    -4.853    -1.388
    262    O    5.709    -5.310    -2.157
    263    C    5.917    -6.686    -2.536
    264    H    5.924    -7.357    -1.651
    265    H    6.896    -6.804    -3.046
    266    C    4.801    -7.157    -3.490
    267    H    4.932    -8.226    -3.767
    268    O    3.520    -7.043    -2.806
    269    C    2.534    -6.587    -3.710
    270    H    1.715    -7.344    -3.690
    271    N    1.999    -5.289    -3.295
    272    C    0.657    -3.578    -2.993
    273    N    1.815    -3.285    -2.293
    274    C    2.580    -4.327    -2.505
    275    H    3.581    -4.455    -2.099
    276    N    -1.488    -3.439    -3.971
    277    C    -1.221    -4.631    -4.526
    278    H    -2.009    -5.066    -5.151
    279    N    -0.140    -5.394    -4.400
    280    C    0.767    -4.805    -3.621
    281    C    -0.550    -2.871    -3.173
    282    N    -0.807    -1.689    -2.583
    283    H    -0.151    -1.300    -1.936
    284    H    -1.735    -1.322    -2.579
    285    C    3.146    -6.552    -5.093
    286    H    2.741    -5.731    -5.722
    287    O    2.929    -7.790    -5.737
    288    H    3.480    -7.800    -6.531
    289    C    4.627    -6.330    -4.783
    290    H    4.804    -5.267    -4.504
    291    O    5.540    -6.795    -5.810
    292    P    5.981    -5.820    -6.963
    293    O    6.563    -4.603    -6.360
    294    O    6.836    -6.573    -7.908
    295    O    4.648    -5.405    -7.678
    296    C    3.939    -6.233    -8.615
    297    H    3.631    -7.191    -8.142
    298    H    4.589    -6.482    -9.484
    299    C    2.673    -5.530    -9.149
    300    H    2.128    -6.197    -9.851
    301    O    1.745    -5.226    -8.058
    302    C    1.114    -3.973    -8.295
    303    H    0.020    -4.193    -8.318
    304    N    1.415    -2.984    -7.216
    305    C    2.595    -3.054    -6.509
    306    H    3.261    -3.866    -6.795
    307    C    0.493    -1.991    -6.955
    308    O    -0.550    -1.862    -7.582
    309    N    0.832    -1.150    -5.928
    310    H    0.158    -0.428    -5.725
    311    C    1.950    -1.208    -5.129
    312    O    2.071    -0.422    -4.194
    313    C    2.887    -2.230    -5.492
    314    H    3.798    -2.340    -4.907
    315    C    1.556    -3.494    -9.675
    316    H    1.669    -2.391    -9.718
    317    O    0.633    -3.918    -10.663
    318    H    1.027    -3.726    -11.528
    319    C    2.907    -4.184    -9.843
    320    H    3.679    -3.664    -9.232
    321    O    3.314    -4.399    -11.216
    322    P    4.266    -3.370    -11.929
    323    O    4.976    -2.570    -10.909
    324    O    5.098    -4.103    -12.908
    325    O    3.278    -2.438    -12.734
    326    C    3.590    -1.033    -12.949
    327    H    3.939    -0.882    -13.995
    328    H    4.411    -0.664    -12.287
    329    C    2.375    -0.117    -12.710
    330    H    1.630    -0.206    -13.526
    331    O    1.704    -0.498    -11.475
    332    C    1.346    0.663    -10.748
    333    H    0.261    0.559    -10.523
    334    N    2.105    0.784    -9.470
    335    C    3.287    0.093    -9.285
    336    H    3.609    -0.552    -10.109
    337    C    3.975    0.186    -8.140
    338    H    4.896    -0.366    -7.967
    339    C    1.630    1.615    -8.460
    340    O    0.578    2.247    -8.641
    341    N    2.318    1.725    -7.300
    342    C    3.457    1.035    -7.120
    343    N    4.095    1.137    -5.956
    344    H    3.710    1.714    -5.231
    345    H    4.966    0.678    -5.774
    346    C    1.550    1.849    -11.673
    347    H    1.779    2.784    -11.123
    348    O    0.404    2.042    -12.481
    349    H    0.613    2.733    -13.123
    350    C    2.735    1.367    -12.498
    351    H    3.655    1.380    -11.867
    352    O    2.910    2.026    -13.775
    353    P    3.967    3.186    -13.903
    354    O    5.192    2.815    -13.161
    355    O    4.144    3.573    -15.325
    356    O    3.272    4.374    -13.136
    357    C    2.045    4.971    -13.628
    358    H    1.244    4.208    -13.761
    359    H    2.211    5.441    -14.625
    360    C    1.506    6.063    -12.684
    361    H    0.611    6.553    -13.123
    362    O    1.096    5.468    -11.419
    363    C    1.452    6.336    -10.346
    364    H    0.507    6.533    -9.789
    365    N    2.454    5.710    -9.435
    366    C    3.249    4.670    -9.857
    367    H    3.088    4.348    -10.884
    368    C    2.580    6.221    -8.161
    369    O    1.925    7.172    -7.762
    370    N    3.506    5.582    -7.375
    371    H    3.627    5.974    -6.447
    372    C    4.325    4.531    -7.724
    373    O    5.123    4.075    -6.908
    374    C    4.143    4.063    -9.065
    375    H    4.747    3.231    -9.422
    376    C    1.950    7.641    -10.959
    377    H    2.748    8.107    -10.343
    378    O    0.869    8.551    -11.113
    379    H    1.160    9.300    -11.662
    380    C    2.507    7.157    -12.294
    381    H    3.500    6.685    -12.141
    382    O    2.583    8.166    -13.315
    383    H    3.264    8.827    -13.079
 $END
