!*** FMO 5.3 (Gamess) INPUT generated by Facio 22.1.1.32 ***
 $CONTRL RUNTYP=ENERGY NPRINT=-5 ISPHER=1 MAXIT=200 $END
 $SYSTEM MWORDS=63 MEMDDI=63 $END
 $GDDI NGROUP=1 $END
 $SCF DIRSCF=.TRUE. NPUNCH=0 $END
!*** NumCPU : 2  MemPerNode : 512MB
 $PCM SOLVNT=WATER IEF=-10 ICOMP=2 ICAV=1 IDISP=1 IFMO=-1 $END
 $PCMCAV RADII=SUAHF $END
 $TESCAV NTSALL=60 $END
 $FMOPRP
    NAODIR=200
    NGRFMO(1)=1, 1, 0, 0, 0,   0, 0, 0, 0, 0
    IPIEDA=1
    NPRINT=9
 $END
 $FMO
      SCFTYP(1)=RHF
      MODGRD=10
      MODMUL=0
      MAXCAO=5
      MAXBND=14
      NLAYER=1
      MPLEVL(1)=2
      NFRAG=12
      ICHARG(1)=-1, -1, -1, -1, -1, 0, -1, -1, -1, -1, -1, 0
      FRGNAM(1)=F1, F2, F3, F4, F5, F6, F7, F8, F9, F10, F11, F12
      indat(1)=0
               1   -35   0
               36   -69   0
               70   -99   0
               100   -133   0
               134   -167   0
               168   -197   0
               198   -231   0
               232   -262   0
               263   -295   0
               296   -325   0
               326   -356   0
               357   -383   0
 $END

 $FMOBND
   -36   35       6-31G*    MINI
   -70   69       6-31G*    MINI
   -100   99       6-31G*    MINI
   -134   133       6-31G*    MINI
   -168   167       6-31G*    MINI
   -198   197       6-31G*    MINI
   -232   231       6-31G*    MINI
   -263   262       6-31G*    MINI
   -296   295       6-31G*    MINI
   -326   325       6-31G*    MINI
   -357   356       6-31G*    MINI
 $END
 $FMOHYB
 6-31G*      15   5
   1 0  -0.065034   0.288264   0.000000   0.000000   0.604412
         0.290129   0.000000   0.000000   0.319045  -0.017106
        -0.017106   0.057934   0.000000   0.000000   0.000000
   0 1  -0.065040   0.288293   0.569832   0.000000  -0.201456
         0.290147   0.300783   0.000000  -0.106342   0.049598
        -0.017106  -0.008771   0.000000  -0.027223   0.000000
   0 1  -0.065039   0.288293  -0.284916  -0.493490  -0.201455
         0.290145  -0.150392  -0.260486  -0.106340  -0.000427
         0.032923  -0.008771   0.033353   0.013612   0.023576
   0 1  -0.065039   0.288293  -0.284916   0.493490  -0.201455
         0.290145  -0.150392   0.260486  -0.106340  -0.000427
         0.032923  -0.008771  -0.033353   0.013612  -0.023576
   0 1   1.010938  -0.011975   0.000000   0.000000   0.000000
        -0.054085   0.000000   0.000000  -0.000000  -0.003174
        -0.003174  -0.003174   0.000000   0.000000   0.000000
 MINI         5   5
   1 0  -0.104883   0.308874   0.000000   0.000000   0.521806
   0 1  -0.104883   0.308874   0.491961   0.000000  -0.173934
   0 1  -0.104883   0.308876  -0.245980  -0.426050  -0.173933
   0 1  -0.104883   0.308876  -0.245980   0.426050  -0.173933
   0 1   0.988209   0.063992   0.000000   0.000000   0.000000
 $END
 
 $DATA
 FMO calculation
 C1 
 H.1-1    1
      N31 6
   
 O.1-1    8
      N31 6
      d 1
      1 0.800 1.0
   
 C.1-1    6
      N31 6
      d 1
      1 0.800 1.0
   
 N.1-1    7
      N31 6
      d 1
      1 0.800 1.0
   
 P.1-1   15
      N31 6
      d 1
      1 0.550 1.0
   
 $END
 $FMOXYZ
    1    H    5.606    7.551    3.691
    2    O    5.025    7.754    2.932
    3    C    4.353    8.981    3.247
    4    H    5.107    9.777    3.428
    5    H    3.766    8.852    4.180
    6    C    3.401    9.442    2.141
    7    H    2.882    10.383    2.431
    8    O    4.154    9.694    0.915
    9    C    3.386    9.262    -0.197
    10    H    3.289    10.137    -0.879
    11    N    4.053    8.169    -0.917
    12    C    4.696    6.757    -2.477
    13    N    5.515    6.520    -1.378
    14    C    5.093    7.381    -0.480
    15    H    5.505    7.495    0.526
    16    N    3.710    6.663    -4.633
    17    C    2.890    7.632    -4.211
    18    H    2.155    7.974    -4.948
    19    N    2.848    8.253    -3.028
    20    C    3.788    7.765    -2.202
    21    C    4.650    6.193    -3.772
    22    N    5.495    5.233    -4.196
    23    H    6.196    4.852    -3.587
    24    H    5.400    4.833    -5.110
    25    C    2.016    8.881    0.321
    26    H    1.541    8.080    -0.280
    27    O    1.183    10.025    0.341
    28    H    0.335    9.744    0.705
    29    C    2.343    8.407    1.733
    30    H    2.867    7.431    1.704
    31    O    1.244    8.414    2.671
    32    P    0.309    7.145    2.798
    33    O    1.138    5.937    3.015
    34    O    -0.733    7.432    3.811
    35    O    -0.372    7.046    1.379
    36    C    -1.419    7.984    1.024
    37    H    -1.066    9.036    1.099
    38    H    -2.292    7.875    1.707
    39    C    -1.912    7.747    -0.410
    40    H    -2.668    8.508    -0.703
    41    O    -0.803    7.849    -1.345
    42    C    -0.982    6.898    -2.385
    43    H    -1.003    7.475    -3.337
    44    N    0.130    5.939    -2.441
    45    C    0.451    5.138    -3.505
    46    N    -0.188    3.987    -6.707
    47    H    -1.039    4.456    -6.939
    48    H    0.171    3.298    -7.342
    49    N    -0.213    5.075    -4.676
    50    C    0.341    4.204    -5.517
    51    N    1.468    3.482    -5.223
    52    H    1.811    2.838    -5.918
    53    C    2.185    3.544    -4.037
    54    O    3.191    2.847    -3.873
    55    C    1.583    4.444    -3.116
    56    N    1.951    4.784    -1.820
    57    C    1.056    5.671    -1.457
    58    H    1.012    6.174    -0.489
    59    C    -2.322    6.221    -2.172
    60    H    -2.320    5.153    -2.480
    61    O    -3.339    6.919    -2.869
    62    H    -4.180    6.499    -2.626
    63    C    -2.497    6.352    -0.663
    64    H    -1.835    5.632    -0.129
    65    O    -3.862    6.295    -0.192
    66    P    -4.565    4.885    -0.101
    67    O    -3.559    3.907    0.364
    68    O    -5.794    5.027    0.706
    69    O    -4.957    4.548    -1.595
    70    C    -5.303    3.181    -1.953
    71    H    -6.398    3.028    -1.814
    72    H    -4.773    2.425    -1.325
    73    C    -4.961    2.902    -3.428
    74    H    -5.516    3.614    -4.077
    75    O    -3.534    3.074    -3.662
    76    C    -2.932    1.822    -3.925
    77    H    -2.772    1.811    -5.030
    78    N    -1.662    1.679    -3.165
    79    C    -1.574    2.159    -1.874
    80    H    -2.475    2.648    -1.490
    81    C    -0.579    1.090    -3.775
    82    O    -0.606    0.673    -4.930
    83    N    0.542    0.994    -2.996
    84    H    1.339    0.530    -3.412
    85    C    0.714    1.468    -1.716
    86    O    1.795    1.337    -1.155
    87    C    -0.446    2.086    -1.150
    88    H    -0.367    2.488    -0.141
    89    C    -3.947    0.743    -3.576
    90    H    -3.912    0.495    -2.492
    91    O    -3.762    -0.428    -4.357
    92    H    -2.823    -0.547    -4.536
    93    C    -5.261    1.462    -3.893
    94    H    -6.068    1.044    -3.246
    95    O    -5.611    1.427    -5.294
    96    P    -7.100    1.244    -5.751
    97    O    -7.929    2.257    -5.065
    98    O    -7.137    1.240    -7.234
    99    O    -7.509    -0.181    -5.243
    100    C    -8.903    -0.556    -5.163
    101    H    -9.212    -1.002    -6.135
    102    H    -9.571    0.317    -4.973
    103    C    -9.102    -1.570    -4.023
    104    H    -8.496    -2.480    -4.214
    105    O    -8.684    -1.001    -2.753
    106    C    -9.817    -0.699    -1.961
    107    H    -9.833    -1.481    -1.169
    108    N    -9.686    0.626    -1.354
    109    C    -9.733    0.910    -0.012
    110    N    -10.173    -0.109    3.277
    111    H    -10.182    0.304    4.190
    112    H    -10.316    -1.092    3.181
    113    N    -9.931    0.021    0.982
    114    C    -9.942    0.601    2.184
    115    N    -9.737    1.943    2.375
    116    H    -9.756    2.298    3.317
    117    C    -9.515    2.880    1.368
    118    O    -9.349    4.081    1.616
    119    C    -9.535    2.275    0.080
    120    N    -9.369    2.840    -1.184
    121    C    -9.444    1.815    -2.003
    122    H    -9.326    1.866    -3.090
    123    C    -11.044    -0.864    -2.826
    124    H    -11.277    0.070    -3.389
    125    O    -12.168    -1.286    -2.079
    126    H    -11.979    -2.184    -1.761
    127    C    -10.572    -1.956    -3.790
    128    H    -11.138    -1.815    -4.743
    129    O    -10.695    -3.301    -3.258
    130    P    -11.022    -4.500    -4.233
    131    O    -12.197    -5.218    -3.696
    132    O    -11.150    -3.994    -5.616
    133    O    -9.750    -5.434    -4.154
    134    C    -9.690    -6.594    -5.025
    135    H    -9.651    -6.286    -6.097
    136    H    -10.584    -7.245    -4.902
    137    C    -8.454    -7.453    -4.725
    138    H    -8.494    -8.416    -5.278
    139    O    -7.261    -6.758    -5.191
    140    C    -6.208    -6.954    -4.257
    141    H    -5.335    -7.342    -4.830
    142    N    -5.826    -5.693    -3.600
    143    C    -4.692    -5.466    -2.861
    144    N    -1.730    -6.597    -1.469
    145    H    -1.728    -7.564    -1.712
    146    H    -1.023    -6.249    -0.846
    147    N    -3.734    -6.368    -2.584
    148    C    -2.751    -5.853    -1.854
    149    N    -2.714    -4.541    -1.463
    150    H    -1.935    -4.229    -0.904
    151    C    -3.674    -3.581    -1.751
    152    O    -3.542    -2.416    -1.360
    153    C    -4.751    -4.136    -2.492
    154    N    -5.919    -3.549    -2.951
    155    C    -6.529    -4.508    -3.603
    156    H    -7.487    -4.415    -4.119
    157    C    -6.672    -8.000    -3.267
    158    H    -6.219    -7.863    -2.266
    159    O    -6.358    -9.291    -3.750
    160    H    -6.746    -9.923    -3.132
    161    C    -8.177    -7.759    -3.244
    162    H    -8.401    -6.825    -2.677
    163    O    -8.974    -8.891    -2.818
    164    P    -9.449    -8.958    -1.312
    165    O    -9.923    -7.623    -0.895
    166    O    -10.409    -10.079    -1.173
    167    O    -8.134    -9.292    -0.522
    168    C    -7.489    -10.575    -0.678
    169    H    -7.230    -10.776    -1.745
    170    H    -8.163    -11.397    -0.335
    171    C    -6.199    -10.630    0.150
    172    H    -5.726    -11.631    0.089
    173    O    -5.238    -9.664    -0.371
    174    C    -4.540    -9.067    0.717
    175    H    -3.459    -9.250    0.515
    176    N    -4.767    -7.597    0.815
    177    C    -5.861    -7.020    0.213
    178    H    -6.521    -7.697    -0.325
    179    C    -6.076    -5.701    0.263
    180    H    -6.915    -5.227    -0.242
    181    C    -3.891    -6.803    1.547
    182    O    -2.934    -7.337    2.128
    183    N    -4.089    -5.466    1.610
    184    C    -5.146    -4.908    0.991
    185    N    -5.316    -3.590    1.064
    186    H    -4.659    -3.029    1.571
    187    H    -6.078    -3.132    0.606
    188    C    -4.937    -9.811    1.984
    189    H    -4.941    -9.149    2.876
    190    O    -4.060    -10.907    2.198
    191    H    -4.436    -11.477    2.891
    192    C    -6.352    -10.262    1.634
    193    H    -7.061    -9.409    1.715
    194    O    -6.821    -11.390    2.399
    195    H    -6.951    -11.136    3.333
    196    H    2.234    2.768    6.071
    197    O    2.177    1.813    5.876
    198    C    3.091    1.154    6.764
    199    H    2.805    1.379    7.816
    200    H    4.116    1.555    6.598
    201    C    3.117    -0.362    6.563
    202    H    3.886    -0.828    7.220
    203    O    1.827    -0.936    6.921
    204    C    1.528    -1.988    6.016
    205    H    1.324    -2.896    6.630
    206    N    0.339    -1.684    5.210
    207    C    -0.427    -2.594    4.537
    208    N    -1.042    -5.850    3.546
    209    H    -0.307    -6.359    3.986
    210    H    -1.729    -6.347    3.009
    211    N    -0.213    -3.919    4.489
    212    C    -1.121    -4.550    3.748
    213    N    -2.180    -3.912    3.157
    214    H    -2.842    -4.469    2.639
    215    C    -2.450    -2.553    3.223
    216    O    -3.434    -2.060    2.663
    217    C    -1.447    -1.864    3.957
    218    N    -1.306    -0.509    4.234
    219    C    -0.225    -0.449    4.979
    220    H    0.200    0.460    5.412
    221    C    2.751    -2.223    5.161
    222    H    2.492    -2.581    4.144
    223    O    3.615    -3.150    5.788
    224    H    4.380    -3.235    5.209
    225    C    3.369    -0.831    5.119
    226    H    2.775    -0.163    4.451
    227    O    4.789    -0.801    4.831
    228    P    5.262    -0.713    3.334
    229    O    4.536    0.393    2.685
    230    O    6.739    -0.650    3.307
    231    O    4.780    -2.066    2.693
    232    C    5.463    -3.306    2.980
    233    H    5.528    -3.487    4.077
    234    H    6.507    -3.282    2.577
    235    C    4.745    -4.511    2.347
    236    H    5.245    -5.457    2.657
    237    O    3.358    -4.587    2.788
    238    C    2.545    -5.044    1.708
    239    H    2.038    -5.967    2.075
    240    N    1.510    -4.051    1.287
    241    C    1.679    -2.715    1.568
    242    H    2.582    -2.454    2.120
    243    C    0.768    -1.801    1.207
    244    H    0.873    -0.746    1.453
    245    C    0.401    -4.459    0.548
    246    O    0.282    -5.656    0.244
    247    N    -0.528    -3.549    0.172
    248    C    -0.365    -2.251    0.475
    249    N    -1.299    -1.379    0.092
    250    H    -2.143    -1.745    -0.314
    251    H    -1.346    -0.467    0.502
    252    C    3.476    -5.418    0.568
    253    H    3.030    -5.218    -0.424
    254    O    3.866    -6.777    0.647
    255    H    4.529    -6.899    -0.043
    256    C    4.655    -4.484    0.820
    257    H    4.387    -3.437    0.546
    258    O    5.906    -4.922    0.251
    259    P    6.324    -4.403    -1.171
    260    O    5.946    -2.982    -1.294
    261    O    7.751    -4.732    -1.392
    262    O    5.417    -5.231    -2.155
    263    C    5.628    -6.639    -2.386
    264    H    5.531    -7.212    -1.436
    265    H    6.647    -6.827    -2.804
    266    C    4.594    -7.185    -3.383
    267    H    4.755    -8.270    -3.566
    268    O    3.259    -7.041    -2.825
    269    C    2.341    -6.733    -3.861
    270    H    1.573    -7.545    -3.853
    271    N    1.694    -5.447    -3.619
    272    C    0.286    -3.767    -3.597
    273    N    1.324    -3.408    -2.753
    274    C    2.135    -4.433    -2.805
    275    H    3.083    -4.517    -2.270
    276    N    -1.722    -3.732    -4.842
    277    C    -1.359    -4.926    -5.320
    278    H    -2.051    -5.376    -6.038
    279    N    -0.278    -5.659    -5.027
    280    C    0.507    -5.016    -4.148
    281    C    -0.906    -3.113    -3.959
    282    N    -1.294    -1.947    -3.429
    283    H    -0.736    -1.537    -2.710
    284    H    -2.280    -1.778    -3.418
    285    C    3.087    -6.765    -5.176
    286    H    2.724    -6.000    -5.895
    287    O    2.973    -8.050    -5.755
    288    H    3.614    -8.100    -6.477
    289    C    4.518    -6.463    -4.740
    290    H    4.640    -5.375    -4.531
    291    O    5.526    -6.978    -5.630
    292    P    6.206    -6.073    -6.719
    293    O    6.815    -4.888    -6.077
    294    O    7.098    -6.922    -7.536
    295    O    5.022    -5.566    -7.621
    296    C    4.308    -6.411    -8.546
    297    H    3.897    -7.311    -8.037
    298    H    4.994    -6.770    -9.346
    299    C    3.139    -5.658    -9.216
    300    H    2.648    -6.302    -9.977
    301    O    2.129    -5.335    -8.215
    302    C    1.568    -4.057    -8.478
    303    H    0.471    -4.231    -8.606
    304    N    1.821    -3.109    -7.353
    305    C    2.967    -3.222    -6.601
    306    H    3.623    -4.038    -6.886
    307    C    0.899    -2.122    -7.085
    308    O    -0.126    -1.965    -7.741
    309    N    1.206    -1.325    -6.012
    310    H    0.524    -0.619    -5.786
    311    C    2.293    -1.427    -5.173
    312    O    2.398    -0.674    -4.207
    313    C    3.228    -2.446    -5.543
    314    H    4.115    -2.597    -4.931
    315    C    2.151    -3.567    -9.794
    316    H    2.309    -2.471    -9.796
    317    O    1.312    -3.925    -10.873
    318    H    1.786    -3.661    -11.676
    319    C    3.488    -4.305    -9.861
    320    H    4.228    -3.817    -9.186
    321    O    4.011    -4.510    -11.195
    322    P    4.768    -3.339    -11.925
    323    O    5.481    -2.525    -10.916
    324    O    5.572    -3.925    -13.020
    325    O    3.609    -2.476    -12.561
    326    C    3.823    -1.068    -12.858
    327    H    4.129    -0.942    -13.920
    328    H    4.636    -0.620    -12.237
    329    C    2.562    -0.213    -12.628
    330    H    1.838    -0.347    -13.457
    331    O    1.888    -0.626    -11.406
    332    C    1.487    0.513    -10.671
    333    H    0.409    0.356    -10.433
    334    N    2.264    0.666    -9.402
    335    C    3.465    0.005    -9.222
    336    H    3.805    -0.629    -10.048
    337    C    4.159    0.120    -8.082
    338    H    5.099    -0.405    -7.918
    339    C    1.774    1.486    -8.390
    340    O    0.701    2.082    -8.561
    341    N    2.472    1.625    -7.240
    342    C    3.629    0.965    -7.064
    343    N    4.270    1.094    -5.904
    344    H    3.887    1.685    -5.190
    345    H    5.148    0.649    -5.720
    346    C    1.622    1.706    -11.602
    347    H    1.794    2.655    -11.054
    348    O    0.472    1.827    -12.418
    349    H    0.642    2.530    -13.058
    350    C    2.835    1.290    -12.422
    351    H    3.744    1.360    -11.781
    352    O    2.986    1.954    -13.702
    353    P    3.975    3.178    -13.805
    354    O    5.219    2.858    -13.067
    355    O    4.130    3.594    -15.218
    356    O    3.220    4.318    -13.023
    357    C    1.975    4.867    -13.516
    358    H    1.208    4.072    -13.655
    359    H    2.126    5.353    -14.508
    360    C    1.395    5.923    -12.557
    361    H    0.474    6.373    -12.987
    362    O    1.023    5.301    -11.290
    363    C    1.356    6.174    -10.213
    364    H    0.412    6.319    -9.634
    365    N    2.404    5.592    -9.324
    366    C    3.229    4.579    -9.757
    367    H    3.065    4.253    -10.780
    368    C    2.528    6.098    -8.051
    369    O    1.819    7.007    -7.633
    370    N    3.490    5.502    -7.277
    371    H    3.612    5.903    -6.354
    372    C    4.364    4.503    -7.652
    373    O    5.221    4.104    -6.866
    374    C    4.166    4.017    -8.983
    375    H    4.809    3.223    -9.355
    376    C    1.779    7.505    -10.824
    377    H    2.557    8.011    -10.213
    378    O    0.649    8.357    -10.969
    379    H    0.892    9.118    -11.528
    380    C    2.352    7.056    -12.164
    381    H    3.368    6.623    -12.021
    382    O    2.373    8.081    -13.173
    383    H    3.042    8.756    -12.943
 $END
