!*** FMO 5.3 (Gamess) INPUT generated by Facio 22.1.1.32 ***
 $CONTRL RUNTYP=ENERGY NPRINT=-5 ISPHER=1 MAXIT=200 $END
 $SYSTEM MWORDS=63 MEMDDI=63 $END
 $GDDI NGROUP=1 $END
 $SCF DIRSCF=.TRUE. NPUNCH=0 $END
!*** NumCPU : 2  MemPerNode : 512MB
 $PCM SOLVNT=WATER IEF=-10 ICOMP=2 ICAV=1 IDISP=1 IFMO=-1 $END
 $PCMCAV RADII=SUAHF $END
 $TESCAV NTSALL=60 $END
 $FMOPRP
    NAODIR=200
    NGRFMO(1)=1, 1, 0, 0, 0,   0, 0, 0, 0, 0
    IPIEDA=1
    NPRINT=9
 $END
 $FMO
      SCFTYP(1)=RHF
      MODGRD=10
      MODMUL=0
      MAXCAO=5
      MAXBND=18
      NLAYER=1
      MPLEVL(1)=2
      NFRAG=16
      ICHARG(1)=-1, -1, -1, -1, -1, -1, -1, 0, -1, -1, -1, -1, -1, -1,
-1, 0
      FRGNAM(1)=F1, F2, F3, F4, F5, F6, F7, F8, F9, F10, F11, F12, F13,
F14, F15, F16
      indat(1)=0
               1   -32   0
               33   -66   0
               67   -99   0
               100   -132   0
               133   -166   0
               167   -197   0
               198   -228   0
               229   -258   0
               259   -292   0
               293   -326   0
               327   -359   0
               360   -393   0
               394   -427   0
               428   -460   0
               461   -491   0
               492   -521   0
 $END

 $FMOBND
   -33   32       6-31G*    MINI
   -67   66       6-31G*    MINI
   -100   99       6-31G*    MINI
   -133   132       6-31G*    MINI
   -167   166       6-31G*    MINI
   -198   197       6-31G*    MINI
   -229   228       6-31G*    MINI
   -259   258       6-31G*    MINI
   -293   292       6-31G*    MINI
   -327   326       6-31G*    MINI
   -360   359       6-31G*    MINI
   -394   393       6-31G*    MINI
   -428   427       6-31G*    MINI
   -461   460       6-31G*    MINI
   -492   491       6-31G*    MINI
 $END
 $FMOHYB
 6-31G*      15   5
   1 0  -0.065034   0.288264   0.000000   0.000000   0.604412
         0.290129   0.000000   0.000000   0.319045  -0.017106
        -0.017106   0.057934   0.000000   0.000000   0.000000
   0 1  -0.065040   0.288293   0.569832   0.000000  -0.201456
         0.290147   0.300783   0.000000  -0.106342   0.049598
        -0.017106  -0.008771   0.000000  -0.027223   0.000000
   0 1  -0.065039   0.288293  -0.284916  -0.493490  -0.201455
         0.290145  -0.150392  -0.260486  -0.106340  -0.000427
         0.032923  -0.008771   0.033353   0.013612   0.023576
   0 1  -0.065039   0.288293  -0.284916   0.493490  -0.201455
         0.290145  -0.150392   0.260486  -0.106340  -0.000427
         0.032923  -0.008771  -0.033353   0.013612  -0.023576
   0 1   1.010938  -0.011975   0.000000   0.000000   0.000000
        -0.054085   0.000000   0.000000  -0.000000  -0.003174
        -0.003174  -0.003174   0.000000   0.000000   0.000000
 MINI         5   5
   1 0  -0.104883   0.308874   0.000000   0.000000   0.521806
   0 1  -0.104883   0.308874   0.491961   0.000000  -0.173934
   0 1  -0.104883   0.308876  -0.245980  -0.426050  -0.173933
   0 1  -0.104883   0.308876  -0.245980   0.426050  -0.173933
   0 1   0.988209   0.063992   0.000000   0.000000   0.000000
 $END
 
 $DATA
 FMO calculation
 C1 
 H.1-1    1
      N31 6
   
 O.1-1    8
      N31 6
      d 1
      1 0.800 1.0
   
 C.1-1    6
      N31 6
      d 1
      1 0.800 1.0
   
 N.1-1    7
      N31 6
      d 1
      1 0.800 1.0
   
 P.1-1   15
      N31 6
      d 1
      1 0.550 1.0
   
 $END
 $FMOXYZ
    1    H    5.926    -3.923    -12.967
    2    O    5.860    -2.964    -12.790
    3    C    7.110    -2.388    -13.195
    4    H    7.326    -2.672    -14.252
    5    H    7.916    -2.815    -12.556
    6    C    7.145    -0.855    -13.078
    7    H    8.156    -0.471    -13.342
    8    O    6.193    -0.259    -14.013
    9    C    5.569    0.864    -13.403
    10    H    5.743    1.724    -14.094
    11    N    4.104    0.653    -13.205
    12    C    3.551    -0.610    -13.270
    13    H    4.248    -1.422    -13.480
    14    C    3.307    1.749    -12.961
    15    O    3.761    2.890    -12.883
    16    N    1.968    1.485    -12.831
    17    H    1.380    2.284    -12.629
    18    C    1.346    0.258    -12.928
    19    O    0.121    0.178    -12.848
    20    C    2.237    -0.838    -13.153
    21    H    1.819    -1.835    -13.288
    22    C    6.305    1.125    -12.101
    23    H    5.649    1.574    -11.331
    24    O    7.415    1.973    -12.335
    25    H    7.874    2.073    -11.492
    26    C    6.748    -0.281    -11.710
    27    H    5.872    -0.875    -11.359
    28    O    7.874    -0.334    -10.805
    29    P    7.619    -0.480    -9.257
    30    O    6.551    -1.472    -9.021
    31    O    8.917    -0.718    -8.591
    32    O    7.085    0.939    -8.844
    33    C    7.960    2.089    -8.909
    34    H    8.450    2.173    -9.905
    35    H    8.768    2.011    -8.142
    36    C    7.180    3.383    -8.650
    37    H    7.851    4.267    -8.707
    38    O    6.158    3.553    -9.672
    39    C    4.996    4.112    -9.075
    40    H    4.759    5.039    -9.645
    41    N    3.845    3.204    -9.164
    42    C    2.525    3.547    -9.026
    43    N    0.075    5.910    -8.343
    44    H    0.601    6.739    -8.164
    45    H    -0.925    5.937    -8.236
    46    N    2.048    4.777    -8.755
    47    C    0.719    4.798    -8.665
    48    N    -0.059    3.688    -8.862
    49    H    -1.059    3.786    -8.766
    50    C    0.403    2.413    -9.161
    51    O    -0.375    1.468    -9.319
    52    C    1.820    2.377    -9.227
    53    N    2.683    1.314    -9.470
    54    C    3.875    1.850    -9.409
    55    H    4.816    1.317    -9.539
    56    C    5.345    4.477    -7.650
    57    H    4.478    4.392    -6.968
    58    O    5.867    5.795    -7.614
    59    H    6.199    5.951    -6.714
    60    C    6.414    3.444    -7.318
    61    H    5.954    2.442    -7.157
    62    O    7.309    3.822    -6.252
    63    P    6.908    3.543    -4.754
    64    O    6.404    2.157    -4.646
    65    O    8.082    3.882    -3.912
    66    O    5.755    4.570    -4.431
    67    C    4.773    4.313    -3.396
    68    H    5.076    4.826    -2.456
    69    H    4.668    3.224    -3.158
    70    C    3.385    4.828    -3.801
    71    H    3.384    5.934    -3.903
    72    O    3.028    4.268    -5.097
    73    C    1.678    3.876    -5.107
    74    H    1.219    4.348    -6.002
    75    N    1.564    2.412    -5.226
    76    C    0.830    0.379    -5.632
    77    N    2.151    0.237    -5.220
    78    C    2.542    1.469    -4.996
    79    H    3.542    1.762    -4.664
    80    N    -1.359    -0.075    -6.409
    81    C    -1.573    1.237    -6.337
    82    H    -2.571    1.559    -6.645
    83    N    -0.725    2.216    -5.998
    84    C    0.462    1.711    -5.643
    85    C    -0.141    -0.554    -6.054
    86    N    0.102    -1.875    -6.141
    87    H    0.984    -2.278    -5.892
    88    H    -0.634    -2.477    -6.445
    89    C    1.040    4.435    -3.850
    90    H    0.207    3.809    -3.473
    91    O    0.576    5.764    -4.062
    92    H    0.348    5.920    -4.991
    93    C    2.224    4.399    -2.890
    94    H    2.440    3.343    -2.606
    95    O    2.098    5.292    -1.764
    96    P    2.017    4.728    -0.301
    97    O    1.692    3.281    -0.335
    98    O    3.245    5.108    0.429
    99    O    0.789    5.467    0.344
    100    C    0.730    6.889    0.583
    101    H    1.222    7.468    -0.231
    102    H    1.266    7.134    1.525
    103    C    -0.727    7.381    0.713
    104    H    -0.764    8.465    0.960
    105    O    -1.395    7.206    -0.566
    106    C    -2.689    6.659    -0.366
    107    H    -3.403    7.304    -0.927
    108    N    -2.767    5.301    -0.889
    109    C    -3.496    3.369    -1.608
    110    N    -2.127    3.360    -1.800
    111    C    -1.741    4.527    -1.365
    112    H    -0.716    4.898    -1.390
    113    N    -5.784    2.777    -1.667
    114    C    -6.010    3.947    -1.071
    115    H    -7.059    4.151    -0.842
    116    N    -5.155    4.913    -0.725
    117    C    -3.903    4.558    -1.041
    118    C    -4.496    2.441    -1.937
    119    N    -4.198    1.276    -2.512
    120    H    -3.252    0.978    -2.670
    121    H    -4.888    0.567    -2.653
    122    C    -2.993    6.722    1.111
    123    H    -3.647    5.889    1.462
    124    O    -3.596    7.968    1.412
    125    H    -3.649    8.037    2.377
    126    C    -1.603    6.601    1.717
    127    H    -1.269    5.541    1.673
    128    O    -1.476    7.167    3.037
    129    P    -1.728    6.290    4.319
    130    O    -0.944    5.043    4.187
    131    O    -1.450    7.140    5.498
    132    O    -3.270    5.939    4.302
    133    C    -3.703    4.711    4.950
    134    H    -3.465    4.722    6.037
    135    H    -3.163    3.838    4.526
    136    C    -5.218    4.440    4.795
    137    H    -5.801    5.233    5.305
    138    O    -5.620    4.465    3.390
    139    C    -6.498    3.374    3.129
    140    H    -7.377    3.813    2.602
    141    N    -5.903    2.332    2.260
    142    C    -4.579    2.091    1.944
    143    N    -1.241    2.933    2.261
    144    H    -0.345    2.615    1.968
    145    H    -1.300    3.703    2.906
    146    N    -3.512    2.787    2.371
    147    C    -2.367    2.331    1.932
    148    N    -2.264    1.251    1.107
    149    H    -1.353    0.944    0.831
    150    C    -3.333    0.495    0.645
    151    O    -3.098    -0.462    -0.089
    152    C    -4.585    0.994    1.115
    153    N    -5.886    0.556    0.895
    154    C    -6.631    1.377    1.591
    155    H    -7.721    1.328    1.651
    156    C    -6.937    2.816    4.468
    157    H    -7.178    1.730    4.434
    158    O    -8.053    3.546    4.950
    159    H    -8.168    3.299    5.880
    160    C    -5.696    3.063    5.316
    161    H    -4.902    2.322    5.053
    162    O    -5.941    3.136    6.738
    163    P    -5.947    1.845    7.634
    164    O    -4.916    0.910    7.202
    165    O    -5.830    2.324    9.053
    166    O    -7.394    1.230    7.447
    167    C    -7.777    0.048    8.207
    168    H    -8.363    0.356    9.102
    169    H    -6.898    -0.539    8.577
    170    C    -8.653    -0.909    7.376
    171    H    -9.599    -0.414    7.065
    172    O    -7.954    -1.276    6.157
    173    C    -8.184    -2.645    5.853
    174    H    -8.614    -2.653    4.824
    175    N    -6.941    -3.452    5.850
    176    C    -5.788    -2.950    6.414
    177    H    -5.841    -1.919    6.781
    178    C    -4.660    -3.667    6.428
    179    H    -3.738    -3.291    6.857
    180    C    -6.934    -4.719    5.268
    181    O    -7.970    -5.157    4.741
    182    N    -5.802    -5.451    5.261
    183    C    -4.684    -4.955    5.817
    184    N    -3.573    -5.671    5.798
    185    H    -3.512    -6.436    5.154
    186    H    -2.714    -5.249    6.095
    187    C    -9.214    -3.167    6.839
    188    H    -9.052    -4.234    7.114
    189    O    -10.513    -2.997    6.308
    190    H    -11.148    -3.161    7.025
    191    C    -8.978    -2.261    8.040
    192    H    -8.043    -2.575    8.559
    193    O    -10.121    -2.139    8.916
    194    P    -10.104    -2.786    10.350
    195    O    -8.761    -2.595    10.941
    196    O    -11.270    -2.284    11.109
    197    O    -10.347    -4.322    10.093
    198    C    -9.932    -5.292    11.100
    199    H    -10.814    -5.646    11.678
    200    H    -9.216    -4.865    11.846
    201    C    -9.237    -6.519    10.478
    202    H    -9.985    -7.228    10.067
    203    O    -8.387    -6.103    9.367
    204    C    -7.167    -6.816    9.406
    205    H    -7.049    -7.260    8.391
    206    N    -6.000    -5.933    9.690
    207    C    -6.186    -4.667    10.210
    208    H    -7.220    -4.364    10.397
    209    C    -5.149    -3.853    10.446
    210    H    -5.277    -2.844    10.834
    211    C    -4.710    -6.389    9.434
    212    O    -4.550    -7.537    8.995
    213    N    -3.652    -5.579    9.669
    214    C    -3.844    -4.335    10.137
    215    N    -2.787    -3.544    10.307
    216    H    -1.861    -3.894    10.142
    217    H    -2.877    -2.631    10.708
    218    C    -7.335    -7.930    10.419
    219    H    -6.377    -8.232    10.886
    220    O    -7.938    -9.050    9.799
    221    H    -8.160    -9.666    10.509
    222    C    -8.282    -7.280    11.422
    223    H    -7.739    -6.508    12.016
    224    O    -9.030    -8.210    12.243
    225    P    -8.515    -8.575    13.687
    226    O    -8.095    -7.333    14.372
    227    O    -9.529    -9.402    14.381
    228    O    -7.241    -9.455    13.399
    229    C    -7.378    -10.762    12.794
    230    H    -7.921    -10.714    11.823
    231    H    -7.955    -11.440    13.466
    232    C    -6.016    -11.414    12.534
    233    H    -6.150    -12.432    12.105
    234    O    -5.259    -10.626    11.573
    235    C    -3.889    -10.606    11.952
    236    H    -3.326    -10.985    11.068
    237    N    -3.397    -9.234    12.272
    238    C    -4.286    -8.234    12.588
    239    H    -5.338    -8.513    12.590
    240    C    -3.877    -6.989    12.855
    241    H    -4.573    -6.183    13.077
    242    C    -2.032    -8.963    12.285
    243    O    -1.232    -9.881    12.049
    244    N    -1.596    -7.708    12.541
    245    C    -2.479    -6.730    12.814
    246    N    -2.027    -5.501    13.057
    247    H    -1.039    -5.329    13.056
    248    H    -2.635    -4.752    13.319
    249    C    -3.718    -11.587    13.103
    250    H    -2.927    -11.266    13.811
    251    O    -3.418    -12.879    12.597
    252    H    -4.159    -13.179    12.048
    253    C    -5.098    -11.522    13.755
    254    H    -5.201    -10.590    14.353
    255    O    -5.452    -12.678    14.535
    256    H    -4.880    -12.729    15.325
    257    H    8.810    -3.253    12.247
    258    O    8.261    -4.043    12.075
    259    C    9.145    -5.173    12.081
    260    H    9.645    -5.238    13.074
    261    H    9.935    -5.027    11.311
    262    C    8.431    -6.502    11.811
    263    H    9.158    -7.337    11.755
    264    O    7.517    -6.805    12.905
    265    C    6.344    -7.403    12.373
    266    H    6.197    -8.371    12.903
    267    N    5.162    -6.560    12.585
    268    C    3.859    -6.973    12.512
    269    N    1.520    -9.469    11.989
    270    H    2.082    -10.258    11.754
    271    H    0.522    -9.575    12.006
    272    N    3.441    -8.221    12.226
    273    C    2.114    -8.325    12.265
    274    N    1.285    -7.281    12.582
    275    H    0.293    -7.457    12.618
    276    C    1.690    -5.987    12.889
    277    O    0.874    -5.102    13.170
    278    C    3.101    -5.857    12.816
    279    N    3.914    -4.755    13.056
    280    C    5.133    -5.221    12.912
    281    H    6.055    -4.644    13.028
    282    C    6.594    -7.665    10.907
    283    H    5.666    -7.609    10.303
    284    O    7.196    -8.932    10.729
    285    H    7.364    -9.009    9.781
    286    C    7.555    -6.537    10.550
    287    H    7.014    -5.563    10.504
    288    O    8.380    -6.780    9.386
    289    P    7.863    -6.309    7.974
    290    O    7.422    -4.902    8.070
    291    O    8.901    -6.610    6.962
    292    O    6.608    -7.218    7.713
    293    C    6.784    -8.612    7.366
    294    H    7.435    -9.143    8.100
    295    H    7.269    -8.704    6.367
    296    C    5.436    -9.341    7.310
    297    H    5.586    -10.430    7.144
    298    O    4.728    -9.187    8.574
    299    C    3.333    -9.098    8.325
    300    H    2.852    -9.923    8.902
    301    N    2.772    -7.811    8.766
    302    C    1.442    -7.528    8.939
    303    N    -1.886    -8.472    8.764
    304    H    -2.787    -8.050    8.891
    305    H    -1.826    -9.386    8.367
    306    N    0.419    -8.372    8.724
    307    C    -0.763    -7.808    8.960
    308    N    -0.903    -6.520    9.399
    309    H    -1.838    -6.168    9.533
    310    C    0.132    -5.630    9.642
    311    O    -0.088    -4.481    10.034
    312    C    1.395    -6.217    9.369
    313    N    2.669    -5.679    9.450
    314    C    3.456    -6.657    9.069
    315    H    4.542    -6.603    8.984
    316    C    3.128    -9.317    6.846
    317    H    2.277    -8.729    6.451
    318    O    2.926    -10.694    6.587
    319    H    3.018    -10.825    5.633
    320    C    4.446    -8.824    6.259
    321    H    4.506    -7.710    6.281
    322    O    4.759    -9.381    4.966
    323    P    4.326    -8.628    3.655
    324    O    5.037    -7.334    3.598
    325    O    4.523    -9.528    2.497
    326    O    2.798    -8.321    3.836
    327    C    1.751    -9.280    3.594
    328    H    1.871    -10.174    4.247
    329    H    1.776    -9.627    2.537
    330    C    0.360    -8.677    3.872
    331    H    -0.436    -9.443    3.736
    332    O    0.286    -8.210    5.253
    333    C    -0.408    -6.981    5.310
    334    H    -1.227    -7.121    6.050
    335    N    0.477    -5.887    5.761
    336    C    1.287    -4.013    6.597
    337    N    2.380    -4.758    6.186
    338    C    1.853    -5.855    5.709
    339    H    2.429    -6.695    5.331
    340    N    -0.065    -2.286    7.472
    341    C    -1.110    -3.052    7.169
    342    H    -2.082    -2.616    7.415
    343    N    -1.139    -4.269    6.611
    344    C    0.107    -4.694    6.340
    345    C    1.179    -2.751    7.217
    346    N    2.231    -1.986    7.558
    347    H    3.177    -2.294    7.433
    348    H    2.076    -1.118    8.039
    349    C    -1.000    -6.737    3.934
    350    H    -1.076    -5.659    3.694
    351    O    -2.281    -7.327    3.816
    352    H    -2.576    -7.157    2.904
    353    C    0.004    -7.443    3.030
    354    H    0.940    -6.845    2.944
    355    O    -0.501    -7.847    1.732
    356    P    -0.785    -6.700    0.681
    357    O    0.091    -5.554    1.004
    358    O    -0.693    -7.286    -0.680
    359    O    -2.298    -6.310    0.946
    360    C    -2.857    -5.243    0.124
    361    H    -2.611    -5.396    -0.955
    362    H    -2.435    -4.256    0.414
    363    C    -4.396    -5.213    0.233
    364    H    -4.778    -6.239    0.046
    365    O    -4.850    -4.788    1.557
    366    C    -5.426    -3.481    1.470
    367    H    -6.522    -3.625    1.600
    368    N    -4.910    -2.544    2.506
    369    C    -3.629    -2.423    2.999
    370    N    -0.321    -3.415    2.922
    371    H    0.570    -3.110    3.248
    372    H    -0.378    -4.100    2.186
    373    N    -2.569    -3.157    2.635
    374    C    -1.451    -2.793    3.218
    375    N    -1.378    -1.763    4.121
    376    H    -0.485    -1.534    4.520
    377    C    -2.457    -0.986    4.541
    378    O    -2.257    -0.080    5.354
    379    C    -3.668    -1.384    3.909
    380    N    -4.951    -0.868    4.009
    381    C    -5.651    -1.578    3.152
    382    H    -6.713    -1.432    2.946
    383    C    -5.160    -2.974    0.069
    384    H    -4.167    -2.480    0.024
    385    O    -6.174    -2.111    -0.397
    386    H    -5.856    -1.716    -1.220
    387    C    -5.107    -4.261    -0.743
    388    H    -4.423    -4.092    -1.609
    389    O    -6.410    -4.765    -1.153
    390    P    -6.754    -5.025    -2.664
    391    O    -5.975    -6.196    -3.115
    392    O    -8.227    -5.102    -2.804
    393    O    -6.229    -3.774    -3.455
    394    C    -7.003    -2.557    -3.563
    395    H    -7.309    -2.187    -2.559
    396    H    -7.938    -2.721    -4.140
    397    C    -6.219    -1.423    -4.245
    398    H    -6.817    -0.485    -4.247
    399    O    -4.983    -1.181    -3.522
    400    C    -3.868    -1.412    -4.378
    401    H    -3.578    -0.418    -4.790
    402    N    -2.744    -1.993    -3.618
    403    C    -1.705    -1.321    -3.002
    404    N    0.012    1.595    -2.221
    405    H    0.681    1.885    -1.536
    406    H    -0.716    2.259    -2.427
    407    N    -1.475    0.015    -3.016
    408    C    -0.404    0.348    -2.300
    409    N    0.345    -0.548    -1.595
    410    H    1.130    -0.205    -1.068
    411    C    0.126    -1.915    -1.547
    412    O    0.874    -2.654    -0.899
    413    C    -0.963    -2.304    -2.371
    414    N    -1.482    -3.569    -2.629
    415    C    -2.543    -3.332    -3.360
    416    H    -3.216    -4.105    -3.734
    417    C    -4.376    -2.301    -5.497
    418    H    -4.459    -3.356    -5.160
    419    O    -3.598    -2.231    -6.673
    420    H    -3.550    -1.298    -6.930
    421    C    -5.782    -1.737    -5.689
    422    H    -6.434    -2.569    -6.042
    423    O    -5.844    -0.566    -6.539
    424    P    -6.816    -0.515    -7.779
    425    O    -5.989    -0.458    -9.008
    426    O    -7.795    -1.627    -7.729
    427    O    -7.616    0.847    -7.631
    428    C    -8.917    0.857    -6.972
    429    H    -9.033    0.030    -6.225
    430    H    -9.724    0.713    -7.727
    431    C    -9.185    2.176    -6.222
    432    H    -10.234    2.222    -5.858
    433    O    -8.337    2.199    -5.040
    434    C    -7.824    3.505    -4.828
    435    H    -8.065    3.795    -3.780
    436    N    -6.376    3.538    -5.020
    437    C    -4.269    4.130    -5.068
    438    N    -4.326    2.875    -5.646
    439    C    -5.591    2.560    -5.576
    440    H    -6.031    1.625    -5.916
    441    N    -3.466    6.187    -4.223
    442    C    -4.736    6.473    -3.923
    443    H    -4.888    7.453    -3.457
    444    N    -5.834    5.728    -4.095
    445    C    -5.525    4.556    -4.681
    446    C    -3.197    4.999    -4.812
    447    N    -1.924    4.698    -5.074
    448    H    -1.687    3.772    -5.402
    449    H    -1.245    5.208    -4.550
    450    C    -8.530    4.429    -5.790
    451    H    -7.884    5.258    -6.131
    452    O    -9.694    4.966    -5.193
    453    H    -10.236    5.336    -5.908
    454    C    -8.860    3.495    -6.947
    455    H    -7.949    3.302    -7.557
    456    O    -9.984    3.946    -7.726
    457    P    -9.848    4.333    -9.239
    458    O    -9.371    3.156    -9.990
    459    O    -11.123    4.940    -9.680
    460    O    -8.723    5.437    -9.260
    461    C    -8.913    6.722    -8.620
    462    H    -9.398    6.625    -7.619
    463    H    -9.575    7.365    -9.246
    464    C    -7.583    7.472    -8.423
    465    H    -7.765    8.480    -7.988
    466    O    -6.734    6.746    -7.493
    467    C    -5.379    6.830    -7.911
    468    H    -4.820    7.241    -7.037
    469    N    -4.804    5.505    -8.282
    470    C    -5.636    4.475    -8.647
    471    H    -6.699    4.699    -8.611
    472    C    -5.161    3.270    -8.981
    473    H    -5.812    2.436    -9.238
    474    C    -3.425    5.318    -8.321
    475    O    -2.679    6.272    -8.052
    476    N    -2.920    4.106    -8.650
    477    C    -3.749    3.093    -8.964
    478    N    -3.235    1.903    -9.265
    479    H    -2.240    1.773    -9.263
    480    H    -3.822    1.119    -9.459
    481    C    -5.330    7.828    -9.048
    482    H    -4.525    7.606    -9.775
    483    O    -5.161    9.135    -8.531
    484    H    -5.231    9.744    -9.276
    485    C    -6.713    7.642    -9.671
    486    H    -6.761    6.674    -10.224
    487    O    -7.197    8.764    -10.441
    488    P    -7.004    8.758    -12.002
    489    O    -7.347    7.421    -12.530
    490    O    -7.745    9.908    -12.567
    491    O    -5.454    8.977    -12.178
    492    C    -4.844    10.235    -11.812
    493    H    -5.058    10.499    -10.755
    494    H    -5.232    11.062    -12.453
    495    C    -3.320    10.177    -11.968
    496    H    -2.861    11.161    -11.732
    497    O    -2.757    9.207    -11.037
    498    C    -1.676    8.533    -11.666
    499    H    -0.785    8.679    -11.011
    500    N    -1.955    7.099    -11.797
    501    C    -1.743    4.923    -12.034
    502    N    -3.106    5.168    -11.908
    503    C    -3.178    6.469    -11.779
    504    H    -4.103    7.035    -11.656
    505    N    0.344    3.852    -12.366
    506    C    0.890    5.071    -12.311
    507    H    1.978    5.105    -12.440
    508    N    0.304    6.256    -12.107
    509    C    -1.026    6.108    -11.979
    510    C    -1.001    3.736    -12.223
    511    N    -1.544    2.506    -12.244
    512    H    -2.538    2.371    -12.258
    513    H    -0.965    1.698    -12.382
    514    C    -1.435    9.193    -13.016
    515    H    -1.102    8.463    -13.783
    516    O    -0.475    10.229    -12.893
    517    H    -0.484    10.762    -13.706
    518    C    -2.825    9.727    -13.345
    519    H    -3.485    8.905    -13.695
    520    O    -2.840    10.828    -14.270
    521    H    -2.578    10.522    -15.157
 $END
