!*** FMO 5.3 (Gamess) INPUT generated by Facio 22.1.1.32 ***
 $CONTRL RUNTYP=ENERGY NPRINT=-5 ISPHER=1 MAXIT=200 $END
 $SYSTEM MWORDS=63 MEMDDI=63 $END
 $GDDI NGROUP=1 $END
 $SCF DIRSCF=.TRUE. NPUNCH=0 $END
!*** NumCPU : 2  MemPerNode : 512MB
 $PCM SOLVNT=WATER IEF=-10 ICOMP=2 ICAV=1 IDISP=1 IFMO=-1 $END
 $PCMCAV RADII=SUAHF $END
 $TESCAV NTSALL=60 $END
 $FMOPRP
    NAODIR=200
    NGRFMO(1)=1, 1, 0, 0, 0,   0, 0, 0, 0, 0
    IPIEDA=1
    NPRINT=9
 $END
 $FMO
      SCFTYP(1)=RHF
      MODGRD=10
      MODMUL=0
      MAXCAO=5
      MAXBND=18
      NLAYER=1
      MPLEVL(1)=2
      NFRAG=16
      ICHARG(1)=-1, -1, -1, -1, -1, -1, -1, 0, -1, -1, -1, -1, -1, -1,
-1, 0
      FRGNAM(1)=F1, F2, F3, F4, F5, F6, F7, F8, F9, F10, F11, F12, F13,
F14, F15, F16
      indat(1)=0
               1   -32   0
               33   -66   0
               67   -99   0
               100   -132   0
               133   -166   0
               167   -197   0
               198   -228   0
               229   -258   0
               259   -292   0
               293   -326   0
               327   -359   0
               360   -393   0
               394   -427   0
               428   -460   0
               461   -491   0
               492   -521   0
 $END

 $FMOBND
   -33   32       6-31G*    MINI
   -67   66       6-31G*    MINI
   -100   99       6-31G*    MINI
   -133   132       6-31G*    MINI
   -167   166       6-31G*    MINI
   -198   197       6-31G*    MINI
   -229   228       6-31G*    MINI
   -259   258       6-31G*    MINI
   -293   292       6-31G*    MINI
   -327   326       6-31G*    MINI
   -360   359       6-31G*    MINI
   -394   393       6-31G*    MINI
   -428   427       6-31G*    MINI
   -461   460       6-31G*    MINI
   -492   491       6-31G*    MINI
 $END
 $FMOHYB
 6-31G*      15   5
   1 0  -0.065034   0.288264   0.000000   0.000000   0.604412
         0.290129   0.000000   0.000000   0.319045  -0.017106
        -0.017106   0.057934   0.000000   0.000000   0.000000
   0 1  -0.065040   0.288293   0.569832   0.000000  -0.201456
         0.290147   0.300783   0.000000  -0.106342   0.049598
        -0.017106  -0.008771   0.000000  -0.027223   0.000000
   0 1  -0.065039   0.288293  -0.284916  -0.493490  -0.201455
         0.290145  -0.150392  -0.260486  -0.106340  -0.000427
         0.032923  -0.008771   0.033353   0.013612   0.023576
   0 1  -0.065039   0.288293  -0.284916   0.493490  -0.201455
         0.290145  -0.150392   0.260486  -0.106340  -0.000427
         0.032923  -0.008771  -0.033353   0.013612  -0.023576
   0 1   1.010938  -0.011975   0.000000   0.000000   0.000000
        -0.054085   0.000000   0.000000  -0.000000  -0.003174
        -0.003174  -0.003174   0.000000   0.000000   0.000000
 MINI         5   5
   1 0  -0.104883   0.308874   0.000000   0.000000   0.521806
   0 1  -0.104883   0.308874   0.491961   0.000000  -0.173934
   0 1  -0.104883   0.308876  -0.245980  -0.426050  -0.173933
   0 1  -0.104883   0.308876  -0.245980   0.426050  -0.173933
   0 1   0.988209   0.063992   0.000000   0.000000   0.000000
 $END
 
 $DATA
 FMO calculation
 C1 
 H.1-1    1
      N31 6
   
 O.1-1    8
      N31 6
      d 1
      1 0.800 1.0
   
 C.1-1    6
      N31 6
      d 1
      1 0.800 1.0
   
 N.1-1    7
      N31 6
      d 1
      1 0.800 1.0
   
 P.1-1   15
      N31 6
      d 1
      1 0.550 1.0
   
 $END
 $FMOXYZ
    1    H    5.326    -5.976    -9.610
    2    O    5.293    -5.009    -9.728
    3    C    6.606    -4.593    -10.127
    4    H    6.848    -5.048    -11.113
    5    H    7.347    -4.963    -9.384
    6    C    6.751    -3.069    -10.243
    7    H    7.801    -2.798    -10.491
    8    O    5.910    -2.565    -11.324
    9    C    5.338    -1.325    -10.931
    10    H    5.623    -0.591    -11.722
    11    N    3.851    -1.403    -10.825
    12    C    3.210    -2.621    -10.698
    13    H    3.854    -3.500    -10.714
    14    C    3.124    -0.238    -10.840
    15    O    3.661    0.876    -10.919
    16    N    1.767    -0.388    -10.780
    17    H    1.228    0.468    -10.761
    18    C    1.060    -1.570    -10.698
    19    O    -0.168    -1.558    -10.706
    20    C    1.878    -2.742    -10.639
    21    H    1.392    -3.715    -10.587
    22    C    6.003    -0.922    -9.624
    23    H    5.328    -0.323    -8.985
    24    O    7.184    -0.189    -9.889
    25    H    7.605    -0.017    -9.037
    26    C    6.315    -2.279    -9.001
    27    H    5.375    -2.753    -8.632
    28    O    7.381    -2.287    -8.018
    29    P    7.013    -2.084    -6.499
    30    O    5.860    -2.945    -6.142
    31    O    8.228    -2.245    -5.672
    32    O    6.560    -0.583    -6.438
    33    C    7.547    0.471    -6.519
    34    H    8.116    0.421    -7.474
    35    H    8.276    0.397    -5.680
    36    C    6.872    1.842    -6.439
    37    H    7.622    2.657    -6.510
    38    O    5.951    2.000    -7.553
    39    C    4.812    2.726    -7.115
    40    H    4.721    3.613    -7.781
    41    N    3.592    1.927    -7.229
    42    C    2.308    2.398    -7.256
    43    N    0.053    5.026    -7.075
    44    H    0.644    5.812    -6.915
    45    H    -0.943    5.153    -7.085
    46    N    1.933    3.690    -7.153
    47    C    0.607    3.829    -7.186
    48    N    -0.250    2.788    -7.410
    49    H    -1.242    2.966    -7.411
    50    C    0.122    1.464    -7.612
    51    O    -0.717    0.599    -7.863
    52    C    1.518    1.286    -7.461
    53    N    2.287    0.127    -7.497
    54    C    3.511    0.560    -7.344
    55    H    4.403    -0.063    -7.295
    56    C    5.080    3.182    -5.703
    57    H    4.156    3.246    -5.089
    58    O    5.732    4.438    -5.747
    59    H    6.137    4.588    -4.881
    60    C    6.012    2.090    -5.192
    61    H    5.447    1.148    -4.991
    62    O    6.853    2.492    -4.087
    63    P    6.390    2.214    -2.608
    64    O    6.166    0.765    -2.432
    65    O    7.357    2.857    -1.692
    66    O    4.997    2.925    -2.482
    67    C    4.824    4.354    -2.452
    68    H    5.217    4.814    -3.381
    69    H    5.380    4.805    -1.601
    70    C    3.343    4.769    -2.341
    71    H    3.249    5.861    -2.545
    72    O    2.512    4.042    -3.290
    73    C    1.675    3.149    -2.587
    74    H    0.670    3.635    -2.575
    75    N    1.624    1.857    -3.250
    76    C    0.922    0.113    -4.375
    77    N    2.244    -0.145    -4.050
    78    C    2.618    0.920    -3.387
    79    H    3.615    1.073    -2.972
    80    N    -1.290    -0.095    -5.126
    81    C    -1.523    1.093    -4.591
    82    H    -2.543    1.454    -4.723
    83    N    -0.677    1.920    -3.978
    84    C    0.534    1.350    -3.884
    85    C    -0.059    -0.635    -5.051
    86    N    0.133    -1.830    -5.635
    87    H    1.043    -2.237    -5.715
    88    H    -0.593    -2.172    -6.226
    89    C    2.191    3.042    -1.178
    90    H    3.017    2.298    -1.090
    91    O    1.153    2.735    -0.276
    92    H    0.787    3.595    -0.010
    93    C    2.731    4.453    -0.964
    94    H    3.578    4.417    -0.240
    95    O    1.733    5.438    -0.588
    96    P    1.580    5.861    0.919
    97    O    1.584    4.629    1.736
    98    O    2.567    6.906    1.248
    99    O    0.124    6.439    0.958
    100    C    -0.129    7.857    0.894
    101    H    0.296    8.288    -0.042
    102    H    0.351    8.375    1.755
    103    C    -1.640    8.151    0.909
    104    H    -1.832    9.244    0.908
    105    O    -2.226    7.610    -0.309
    106    C    -3.482    7.016    -0.014
    107    H    -4.220    7.493    -0.701
    108    N    -3.465    5.576    -0.272
    109    C    -4.062    3.499    -0.683
    110    N    -2.679    3.525    -0.741
    111    C    -2.372    4.776    -0.502
    112    H    -1.359    5.185    -0.484
    113    N    -6.309    2.785    -0.753
    114    C    -6.636    4.037    -0.432
    115    H    -7.709    4.216    -0.335
    116    N    -5.850    5.099    -0.233
    117    C    -4.559    4.757    -0.382
    118    C    -5.000    2.465    -0.892
    119    N    -4.686    1.197    -1.226
    120    H    -3.754    0.855    -1.369
    121    H    -5.425    0.525    -1.237
    122    C    -3.834    7.351    1.417
    123    H    -4.414    6.545    1.924
    124    O    -4.559    8.567    1.455
    125    H    -4.671    8.801    2.390
    126    C    -2.454    7.504    2.047
    127    H    -2.001    6.503    2.221
    128    O    -2.417    8.337    3.227
    129    P    -2.775    7.711    4.626
    130    O    -1.938    6.506    4.811
    131    O    -2.685    8.778    5.647
    132    O    -4.282    7.279    4.522
    133    C    -4.800    6.271    5.430
    134    H    -4.676    6.579    6.495
    135    H    -4.243    5.313    5.313
    136    C    -6.299    5.993    5.180
    137    H    -6.905    6.883    5.442
    138    O    -6.551    5.722    3.765
    139    C    -7.424    4.606    3.635
    140    H    -8.221    4.926    2.927
    141    N    -6.760    3.392    3.099
    142    C    -5.414    3.124    2.940
    143    N    -2.115    4.099    3.321
    144    H    -1.199    3.723    3.194
    145    H    -2.216    4.974    3.801
    146    N    -4.393    3.941    3.252
    147    C    -3.206    3.428    3.013
    148    N    -3.034    2.200    2.459
    149    H    -2.101    1.873    2.283
    150    C    -4.062    1.350    2.099
    151    O    -3.798    0.266    1.594
    152    C    -5.343    1.865    2.407
    153    N    -6.608    1.314    2.245
    154    C    -7.417    2.256    2.668
    155    H    -8.509    2.186    2.672
    156    C    -8.021    4.355    4.994
    157    H    -8.281    3.291    5.149
    158    O    -9.177    5.152    5.188
    159    H    -9.332    5.208    6.145
    160    C    -6.880    4.768    5.912
    161    H    -6.077    3.994    5.898
    162    O    -7.321    5.119    7.242
    163    P    -7.041    4.182    8.469
    164    O    -5.576    4.119    8.654
    165    O    -7.838    4.661    9.617
    166    O    -7.559    2.757    8.045
    167    C    -8.961    2.488    7.808
    168    H    -9.421    3.254    7.144
    169    H    -9.513    2.504    8.774
    170    C    -9.179    1.111    7.149
    171    H    -10.256    0.932    6.935
    172    O    -8.481    1.051    5.873
    173    C    -7.882    -0.228    5.711
    174    H    -8.284    -0.627    4.753
    175    N    -6.395    -0.166    5.612
    176    C    -5.730    0.968    6.007
    177    H    -6.349    1.776    6.391
    178    C    -4.399    1.067    5.927
    179    H    -3.859    1.962    6.236
    180    C    -5.674    -1.252    5.119
    181    O    -6.285    -2.275    4.780
    182    N    -4.322    -1.162    5.018
    183    C    -3.691    -0.037    5.391
    184    N    -2.373    0.055    5.242
    185    H    -1.861    -0.729    4.904
    186    H    -1.858    0.832    5.605
    187    C    -8.363    -1.103    6.853
    188    H    -7.598    -1.839    7.171
    189    O    -9.549    -1.786    6.495
    190    H    -9.843    -2.232    7.298
    191    C    -8.629    -0.076    7.951
    192    H    -7.666    0.268    8.397
    193    O    -9.600    -0.484    8.943
    194    P    -9.109    -1.197    10.255
    195    O    -7.978    -0.432    10.819
    196    O    -10.279    -1.430    11.129
    197    O    -8.568    -2.577    9.741
    198    C    -9.452    -3.642    9.326
    199    H    -10.085    -3.328    8.466
    200    H    -10.133    -3.926    10.161
    201    C    -8.673    -4.896    8.903
    202    H    -9.365    -5.705    8.584
    203    O    -7.811    -4.592    7.768
    204    C    -6.576    -5.291    7.916
    205    H    -6.467    -5.902    6.989
    206    N    -5.402    -4.377    8.021
    207    C    -5.579    -3.080    8.442
    208    H    -6.605    -2.794    8.658
    209    C    -4.558    -2.217    8.513
    210    H    -4.691    -1.178    8.805
    211    C    -4.118    -4.834    7.733
    212    O    -3.953    -6.022    7.415
    213    N    -3.070    -3.982    7.819
    214    C    -3.268    -2.694    8.147
    215    N    -2.232    -1.857    8.145
    216    H    -1.322    -2.209    7.915
    217    H    -2.309    -0.921    8.492
    218    C    -6.716    -6.221    9.108
    219    H    -5.756    -6.375    9.636
    220    O    -7.225    -7.475    8.696
    221    H    -7.472    -7.960    9.495
    222    C    -7.723    -5.465    9.967
    223    H    -7.223    -4.581    10.430
    224    O    -8.464    -6.282    10.912
    225    P    -8.042    -6.221    12.432
    226    O    -7.693    -4.835    12.817
    227    O    -9.063    -6.899    13.258
    228    O    -6.729    -7.085    12.447
    229    C    -6.795    -8.515    12.257
    230    H    -7.275    -8.779    11.285
    231    H    -7.388    -8.991    13.074
    232    C    -5.394    -9.133    12.277
    233    H    -5.451    -10.240    12.212
    234    O    -4.630    -8.679    11.125
    235    C    -3.282    -8.456    11.521
    236    H    -2.663    -9.081    10.837
    237    N    -2.871    -7.032    11.379
    238    C    -3.818    -6.036    11.350
    239    H    -4.852    -6.363    11.418
    240    C    -3.481    -4.747    11.213
    241    H    -4.226    -3.956    11.165
    242    C    -1.523    -6.702    11.309
    243    O    -0.674    -7.605    11.372
    244    N    -1.157    -5.406    11.173
    245    C    -2.092    -4.439    11.123
    246    N    -1.698    -3.173    11.003
    247    H    -0.720    -2.960    10.944
    248    H    -2.345    -2.411    11.024
    249    C    -3.123    -8.978    12.945
    250    H    -2.381    -8.387    13.527
    251    O    -2.748    -10.347    12.919
    252    H    -2.841    -10.716    13.814
    253    C    -4.531    -8.779    13.492
    254    H    -4.697    -7.709    13.754
    255    O    -4.870    -9.637    14.598
    256    H    -4.320    -9.428    15.380
    257    H    8.995    -0.699    9.741
    258    O    8.520    -1.553    9.749
    259    C    9.466    -2.564    10.131
    260    H    9.927    -2.278    11.103
    261    H    10.279    -2.618    9.373
    262    C    8.836    -3.954    10.282
    263    H    9.610    -4.715    10.526
    264    O    7.893    -3.931    11.397
    265    C    6.764    -4.729    11.069
    266    H    6.642    -5.468    11.895
    267    N    5.534    -3.930    10.972
    268    C    4.254    -4.414    11.009
    269    N    2.053    -7.071    11.279
    270    H    2.664    -7.854    11.351
    271    H    1.061    -7.221    11.300
    272    N    3.902    -5.710    11.120
    273    C    2.583    -5.869    11.163
    274    N    1.694    -4.828    11.102
    275    H    0.712    -5.037    11.172
    276    C    2.028    -3.484    10.987
    277    O    1.158    -2.607    10.950
    278    C    3.435    -3.303    10.932
    279    N    4.188    -2.136    10.840
    280    C    5.431    -2.561    10.855
    281    H    6.319    -1.925    10.794
    282    C    7.085    -5.452    9.783
    283    H    6.181    -5.667    9.174
    284    O    7.770    -6.655    10.078
    285    H    8.100    -6.995    9.238
    286    C    8.005    -4.458    9.089
    287    H    7.427    -3.578    8.722
    288    O    8.867    -5.042    8.075
    289    P    8.345    -5.040    6.583
    290    O    7.881    -3.673    6.261
    291    O    9.387    -5.604    5.693
    292    O    7.121    -6.034    6.621
    293    C    7.367    -7.453    6.815
    294    H    7.898    -7.646    7.771
    295    H    8.004    -7.863    5.999
    296    C    6.058    -8.256    6.840
    297    H    6.256    -9.336    7.021
    298    O    5.200    -7.796    7.918
    299    C    3.848    -7.825    7.482
    300    H    3.290    -8.466    8.202
    301    N    3.264    -6.477    7.479
    302    C    1.929    -6.172    7.498
    303    N    -1.391    -7.168    7.485
    304    H    -1.324    -8.165    7.502
    305    H    -2.295    -6.733    7.481
    306    N    0.914    -7.056    7.518
    307    C    -0.276    -6.459    7.508
    308    N    -0.433    -5.099    7.519
    309    H    -1.369    -4.727    7.551
    310    C    0.591    -4.164    7.511
    311    O    0.356    -2.952    7.519
    312    C    1.865    -4.792    7.492
    313    N    3.138    -4.237    7.459
    314    C    3.940    -5.275    7.445
    315    H    5.031    -5.239    7.432
    316    C    3.817    -8.457    6.099
    317    H    3.024    -8.025    5.449
    318    O    3.632    -9.854    6.199
    319    H    3.765    -10.225    5.313
    320    C    5.207    -8.119    5.572
    321    H    5.261    -7.042    5.294
    322    O    5.714    -8.993    4.529
    323    P    5.296    -8.688    3.042
    324    O    5.139    -7.228    2.867
    325    O    6.244    -9.363    2.127
    326    O    3.882    -9.372    2.904
    327    C    3.038    -8.951    1.799
    328    H    3.448    -9.328    0.832
    329    H    2.975    -7.836    1.730
    330    C    1.603    -9.472    1.964
    331    H    1.586    -10.579    1.937
    332    O    1.088    -9.070    3.269
    333    C    -0.275    -8.710    3.159
    334    H    -0.828    -9.329    3.902
    335    N    -0.467    -7.293    3.483
    336    C    -1.358    -5.366    4.039
    337    N    0.017    -5.164    4.023
    338    C    0.498    -6.335    3.687
    339    H    1.561    -6.558    3.560
    340    N    -3.688    -5.039    4.276
    341    C    -3.831    -6.321    3.939
    342    H    -4.869    -6.680    3.909
    343    N    -2.887    -7.223    3.644
    344    C    -1.665    -6.670    3.702
    345    C    -2.438    -4.520    4.354
    346    N    -2.268    -3.241    4.722
    347    H    -1.358    -2.831    4.802
    348    H    -3.104    -2.704    4.891
    349    C    -0.737    -9.064    1.760
    350    H    -1.512    -8.366    1.381
    351    O    -1.240    -10.388    1.739
    352    H    -1.347    -10.642    0.811
    353    C    0.556    -8.941    0.962
    354    H    0.799    -7.863    0.803
    355    O    0.560    -9.723    -0.255
    356    P    0.650    -9.027    -1.667
    357    O    1.649    -7.941    -1.609
    358    O    0.891    -10.063    -2.697
    359    O    -0.779    -8.394    -1.870
    360    C    -1.971    -9.196    -2.052
    361    H    -1.965    -10.100    -1.400
    362    H    -2.044    -9.533    -3.108
    363    C    -3.264    -8.422    -1.733
    364    H    -4.154    -9.077    -1.854
    365    O    -3.238    -8.006    -0.341
    366    C    -3.719    -6.678    -0.236
    367    H    -4.510    -6.691    0.547
    368    N    -2.666    -5.751    0.175
    369    C    -2.903    -4.536    0.718
    370    N    -5.139    -2.141    1.786
    371    H    -5.074    -1.189    2.070
    372    H    -6.025    -2.528    1.540
    373    N    -4.115    -4.017    0.947
    374    C    -4.044    -2.821    1.503
    375    N    -2.859    -2.201    1.814
    376    H    -2.922    -1.245    2.105
    377    C    -1.589    -2.699    1.555
    378    O    -0.561    -2.076    1.842
    379    C    -1.661    -3.991    0.979
    380    N    -0.651    -4.864    0.599
    381    C    -1.301    -5.890    0.109
    382    H    -0.841    -6.785    -0.299
    383    C    -4.328    -6.289    -1.559
    384    H    -4.212    -5.206    -1.797
    385    O    -5.702    -6.642    -1.566
    386    H    -5.977    -6.690    -2.493
    387    C    -3.518    -7.135    -2.533
    388    H    -2.515    -6.677    -2.705
    389    O    -4.225    -7.447    -3.751
    390    P    -3.954    -6.618    -5.054
    391    O    -2.498    -6.577    -5.295
    392    O    -4.786    -7.162    -6.151
    393    O    -4.420    -5.164    -4.719
    394    C    -5.780    -4.775    -4.461
    395    H    -6.178    -5.318    -3.580
    396    H    -6.431    -5.028    -5.327
    397    C    -5.934    -3.266    -4.150
    398    H    -6.968    -3.051    -3.810
    399    O    -4.979    -2.811    -3.137
    400    C    -3.945    -2.059    -3.771
    401    H    -4.141    -0.992    -3.525
    402    N    -2.615    -2.448    -3.256
    403    C    -1.837    -1.744    -2.359
    404    N    -1.178    1.103    -0.505
    405    H    -0.336    1.515    -0.150
    406    H    -1.868    1.749    -0.841
    407    N    -2.135    -0.546    -1.804
    408    C    -1.125    -0.082    -1.071
    409    N    0.062    -0.738    -0.897
    410    H    0.727    -0.351    -0.251
    411    C    0.380    -1.984    -1.416
    412    O    1.487    -2.492    -1.188
    413    C    -0.687    -2.504    -2.195
    414    N    -0.765    -3.684    -2.921
    415    C    -1.916    -3.602    -3.540
    416    H    -2.296    -4.362    -4.221
    417    C    -4.121    -2.248    -5.279
    418    H    -3.586    -3.145    -5.653
    419    O    -3.746    -1.137    -6.034
    420    H    -4.208    -0.380    -5.654
    421    C    -5.624    -2.405    -5.370
    422    H    -5.843    -3.030    -6.270
    423    O    -6.357    -1.141    -5.349
    424    P    -7.347    -0.868    -6.543
    425    O    -6.562    -0.811    -7.800
    426    O    -8.422    -1.885    -6.494
    427    O    -7.917    0.561    -6.205
    428    C    -9.260    0.718    -5.684
    429    H    -9.463    -0.001    -4.855
    430    H    -10.010    0.509    -6.485
    431    C    -9.481    2.136    -5.120
    432    H    -10.534    2.281    -4.800
    433    O    -8.660    2.292    -3.923
    434    C    -8.044    3.572    -3.917
    435    H    -8.278    4.028    -2.928
    436    N    -6.584    3.479    -4.054
    437    C    -4.433    3.950    -4.078
    438    N    -4.540    2.604    -4.380
    439    C    -5.829    2.367    -4.343
    440    H    -6.296    1.397    -4.529
    441    N    -3.579    6.116    -3.658
    442    C    -4.843    6.508    -3.510
    443    H    -4.978    7.568    -3.269
    444    N    -5.961    5.779    -3.570
    445    C    -5.686    4.503    -3.876
    446    C    -3.327    4.819    -3.950
    447    N    -2.042    4.464    -4.090
    448    H    -1.753    3.499    -4.059
    449    H    -1.345    5.168    -3.963
    450    C    -8.681    4.389    -5.013
    451    H    -7.974    5.110    -5.461
    452    O    -9.806    5.083    -4.509
    453    H    -10.314    5.403    -5.271
    454    C    -9.074    3.314    -6.022
    455    H    -8.168    2.975    -6.575
    456    O    -10.166    3.695    -6.888
    457    P    -9.948    3.876    -8.435
    458    O    -9.598    2.552    -8.992
    459    O    -11.147    4.532    -8.994
    460    O    -8.729    4.860    -8.567
    461    C    -8.880    6.259    -8.214
    462    H    -9.407    6.376    -7.240
    463    H    -9.478    6.797    -8.986
    464    C    -7.522    6.973    -8.093
    465    H    -7.661    8.053    -7.859
    466    O    -6.770    6.400    -6.992
    467    C    -5.395    6.303    -7.343
    468    H    -4.840    6.834    -6.535
    469    N    -4.900    4.898    -7.431
    470    C    -5.792    3.873    -7.628
    471    H    -6.838    4.154    -7.659
    472    C    -5.392    2.600    -7.727
    473    H    -6.094    1.779    -7.860
    474    C    -3.536    4.619    -7.378
    475    O    -2.732    5.554    -7.244
    476    N    -3.107    3.337    -7.479
    477    C    -3.995    2.344    -7.658
    478    N    -3.556    1.098    -7.774
    479    H    -2.581    0.900    -7.636
    480    H    -4.178    0.317    -7.729
    481    C    -5.221    7.055    -8.644
    482    H    -4.402    6.644    -9.265
    483    O    -4.972    8.421    -8.375
    484    H    -4.973    8.881    -9.222
    485    C    -6.584    6.849    -9.303
    486    H    -6.679    5.796    -9.657
    487    O    -6.937    7.829    -10.314
    488    P    -6.656    7.482    -11.823
    489    O    -7.099    6.104    -12.115
    490    O    -7.232    8.549    -12.672
    491    O    -5.087    7.550    -11.918
    492    C    -4.421    8.820    -11.728
    493    H    -4.700    9.286    -10.760
    494    H    -4.700    9.534    -12.539
    495    C    -2.898    8.644    -11.746
    496    H    -2.383    9.623    -11.652
    497    O    -2.470    7.816    -10.625
    498    C    -1.401    6.980    -11.045
    499    H    -0.549    7.185    -10.356
    500    N    -1.774    5.565    -10.960
    501    C    -1.713    3.372    -10.855
    502    N    -3.056    3.723    -10.860
    503    C    -3.039    5.029    -10.927
    504    H    -3.924    5.665    -10.960
    505    N    0.302    2.125    -10.883
    506    C    0.936    3.299    -10.947
    507    H    2.029    3.241    -10.988
    508    N    0.428    4.536    -10.958
    509    C    -0.913    4.499    -10.920
    510    C    -1.056    2.123    -10.836
    511    N    -1.705    0.949    -10.776
    512    H    -2.699    0.915    -10.653
    513    H    -1.189    0.109    -10.588
    514    C    -1.021    7.385    -12.459
    515    H    -0.686    6.520    -13.071
    516    O    -0.004    8.372    -12.419
    517    H    0.105    8.748    -13.310
    518    C    -2.348    7.930    -12.983
    519    H    -3.035    7.092    -13.240
    520    O    -2.230    8.849    -14.083
    521    H    -1.874    8.389    -14.862
 $END
