!*** FMO 5.3 (Gamess) INPUT generated by Facio 22.1.1.32 ***
 $CONTRL RUNTYP=ENERGY NPRINT=-5 ISPHER=1 MAXIT=200 $END
 $SYSTEM MWORDS=63 MEMDDI=63 $END
 $GDDI NGROUP=1 $END
 $SCF DIRSCF=.TRUE. NPUNCH=0 $END
!*** NumCPU : 2  MemPerNode : 512MB
 $PCM SOLVNT=WATER IEF=-10 ICOMP=2 ICAV=1 IDISP=1 IFMO=-1 $END
 $PCMCAV RADII=SUAHF $END
 $TESCAV NTSALL=60 $END
 $FMOPRP
    NAODIR=200
    NGRFMO(1)=1, 1, 0, 0, 0,   0, 0, 0, 0, 0
    IPIEDA=1
    NPRINT=9
 $END
 $FMO
      SCFTYP(1)=RHF
      MODGRD=10
      MODMUL=0
      MAXCAO=5
      MAXBND=18
      NLAYER=1
      MPLEVL(1)=2
      NFRAG=16
      ICHARG(1)=-1, -1, -1, -1, -1, -1, -1, 0, -1, -1, -1, -1, -1, -1,
-1, 0
      FRGNAM(1)=F1, F2, F3, F4, F5, F6, F7, F8, F9, F10, F11, F12, F13,
F14, F15, F16
      indat(1)=0
               1   -32   0
               33   -66   0
               67   -99   0
               100   -132   0
               133   -166   0
               167   -197   0
               198   -228   0
               229   -258   0
               259   -292   0
               293   -326   0
               327   -359   0
               360   -393   0
               394   -427   0
               428   -460   0
               461   -491   0
               492   -521   0
 $END

 $FMOBND
   -33   32       6-31G*    MINI
   -67   66       6-31G*    MINI
   -100   99       6-31G*    MINI
   -133   132       6-31G*    MINI
   -167   166       6-31G*    MINI
   -198   197       6-31G*    MINI
   -229   228       6-31G*    MINI
   -259   258       6-31G*    MINI
   -293   292       6-31G*    MINI
   -327   326       6-31G*    MINI
   -360   359       6-31G*    MINI
   -394   393       6-31G*    MINI
   -428   427       6-31G*    MINI
   -461   460       6-31G*    MINI
   -492   491       6-31G*    MINI
 $END
 $FMOHYB
 6-31G*      15   5
   1 0  -0.065034   0.288264   0.000000   0.000000   0.604412
         0.290129   0.000000   0.000000   0.319045  -0.017106
        -0.017106   0.057934   0.000000   0.000000   0.000000
   0 1  -0.065040   0.288293   0.569832   0.000000  -0.201456
         0.290147   0.300783   0.000000  -0.106342   0.049598
        -0.017106  -0.008771   0.000000  -0.027223   0.000000
   0 1  -0.065039   0.288293  -0.284916  -0.493490  -0.201455
         0.290145  -0.150392  -0.260486  -0.106340  -0.000427
         0.032923  -0.008771   0.033353   0.013612   0.023576
   0 1  -0.065039   0.288293  -0.284916   0.493490  -0.201455
         0.290145  -0.150392   0.260486  -0.106340  -0.000427
         0.032923  -0.008771  -0.033353   0.013612  -0.023576
   0 1   1.010938  -0.011975   0.000000   0.000000   0.000000
        -0.054085   0.000000   0.000000  -0.000000  -0.003174
        -0.003174  -0.003174   0.000000   0.000000   0.000000
 MINI         5   5
   1 0  -0.104883   0.308874   0.000000   0.000000   0.521806
   0 1  -0.104883   0.308874   0.491961   0.000000  -0.173934
   0 1  -0.104883   0.308876  -0.245980  -0.426050  -0.173933
   0 1  -0.104883   0.308876  -0.245980   0.426050  -0.173933
   0 1   0.988209   0.063992   0.000000   0.000000   0.000000
 $END
 
 $DATA
 FMO calculation
 C1 
 H.1-1    1
      N31 6
   
 O.1-1    8
      N31 6
      d 1
      1 0.800 1.0
   
 C.1-1    6
      N31 6
      d 1
      1 0.800 1.0
   
 N.1-1    7
      N31 6
      d 1
      1 0.800 1.0
   
 P.1-1   15
      N31 6
      d 1
      1 0.550 1.0
   
 $END
 $FMOXYZ
    1    H    8.139    -3.019    -12.098
    2    O    7.868    -2.130    -11.805
    3    C    9.059    -1.328    -11.786
    4    H    9.522    -1.338    -12.799
    5    H    9.788    -1.775    -11.074
    6    C    8.811    0.130    -11.375
    7    H    9.766    0.698    -11.401
    8    O    7.880    0.798    -12.283
    9    C    7.135    1.758    -11.539
    10    H    7.347    2.745    -12.015
    11    N    5.673    1.473    -11.553
    12    C    5.194    0.195    -11.746
    13    H    5.947    -0.565    -11.970
    14    C    4.811    2.510    -11.263
    15    O    5.204    3.641    -11.005
    16    N    3.480    2.185    -11.280
    17    H    2.838    2.928    -11.039
    18    C    2.929    0.937    -11.469
    19    O    1.707    0.795    -11.435
    20    C    3.885    -0.099    -11.730
    21    H    3.522    -1.102    -11.937
    22    C    7.685    1.755    -10.120
    23    H    6.902    1.975    -9.366
    24    O    8.747    2.678    -9.984
    25    H    9.038    2.589    -9.068
    26    C    8.185    0.323    -9.987
    27    H    7.330    -0.389    -9.925
    28    O    9.171    0.105    -8.948
    29    P    8.681    -0.265    -7.489
    30    O    9.871    -0.456    -6.630
    31    O    7.721    -1.393    -7.548
    32    O    7.894    1.011    -7.001
    33    C    8.616    2.160    -6.494
    34    H    9.397    2.503    -7.216
    35    H    9.130    1.903    -5.544
    36    C    7.679    3.345    -6.212
    37    H    8.279    4.251    -5.950
    38    O    6.879    3.646    -7.397
    39    C    5.602    4.118    -6.986
    40    H    5.455    5.124    -7.442
    41    N    4.505    3.231    -7.398
    42    C    3.177    3.573    -7.409
    43    N    0.665    5.872    -6.742
    44    H    1.179    6.672    -6.436
    45    H    -0.334    5.935    -6.822
    46    N    2.668    4.771    -7.061
    47    C    1.338    4.790    -7.096
    48    N    0.584    3.707    -7.470
    49    H    -0.420    3.799    -7.489
    50    C    1.083    2.475    -7.872
    51    O    0.320    1.565    -8.207
    52    C    2.505    2.437    -7.811
    53    N    3.396    1.392    -8.046
    54    C    4.574    1.911    -7.781
    55    H    5.531    1.387    -7.840
    56    C    5.642    4.244    -5.483
    57    H    4.652    4.063    -5.020
    58    O    6.116    5.530    -5.118
    59    H    6.282    5.524    -4.165
    60    C    6.624    3.146    -5.108
    61    H    6.180    2.136    -5.266
    62    O    7.201    3.306    -3.798
    63    P    6.567    2.579    -2.547
    64    O    7.201    3.119    -1.322
    65    O    6.672    1.120    -2.765
    66    O    5.040    2.970    -2.563
    67    C    4.579    4.272    -2.130
    68    H    5.096    5.084    -2.689
    69    H    4.791    4.425    -1.046
    70    C    3.062    4.473    -2.330
    71    H    2.786    5.527    -2.103
    72    O    2.671    4.214    -3.709
    73    C    1.408    3.582    -3.726
    74    H    0.765    4.181    -4.407
    75    N    1.522    2.207    -4.240
    76    C    1.118    0.246    -5.154
    77    N    2.463    0.240    -4.802
    78    C    2.657    1.430    -4.293
    79    H    3.618    1.806    -3.941
    80    N    -1.021    -0.415    -5.911
    81    C    -1.461    0.770    -5.475
    82    H    -2.534    0.947    -5.601
    83    N    -0.764    1.785    -4.941
    84    C    0.525    1.445    -4.797
    85    C    0.293    -0.716    -5.774
    86    N    0.750    -1.906    -6.205
    87    H    1.722    -2.153    -6.174
    88    H    0.118    -2.547    -6.645
    89    C    0.858    3.652    -2.311
    90    H    0.172    2.817    -2.074
    91    O    0.197    4.891    -2.113
    92    H    -0.700    4.869    -2.471
    93    C    2.145    3.571    -1.494
    94    H    2.564    2.541    -1.536
    95    O    2.078    4.070    -0.143
    96    P    1.332    3.280    0.991
    97    O    2.133    3.399    2.231
    98    O    1.017    1.907    0.530
    99    O    -0.023    4.049    1.215
    100    C    -0.015    5.456    1.549
    101    H    0.691    6.027    0.896
    102    H    0.310    5.596    2.606
    103    C    -1.419    6.072    1.417
    104    H    -1.390    7.158    1.660
    105    O    -1.908    5.948    0.044
    106    C    -3.272    5.536    0.075
    107    H    -3.831    6.198    -0.625
    108    N    -3.423    4.131    -0.337
    109    C    -4.230    2.166    -0.909
    110    N    -2.846    2.052    -0.969
    111    C    -2.421    3.236    -0.616
    112    H    -1.373    3.530    -0.563
    113    N    -6.549    1.710    -1.069
    114    C    -6.744    2.967    -0.667
    115    H    -7.798    3.289    -0.595
    116    N    -5.853    3.918    -0.380
    117    C    -4.598    3.444    -0.522
    118    C    -5.272    1.258    -1.191
    119    N    -5.051    -0.008    -1.582
    120    H    -4.123    -0.373    -1.674
    121    H    -5.809    -0.610    -1.818
    122    C    -3.764    5.751    1.483
    123    H    -4.595    5.072    1.762
    124    O    -4.157    7.099    1.666
    125    H    -4.339    7.211    2.607
    126    C    -2.513    5.416    2.284
    127    H    -2.321    4.318    2.279
    128    O    -2.496    5.970    3.609
    129    P    -3.049    5.168    4.842
    130    O    -2.917    6.039    6.032
    131    O    -2.389    3.848    4.914
    132    O    -4.566    4.930    4.522
    133    C    -5.571    5.951    4.699
    134    H    -5.299    6.884    4.150
    135    H    -5.672    6.215    5.780
    136    C    -6.944    5.482    4.176
    137    H    -7.650    6.334    4.093
    138    O    -6.812    4.895    2.846
    139    C    -7.603    3.715    2.754
    140    H    -8.244    3.829    1.850
    141    N    -6.776    2.504    2.593
    142    C    -7.237    1.245    2.307
    143    N    -9.877    -0.939    1.825
    144    H    -10.025    -1.894    1.578
    145    H    -10.662    -0.322    1.876
    146    N    -8.529    0.900    2.144
    147    C    -8.673    -0.411    1.946
    148    N    -7.620    -1.280    1.827
    149    H    -7.815    -2.240    1.611
    150    C    -6.274    -0.936    1.923
    151    O    -5.406    -1.797    1.792
    152    C    -6.109    0.448    2.212
    153    N    -4.956    1.196    2.432
    154    C    -5.404    2.406    2.662
    155    H    -4.783    3.273    2.885
    156    C    -8.473    3.656    3.987
    157    H    -8.671    2.616    4.318
    158    O    -9.702    4.317    3.744
    159    H    -10.130    4.462    4.601
    160    C    -7.618    4.387    5.012
    161    H    -6.796    3.720    5.362
    162    O    -8.379    4.975    6.085
    163    P    -8.301    4.413    7.549
    164    O    -9.455    4.953    8.306
    165    O    -6.952    4.681    8.087
    166    O    -8.472    2.854    7.363
    167    C    -9.788    2.303    7.102
    168    H    -10.282    2.821    6.246
    169    H    -10.433    2.414    8.003
    170    C    -9.736    0.796    6.797
    171    H    -10.761    0.404    6.638
    172    O    -8.984    0.541    5.581
    173    C    -8.254    -0.674    5.726
    174    H    -8.590    -1.324    4.886
    175    N    -6.780    -0.486    5.635
    176    C    -6.210    0.739    5.914
    177    H    -6.906    1.538    6.173
    178    C    -4.886    0.929    5.814
    179    H    -4.418    1.897    5.993
    180    C    -5.966    -1.574    5.325
    181    O    -6.487    -2.684    5.126
    182    N    -4.631    -1.400    5.227
    183    C    -4.088    -0.189    5.418
    184    N    -2.775    -0.056    5.259
    185    H    -2.270    -0.868    4.949
    186    H    -2.306    0.820    5.350
    187    C    -8.675    -1.310    7.037
    188    H    -7.851    -1.880    7.520
    189    O    -9.796    -2.156    6.835
    190    H    -10.119    -2.403    7.711
    191    C    -9.043    -0.080    7.856
    192    H    -8.120    0.470    8.153
    193    O    -9.934    -0.342    8.966
    194    P    -9.302    -0.543    10.396
    195    O    -10.391    -0.798    11.367
    196    O    -8.408    0.594    10.694
    197    O    -8.417    -1.839    10.248
    198    C    -9.069    -3.127    10.194
    199    H    -9.802    -3.176    9.357
    200    H    -9.609    -3.330    11.149
    201    C    -8.057    -4.262    10.014
    202    H    -8.602    -5.228    9.948
    203    O    -7.299    -4.118    8.784
    204    C    -6.030    -4.738    8.966
    205    H    -6.004    -5.582    8.241
    206    N    -4.882    -3.827    8.706
    207    C    -5.019    -2.468    8.881
    208    H    -6.019    -2.120    9.156
    209    C    -3.985    -1.637    8.680
    210    H    -4.072    -0.557    8.794
    211    C    -3.635    -4.363    8.385
    212    O    -3.506    -5.595    8.301
    213    N    -2.581    -3.543    8.188
    214    C    -2.732    -2.217    8.311
    215    N    -1.668    -1.450    8.104
    216    H    -0.821    -1.891    7.803
    217    H    -1.708    -0.453    8.140
    218    C    -5.989    -5.300    10.382
    219    H    -4.979    -5.225    10.837
    220    O    -6.414    -6.652    10.396
    221    H    -6.360    -6.948    11.312
    222    C    -6.983    -4.384    11.098
    223    H    -6.555    -3.364    11.233
    224    O    -7.564    -4.906    12.313
    225    P    -6.807    -4.698    13.681
    226    O    -7.630    -5.280    14.766
    227    O    -6.419    -3.279    13.820
    228    O    -5.487    -5.537    13.537
    229    C    -5.525    -6.976    13.633
    230    H    -6.213    -7.422    12.880
    231    H    -5.889    -7.294    14.637
    232    C    -4.125    -7.573    13.436
    233    H    -4.183    -8.681    13.488
    234    O    -3.578    -7.222    12.130
    235    C    -2.157    -7.151    12.230
    236    H    -1.771    -7.929    11.531
    237    N    -1.599    -5.828    11.834
    238    C    -2.351    -4.685    11.976
    239    H    -3.373    -4.826    12.341
    240    C    -1.854    -3.481    11.655
    241    H    -2.435    -2.566    11.751
    242    C    -0.271    -5.731    11.416
    243    O    0.429    -6.754    11.373
    244    N    0.241    -4.531    11.069
    245    C    -0.509    -3.422    11.180
    246    N    0.038    -2.255    10.852
    247    H    0.976    -2.237    10.498
    248    H    -0.441    -1.385    10.985
    249    C    -1.778    -7.527    13.657
    250    H    -0.898    -6.955    14.022
    251    O    -1.514    -8.919    13.744
    252    H    -2.318    -9.412    13.518
    253    C    -3.041    -7.115    14.418
    254    H    -3.103    -6.009    14.505
    255    O    -3.211    -7.745    15.699
    256    H    -2.478    -7.485    16.284
    257    H    10.990    -2.107    7.403
    258    O    10.306    -2.747    7.687
    259    C    10.991    -3.974    7.980
    260    H    11.774    -3.779    8.749
    261    H    11.498    -4.337    7.059
    262    C    10.064    -5.087    8.483
    263    H    10.662    -5.996    8.721
    264    O    9.378    -4.691    9.707
    265    C    8.092    -5.305    9.720
    266    H    8.026    -5.917    10.648
    267    N    7.010    -4.310    9.711
    268    C    5.709    -4.557    10.053
    269    N    3.244    -6.786    11.031
    270    H    3.751    -7.638    11.148
    271    H    2.249    -6.789    11.159
    272    N    5.216    -5.744    10.449
    273    C    3.904    -5.702    10.667
    274    N    3.162    -4.556    10.553
    275    H    2.173    -4.605    10.742
    276    C    3.646    -3.314    10.156
    277    O    2.896    -2.334    10.088
    278    C    5.048    -3.353    9.901
    279    N    5.921    -2.361    9.449
    280    C    7.076    -2.984    9.341
    281    H    8.013    -2.537    8.996
    282    C    8.008    -6.212    8.513
    283    H    6.975    -6.292    8.109
    284    O    8.501    -7.503    8.828
    285    H    8.475    -8.012    8.008
    286    C    8.921    -5.482    7.540
    287    H    8.456    -4.526    7.200
    288    O    9.418    -6.291    6.451
    289    P    8.595    -6.306    5.106
    290    O    9.330    -7.120    4.114
    291    O    8.292    -4.913    4.709
    292    O    7.242    -7.025    5.499
    293    C    7.212    -8.454    5.722
    294    H    7.972    -8.757    6.480
    295    H    7.449    -8.999    4.779
    296    C    5.840    -8.951    6.207
    297    H    5.905    -10.018    6.515
    298    O    5.391    -8.191    7.363
    299    C    3.972    -8.112    7.342
    300    H    3.609    -8.577    8.286
    301    N    3.500    -6.721    7.289
    302    C    2.215    -6.301    7.515
    303    N    -1.102    -7.051    8.155
    304    H    -1.078    -8.044    8.239
    305    H    -1.975    -6.562    8.242
    306    N    1.169    -7.090    7.807
    307    C    0.032    -6.408    7.928
    308    N    -0.040    -5.043    7.814
    309    H    -0.938    -4.597    7.923
    310    C    1.038    -4.199    7.566
    311    O    0.902    -2.974    7.498
    312    C    2.245    -4.929    7.381
    313    N    3.528    -4.491    7.064
    314    C    4.239    -5.595    7.008
    315    H    5.305    -5.662    6.776
    316    C    3.488    -8.921    6.157
    317    H    2.575    -8.493    5.694
    318    O    3.245    -10.259    6.553
    319    H    3.131    -10.782    5.748
    320    C    4.682    -8.820    5.212
    321    H    4.758    -7.796    4.778
    322    O    4.753    -9.868    4.218
    323    P    4.165    -9.615    2.780
    324    O    4.202    -10.882    2.018
    325    O    4.862    -8.460    2.181
    326    O    2.663    -9.209    3.040
    327    C    1.679    -10.237    3.306
    328    H    1.961    -10.828    4.207
    329    H    1.598    -10.944    2.449
    330    C    0.277    -9.652    3.547
    331    H    -0.425    -10.469    3.837
    332    O    0.301    -8.702    4.646
    333    C    -0.631    -7.666    4.384
    334    H    -1.329    -7.637    5.252
    335    N    0.043    -6.376    4.251
    336    C    0.496    -4.228    4.190
    337    N    1.680    -4.884    3.892
    338    C    1.361    -6.153    3.940
    339    H    2.049    -6.984    3.766
    340    N    -1.090    -2.539    4.676
    341    C    -1.977    -3.533    4.820
    342    H    -2.988    -3.222    5.087
    343    N    -1.807    -4.859    4.722
    344    C    -0.527    -5.138    4.410
    345    C    0.178    -2.864    4.344
    346    N    1.079    -1.878    4.199
    347    H    2.054    -2.059    4.073
    348    H    0.806    -0.951    4.459
    349    C    -1.387    -8.035    3.125
    350    H    -1.687    -7.147    2.528
    351    O    -2.532    -8.801    3.459
    352    H    -2.896    -9.160    2.638
    353    C    -0.354    -8.874    2.378
    354    H    0.454    -8.230    1.958
    355    O    -0.916    -9.785    1.403
    356    P    -1.037    -9.343    -0.105
    357    O    -1.812    -10.372    -0.833
    358    O    0.311    -9.046    -0.630
    359    O    -1.855    -7.994    -0.073
    360    C    -3.298    -8.015    0.064
    361    H    -3.591    -8.457    1.040
    362    H    -3.764    -8.622    -0.747
    363    C    -3.917    -6.606    -0.007
    364    H    -5.018    -6.657    0.149
    365    O    -3.388    -5.767    1.064
    366    C    -3.258    -4.423    0.592
    367    H    -3.861    -3.771    1.266
    368    N    -1.857    -3.989    0.625
    369    C    -1.385    -2.745    0.954
    370    N    -1.984    0.508    1.942
    371    H    -1.491    1.362    2.058
    372    H    -2.992    0.494    1.932
    373    N    -2.128    -1.687    1.299
    374    C    -1.401    -0.610    1.556
    375    N    -0.033    -0.577    1.432
    376    H    0.430    0.318    1.468
    377    C    0.760    -1.655    1.050
    378    O    1.986    -1.557    0.951
    379    C    -0.015    -2.823    0.823
    380    N    0.372    -4.097    0.430
    381    C    -0.756    -4.756    0.324
    382    H    -0.850    -5.804    0.028
    383    C    -3.844    -4.370    -0.812
    384    H    -3.319    -3.637    -1.461
    385    O    -5.227    -4.068    -0.770
    386    H    -5.563    -4.126    -1.683
    387    C    -3.590    -5.799    -1.282
    388    H    -2.499    -5.930    -1.458
    389    O    -4.288    -6.225    -2.461
    390    P    -5.776    -6.564    -2.787
    391    O    -6.459    -7.153    -1.617
    392    O    -5.808    -7.363    -4.031
    393    O    -6.396    -5.139    -3.102
    394    C    -6.075    -4.527    -4.383
    395    H    -6.756    -4.930    -5.171
    396    H    -5.030    -4.743    -4.704
    397    C    -6.258    -3.004    -4.319
    398    H    -7.238    -2.761    -3.854
    399    O    -5.195    -2.406    -3.544
    400    C    -4.193    -1.893    -4.406
    401    H    -4.103    -0.814    -4.144
    402    N    -2.902    -2.572    -4.168
    403    C    -1.880    -2.118    -3.372
    404    N    -0.447    0.435    -1.543
    405    H    0.348    0.625    -0.967
    406    H    -1.277    0.985    -1.397
    407    N    -1.860    -0.958    -2.692
    408    C    -0.664    -0.701    -2.175
    409    N    0.398    -1.569    -2.248
    410    H    1.281    -1.300    -1.849
    411    C    0.383    -2.805    -2.881
    412    O    1.375    -3.541    -2.899
    413    C    -0.877    -3.067    -3.477
    414    N    -1.274    -4.119    -4.286
    415    C    -2.480    -3.784    -4.676
    416    H    -3.091    -4.393    -5.346
    417    C    -4.672    -2.018    -5.850
    418    H    -4.188    -2.868    -6.381
    419    O    -4.455    -0.822    -6.574
    420    H    -4.979    -0.148    -6.122
    421    C    -6.169    -2.322    -5.699
    422    H    -6.412    -3.088    -6.478
    423    O    -7.033    -1.148    -5.774
    424    P    -8.460    -1.415    -6.406
    425    O    -9.090    -2.556    -5.707
    426    O    -8.324    -1.538    -7.876
    427    O    -9.293    -0.115    -6.088
    428    C    -8.896    1.163    -6.634
    429    H    -9.354    1.305    -7.644
    430    H    -7.786    1.244    -6.746
    431    C    -9.352    2.306    -5.718
    432    H    -10.452    2.301    -5.562
    433    O    -8.708    2.154    -4.417
    434    C    -8.076    3.365    -4.044
    435    H    -8.336    3.558    -2.977
    436    N    -6.618    3.252    -4.186
    437    C    -4.469    3.684    -4.143
    438    N    -4.587    2.382    -4.633
    439    C    -5.882    2.167    -4.610
    440    H    -6.375    1.233    -4.896
    441    N    -3.595    5.765    -3.403
    442    C    -4.857    6.154    -3.229
    443    H    -5.002    7.173    -2.846
    444    N    -5.974    5.450    -3.408
    445    C    -5.711    4.224    -3.878
    446    C    -3.361    4.513    -3.859
    447    N    -2.080    4.173    -4.017
    448    H    -1.830    3.233    -4.298
    449    H    -1.456    4.923    -4.224
    450    C    -8.658    4.454    -4.911
    451    H    -7.962    5.302    -5.084
    452    O    -9.860    4.936    -4.340
    453    H    -10.313    5.478    -5.008
    454    C    -8.897    3.694    -6.202
    455    H    -7.916    3.537    -6.711
    456    O    -9.891    4.300    -7.049
    457    P    -9.519    4.714    -8.516
    458    O    -10.675    5.474    -9.044
    459    O    -9.122    3.503    -9.265
    460    O    -8.267    5.649    -8.358
    461    C    -8.364    6.910    -7.659
    462    H    -8.898    6.806    -6.684
    463    H    -8.930    7.648    -8.273
    464    C    -6.970    7.488    -7.369
    465    H    -7.055    8.451    -6.819
    466    O    -6.216    6.579    -6.518
    467    C    -4.837    6.650    -6.865
    468    H    -4.322    6.975    -5.931
    469    N    -4.255    5.346    -7.296
    470    C    -5.078    4.338    -7.735
    471    H    -6.148    4.560    -7.740
    472    C    -4.582    3.149    -8.103
    473    H    -5.231    2.343    -8.425
    474    C    -2.870    5.167    -7.324
    475    O    -2.129    6.110    -7.009
    476    N    -2.353    3.969    -7.681
    477    C    -3.166    2.965    -8.055
    478    N    -2.625    1.786    -8.378
    479    H    -1.629    1.676    -8.328
    480    H    -3.173    1.012    -8.694
    481    C    -4.688    7.736    -7.909
    482    H    -3.877    7.525    -8.636
    483    O    -4.452    8.981    -7.279
    484    H    -4.354    9.621    -7.994
    485    C    -6.058    7.710    -8.582
    486    H    -6.159    6.809    -9.230
    487    O    -6.435    8.932    -9.250
    488    P    -6.037    9.164    -10.753
    489    O    -6.669    10.416    -11.222
    490    O    -6.322    7.948    -11.544
    491    O    -4.476    9.370    -10.701
    492    C    -3.907    10.602    -10.198
    493    H    -4.261    10.836    -9.166
    494    H    -4.200    11.467    -10.836
    495    C    -2.373    10.528    -10.180
    496    H    -1.943    11.461    -9.749
    497    O    -1.926    9.412    -9.356
    498    C    -0.752    8.854    -9.929
    499    H    0.044    8.923    -9.150
    500    N    -0.956    7.446    -10.294
    501    C    -0.614    5.316    -10.728
    502    N    -1.979    5.529    -10.885
    503    C    -2.130    6.806    -10.619
    504    H    -3.077    7.349    -10.654
    505    N    1.534    4.307    -10.630
    506    C    2.004    5.520    -10.321
    507    H    3.086    5.581    -10.157
    508    N    1.336    6.667    -10.163
    509    C    0.023    6.492    -10.374
    510    C    0.198    4.164    -10.842
    511    N    -0.266    2.936    -11.133
    512    H    -1.232    2.756    -11.343
    513    H    0.366    2.157    -11.118
    514    C    -0.361    9.708    -11.126
    515    H    0.088    9.104    -11.942
    516    O    0.551    10.713    -10.719
    517    H    0.654    11.362    -11.437
    518    C    -1.712    10.281    -11.543
    519    H    -2.310    9.510    -12.076
    520    O    -1.634    11.491    -12.321
    521    H    -1.224    11.310    -13.186
 $END
