!*** FMO 5.3 (Gamess) INPUT generated by Facio 22.1.1.32 ***
 $CONTRL RUNTYP=ENERGY NPRINT=-5 ISPHER=1 MAXIT=200 $END
 $SYSTEM MWORDS=63 MEMDDI=63 $END
 $GDDI NGROUP=1 $END
 $SCF DIRSCF=.TRUE. NPUNCH=0 $END
!*** NumCPU : 2  MemPerNode : 512MB
 $PCM SOLVNT=WATER IEF=-10 ICOMP=2 ICAV=1 IDISP=1 IFMO=-1 $END
 $PCMCAV RADII=SUAHF $END
 $TESCAV NTSALL=60 $END
 $FMOPRP
    NAODIR=200
    NGRFMO(1)=1, 1, 0, 0, 0,   0, 0, 0, 0, 0
    IPIEDA=1
    NPRINT=9
 $END
 $FMO
      SCFTYP(1)=RHF
      MODGRD=10
      MODMUL=0
      MAXCAO=5
      MAXBND=13
      NLAYER=1
      MPLEVL(1)=2
      NFRAG=11
      ICHARG(1)=-1, -1, -1, -1, -1, -1, -1, -1, -1, -1, 0
      FRGNAM(1)=F1, F2, F3, F4, F5, F6, F7, F8, F9, F10, F11
      indat(1)=0
               1   -33   0
               34   -64   0
               65   -94   0
               95   -124   0
               125   -158   0
               159   -189   0
               190   -220   0
               221   -253   0
               254   -286   0
               287   -320   0
               321   -351   0
 $END

 $FMOBND
   -34   33       6-31G*    MINI
   -65   64       6-31G*    MINI
   -95   94       6-31G*    MINI
   -125   124       6-31G*    MINI
   -159   158       6-31G*    MINI
   -190   189       6-31G*    MINI
   -221   220       6-31G*    MINI
   -254   253       6-31G*    MINI
   -287   286       6-31G*    MINI
   -321   320       6-31G*    MINI
 $END
 $FMOHYB
 6-31G*      15   5
   1 0  -0.065034   0.288264   0.000000   0.000000   0.604412
         0.290129   0.000000   0.000000   0.319045  -0.017106
        -0.017106   0.057934   0.000000   0.000000   0.000000
   0 1  -0.065040   0.288293   0.569832   0.000000  -0.201456
         0.290147   0.300783   0.000000  -0.106342   0.049598
        -0.017106  -0.008771   0.000000  -0.027223   0.000000
   0 1  -0.065039   0.288293  -0.284916  -0.493490  -0.201455
         0.290145  -0.150392  -0.260486  -0.106340  -0.000427
         0.032923  -0.008771   0.033353   0.013612   0.023576
   0 1  -0.065039   0.288293  -0.284916   0.493490  -0.201455
         0.290145  -0.150392   0.260486  -0.106340  -0.000427
         0.032923  -0.008771  -0.033353   0.013612  -0.023576
   0 1   1.010938  -0.011975   0.000000   0.000000   0.000000
        -0.054085   0.000000   0.000000  -0.000000  -0.003174
        -0.003174  -0.003174   0.000000   0.000000   0.000000
 MINI         5   5
   1 0  -0.104883   0.308874   0.000000   0.000000   0.521806
   0 1  -0.104883   0.308874   0.491961   0.000000  -0.173934
   0 1  -0.104883   0.308876  -0.245980  -0.426050  -0.173933
   0 1  -0.104883   0.308876  -0.245980   0.426050  -0.173933
   0 1   0.988209   0.063992   0.000000   0.000000   0.000000
 $END
 
 $DATA
 FMO calculation
 C1 
 H.1-1    1
      N31 6
   
 O.1-1    8
      N31 6
      d 1
      1 0.800 1.0
   
 C.1-1    6
      N31 6
      d 1
      1 0.800 1.0
   
 N.1-1    7
      N31 6
      d 1
      1 0.800 1.0
   
 P.1-1   15
      N31 6
      d 1
      1 0.550 1.0
   
 $END
 $FMOXYZ
    1    H    6.082    6.051    17.917
    2    O    6.145    6.365    16.995
    3    C    4.820    6.737    16.586
    4    H    4.423    7.506    17.284
    5    H    4.163    5.841    16.650
    6    C    4.751    7.300    15.160
    7    H    3.700    7.517    14.870
    8    O    5.486    8.559    15.095
    9    C    6.190    8.625    13.860
    10    H    5.859    9.580    13.388
    11    N    7.669    8.666    14.034
    12    C    8.239    8.267    15.223
    13    H    7.553    7.929    16.001
    14    C    9.563    8.322    15.416
    15    H    10.021    8.030    16.360
    16    C    8.484    9.103    12.993
    17    O    7.966    9.441    11.919
    18    N    9.824    9.160    13.168
    19    C    10.367    8.803    14.345
    20    N    11.687    8.900    14.500
    21    H    12.254    9.215    13.735
    22    H    12.136    8.614    15.348
    23    C    5.730    7.462    13.009
    24    H    6.520    7.103    12.323
    25    O    4.591    7.832    12.257
    26    H    4.309    7.042    11.781
    27    C    5.394    6.420    14.074
    28    H    6.333    6.005    14.510
    29    O    4.464    5.392    13.665
    30    P    5.003    4.051    13.041
    31    O    6.098    3.529    13.890
    32    O    3.848    3.155    12.807
    33    O    5.585    4.515    11.661
    34    C    4.696    4.900    10.586
    35    H    4.002    5.710    10.903
    36    H    4.071    4.033    10.276
    37    C    5.471    5.387    9.357
    38    H    4.778    5.716    8.552
    39    O    6.298    6.526    9.718
    40    C    7.529    6.457    9.008
    41    H    7.589    7.405    8.423
    42    N    8.716    6.375    9.906
    43    C    8.569    5.933    11.200
    44    H    7.560    5.650    11.494
    45    C    9.602    5.902    12.050
    46    H    9.489    5.601    13.090
    47    C    9.984    6.711    9.436
    48    O    10.121    7.057    8.254
    49    N    11.045    6.665    10.275
    50    C    10.878    6.297    11.557
    51    N    11.930    6.294    12.372
    52    H    12.838    6.536    12.017
    53    H    11.858    5.985    13.323
    54    C    7.433    5.291    8.047
    55    H    8.410    4.797    7.876
    56    O    6.899    5.731    6.815
    57    H    6.763    4.936    6.286
    58    C    6.457    4.370    8.768
    59    H    6.955    3.886    9.641
    60    O    5.754    3.428    7.914
    61    P    6.429    2.025    7.663
    62    O    6.958    1.530    8.946
    63    O    5.496    1.130    6.945
    64    O    7.658    2.335    6.741
    65    C    7.540    2.752    5.369
    66    H    6.917    3.667    5.279
    67    H    7.046    1.960    4.766
    68    C    8.916    3.060    4.761
    69    H    8.813    3.456    3.731
    70    O    9.589    4.090    5.547
    71    C    10.985    3.837    5.569
    72    H    11.461    4.742    5.124
    73    N    11.490    3.626    6.958
    74    C    10.638    3.257    7.975
    75    H    9.601    3.107    7.681
    76    C    12.832    3.821    7.204
    77    O    13.626    4.147    6.331
    78    N    13.217    3.639    8.507
    79    H    14.208    3.774    8.683
    80    C    12.419    3.289    9.575
    81    O    12.903    3.159    10.697
    82    C    11.039    3.101    9.245
    83    H    10.345    2.823    10.036
    84    C    11.241    2.646    4.657
    85    H    12.069    2.015    5.029
    86    O    11.530    3.085    3.340
    87    H    11.455    2.318    2.751
    88    C    9.915    1.898    4.718
    89    H    9.808    1.374    5.696
    90    O    9.668    1.046    3.571
    91    P    9.697    -0.523    3.743
    92    O    8.623    -0.902    4.683
    93    O    9.668    -1.159    2.408
    94    O    11.087    -0.823    4.418
    95    C    12.335    -0.642    3.718
    96    H    12.400    0.371    3.264
    97    H    12.445    -1.395    2.904
    98    C    13.529    -0.789    4.669
    99    H    14.482    -0.651    4.118
    100    O    13.462    0.240    5.709
    101    C    13.854    -0.312    6.946
    102    H    14.662    0.353    7.331
    103    N    12.727    -0.358    7.945
    104    C    11.409    -0.167    7.586
    105    H    11.238    -0.014    6.522
    106    C    13.045    -0.555    9.266
    107    O    14.187    -0.726    9.646
    108    N    12.011    -0.528    10.150
    109    H    12.274    -0.653    11.121
    110    C    10.691    -0.282    9.878
    111    O    9.885    -0.201    10.802
    112    C    10.404    -0.113    8.482
    113    H    9.377    0.105    8.189
    114    C    14.447    -1.674    6.629
    115    H    14.314    -2.381    7.452
    116    O    15.829    -1.565    6.306
    117    H    16.259    -0.934    6.899
    118    C    13.615    -2.113    5.436
    119    H    12.579    -2.371    5.756
    120    O    14.236    -3.135    4.628
    121    P    13.821    -4.648    4.745
    122    O    12.496    -4.801    4.108
    123    O    14.901    -5.513    4.206
    124    O    13.663    -4.965    6.288
    125    C    14.824    -5.111    7.144
    126    H    15.554    -4.285    6.981
    127    H    15.345    -6.066    6.915
    128    C    14.465    -5.121    8.646
    129    H    15.385    -5.151    9.268
    130    O    13.760    -3.899    8.997
    131    C    12.699    -4.182    9.873
    132    H    12.824    -3.501    10.743
    133    N    11.401    -3.907    9.250
    134    C    10.218    -3.727    9.913
    135    N    8.418    -3.628    12.863
    136    H    7.481    -3.450    13.162
    137    H    9.120    -3.838    13.540
    138    N    10.046    -3.785    11.243
    139    C    8.778    -3.574    11.595
    140    N    7.777    -3.312    10.694
    141    H    6.851    -3.142    11.041
    142    C    7.934    -3.239    9.315
    143    O    6.981    -3.015    8.563
    144    C    9.280    -3.477    8.932
    145    N    9.865    -3.485    7.674
    146    C    11.126    -3.743    7.912
    147    H    11.903    -3.823    7.154
    148    C    12.853    -5.613    10.318
    149    H    11.876    -6.098    10.530
    150    O    13.675    -5.659    11.468
    151    H    13.846    -6.588    11.656
    152    C    13.544    -6.254    9.110
    153    H    12.813    -6.424    8.287
    154    O    14.329    -7.437    9.392
    155    P    13.586    -8.794    9.705
    156    O    12.287    -8.522    10.359
    157    O    13.557    -9.618    8.476
    158    O    14.510    -9.493    10.757
    159    C    15.027    -8.891    11.961
    160    H    14.378    -9.158    12.826
    161    H    15.040    -7.781    11.890
    162    C    16.473    -9.334    12.277
    163    H    16.486    -10.263    12.880
    164    O    17.205    -9.619    11.048
    165    C    18.513    -9.085    11.131
    166    H    19.193    -9.943    10.908
    167    N    18.761    -8.015    10.125
    168    C    17.706    -7.383    9.506
    169    H    16.705    -7.715    9.793
    170    C    17.910    -6.442    8.576
    171    H    17.097    -5.952    8.052
    172    C    20.070    -7.646    9.816
    173    O    21.006    -8.212    10.403
    174    N    20.293    -6.722    8.848
    175    C    19.255    -6.117    8.244
    176    N    19.491    -5.229    7.285
    177    H    20.435    -4.937    7.130
    178    H    18.760    -4.728    6.826
    179    C    18.734    -8.633    12.559
    180    H    19.422    -7.767    12.630
    181    O    19.242    -9.708    13.328
    182    H    19.212    -9.440    14.261
    183    C    17.320    -8.251    12.984
    184    H    17.043    -7.276    12.517
    185    O    17.088    -8.280    14.416
    186    P    17.297    -6.946    15.244
    187    O    16.556    -5.869    14.556
    188    O    16.909    -7.203    16.649
    189    O    18.844    -6.638    15.180
    190    C    19.337    -5.272    15.301
    191    H    19.747    -5.112    16.323
    192    H    18.533    -4.509    15.160
    193    C    20.443    -4.955    14.279
    194    H    21.375    -5.498    14.537
    195    O    20.029    -5.420    12.968
    196    C    20.454    -4.511    11.979
    197    H    21.069    -5.108    11.267
    198    N    19.317    -3.908    11.251
    199    C    18.054    -3.887    11.808
    200    H    17.941    -4.358    12.790
    201    C    17.020    -3.359    11.144
    202    H    16.006    -3.365    11.539
    203    C    19.541    -3.322    10.009
    204    O    20.690    -3.308    9.547
    205    N    18.508    -2.798    9.321
    206    C    17.281    -2.826    9.851
    207    N    16.298    -2.373    9.119
    208    H    15.352    -2.345    9.447
    209    H    16.474    -2.185    8.159
    210    C    21.331    -3.475    12.649
    211    H    21.228    -2.478    12.176
    212    O    22.690    -3.890    12.620
    213    H    23.191    -3.218    13.099
    214    C    20.768    -3.460    14.066
    215    H    19.790    -2.923    14.082
    216    O    21.695    -2.985    15.073
    217    P    21.639    -1.488    15.566
    218    O    20.218    -1.110    15.711
    219    O    22.496    -1.349    16.760
    220    O    22.259    -0.638    14.404
    221    C    23.613    -0.753    13.928
    222    H    23.935    -1.818    13.873
    223    H    24.305    -0.231    14.627
    224    C    23.760    -0.116    12.527
    225    H    24.788    -0.255    12.130
    226    O    22.847    -0.774    11.601
    227    C    22.243    0.185    10.753
    228    H    22.432    -0.155    9.709
    229    N    20.793    0.260    10.975
    230    C    18.632    0.483    10.687
    231    N    18.805    0.145    12.017
    232    C    20.098    0.034    12.138
    233    H    20.594    -0.227    13.063
    234    N    17.636    1.021    8.612
    235    C    18.877    1.063    8.116
    236    H    18.950    1.304    7.050
    237    N    20.044    0.867    8.743
    238    C    19.844    0.554    10.033
    239    C    17.482    0.745    9.931
    240    N    16.267    0.747    10.484
    241    H    16.132    0.450    11.436
    242    H    15.490    0.664    9.861
    243    C    22.938    1.506    10.979
    244    H    22.255    2.374    10.855
    245    O    24.037    1.633    10.094
    246    H    24.474    2.469    10.321
    247    C    23.404    1.381    12.428
    248    H    22.553    1.552    13.128
    249    O    24.556    2.188    12.763
    250    P    24.393    3.735    12.992
    251    O    23.118    3.940    13.709
    252    O    25.621    4.238    13.647
    253    O    24.310    4.361    11.540
    254    C    23.556    5.589    11.321
    255    H    24.179    6.482    11.547
    256    H    22.652    5.649    11.975
    257    C    23.064    5.711    9.869
    258    H    23.916    5.782    9.160
    259    O    22.314    4.510    9.531
    260    C    21.131    4.852    8.842
    261    H    21.099    4.225    7.921
    262    N    19.952    4.569    9.669
    263    C    17.910    4.155    10.371
    264    N    18.724    4.114    11.501
    265    C    19.921    4.362    11.030
    266    H    20.832    4.411    11.634
    267    N    16.024    4.110    8.938
    268    C    16.875    4.365    7.940
    269    H    16.418    4.453    6.947
    270    N    18.199    4.557    7.979
    271    C    18.655    4.434    9.237
    272    C    16.519    3.991    10.197
    273    N    15.679    3.720    11.215
    274    H    16.021    3.581    12.151
    275    H    14.714    3.520    11.035
    276    C    21.238    6.309    8.459
    277    H    20.251    6.807    8.393
    278    O    21.902    6.425    7.217
    279    H    22.035    7.368    7.059
    280    C    22.083    6.874    9.596
    281    H    21.465    6.977    10.519
    282    O    22.803    8.089    9.259
    283    P    22.133    9.485    9.571
    284    O    21.615    9.428    10.955
    285    O    23.101    10.565    9.282
    286    O    20.926    9.591    8.563
    287    C    21.166    9.756    7.142
    288    H    21.870    8.989    6.748
    289    H    21.635    10.740    6.943
    290    C    19.859    9.676    6.337
    291    H    20.054    9.779    5.248
    292    O    19.244    8.375    6.544
    293    C    17.832    8.520    6.582
    294    H    17.422    7.835    5.802
    295    N    17.288    8.135    7.894
    296    C    15.985    7.837    8.179
    297    N    12.683    7.538    7.185
    298    H    12.720    7.775    6.217
    299    H    11.794    7.324    7.600
    300    N    14.964    7.856    7.303
    301    C    13.807    7.532    7.875
    302    N    13.692    7.184    9.195
    303    H    12.778    6.949    9.547
    304    C    14.733    7.137    10.114
    305    O    14.536    6.814    11.290
    306    C    15.965    7.512    9.523
    307    N    17.234    7.616    10.081
    308    C    17.983    7.990    9.073
    309    H    19.051    8.207    9.127
    310    C    17.513    9.956    6.227
    311    H    16.600    10.328    6.735
    312    O    17.359    10.079    4.827
    313    H    17.208    11.014    4.641
    314    C    18.762    10.681    6.719
    315    H    18.765    10.723    7.833
    316    O    19.013    11.966    6.091
    317    P    18.526    13.262    6.841
    318    O    18.800    13.129    8.284
    319    O    19.090    14.460    6.183
    320    O    16.970    13.234    6.640
    321    C    16.413    13.370    5.312
    322    H    16.847    12.630    4.602
    323    H    16.632    14.384    4.900
    324    C    14.893    13.182    5.346
    325    H    14.451    13.312    4.332
    326    O    14.564    11.835    5.788
    327    C    13.396    11.885    6.599
    328    H    12.648    11.204    6.129
    329    N    13.676    11.417    7.964
    330    C    12.753    10.972    8.873
    331    N    9.463    10.368    9.761
    332    H    8.966    10.663    8.948
    333    H    8.948    10.036    10.556
    334    N    11.425    10.904    8.680
    335    C    10.779    10.451    9.754
    336    N    11.416    10.084    10.912
    337    H    10.850    9.764    11.682
    338    C    12.785    10.140    11.139
    339    O    13.279    9.797    12.218
    340    C    13.478    10.632    10.000
    341    N    14.833    10.865    9.805
    342    C    14.904    11.340    8.585
    343    H    15.819    11.653    8.079
    344    C    12.869    13.312    6.571
    345    H    12.396    13.611    7.534
    346    O    11.939    13.462    5.508
    347    H    11.665    14.395    5.450
    348    C    14.156    14.096    6.333
    349    H    14.751    14.150    7.270
    350    O    13.970    15.405    5.768
    351    H    13.503    15.976    6.403
 $END
