!*** FMO 5.3 (Gamess) INPUT generated by Facio 22.1.1.32 ***
 $CONTRL RUNTYP=ENERGY NPRINT=-5 ISPHER=1 MAXIT=200 $END
 $SYSTEM MWORDS=63 MEMDDI=63 $END
 $GDDI NGROUP=1 $END
 $SCF DIRSCF=.TRUE. NPUNCH=0 $END
!*** NumCPU : 2  MemPerNode : 512MB
 $PCM SOLVNT=WATER IEF=-10 ICOMP=2 ICAV=1 IDISP=1 IFMO=-1 $END
 $PCMCAV RADII=SUAHF $END
 $TESCAV NTSALL=60 $END
 $FMOPRP
    NAODIR=200
    NGRFMO(1)=1, 1, 0, 0, 0,   0, 0, 0, 0, 0
    IPIEDA=1
    NPRINT=9
 $END
 $FMO
      SCFTYP(1)=RHF
      MODGRD=10
      MODMUL=0
      MAXCAO=5
      MAXBND=13
      NLAYER=1
      MPLEVL(1)=2
      NFRAG=11
      ICHARG(1)=-1, -1, -1, -1, -1, -1, -1, -1, -1, -1, 0
      FRGNAM(1)=F1, F2, F3, F4, F5, F6, F7, F8, F9, F10, F11
      indat(1)=0
               1   -33   0
               34   -64   0
               65   -94   0
               95   -124   0
               125   -158   0
               159   -189   0
               190   -220   0
               221   -253   0
               254   -286   0
               287   -320   0
               321   -351   0
 $END

 $FMOBND
   -34   33       6-31G*    MINI
   -65   64       6-31G*    MINI
   -95   94       6-31G*    MINI
   -125   124       6-31G*    MINI
   -159   158       6-31G*    MINI
   -190   189       6-31G*    MINI
   -221   220       6-31G*    MINI
   -254   253       6-31G*    MINI
   -287   286       6-31G*    MINI
   -321   320       6-31G*    MINI
 $END
 $FMOHYB
 6-31G*      15   5
   1 0  -0.065034   0.288264   0.000000   0.000000   0.604412
         0.290129   0.000000   0.000000   0.319045  -0.017106
        -0.017106   0.057934   0.000000   0.000000   0.000000
   0 1  -0.065040   0.288293   0.569832   0.000000  -0.201456
         0.290147   0.300783   0.000000  -0.106342   0.049598
        -0.017106  -0.008771   0.000000  -0.027223   0.000000
   0 1  -0.065039   0.288293  -0.284916  -0.493490  -0.201455
         0.290145  -0.150392  -0.260486  -0.106340  -0.000427
         0.032923  -0.008771   0.033353   0.013612   0.023576
   0 1  -0.065039   0.288293  -0.284916   0.493490  -0.201455
         0.290145  -0.150392   0.260486  -0.106340  -0.000427
         0.032923  -0.008771  -0.033353   0.013612  -0.023576
   0 1   1.010938  -0.011975   0.000000   0.000000   0.000000
        -0.054085   0.000000   0.000000  -0.000000  -0.003174
        -0.003174  -0.003174   0.000000   0.000000   0.000000
 MINI         5   5
   1 0  -0.104883   0.308874   0.000000   0.000000   0.521806
   0 1  -0.104883   0.308874   0.491961   0.000000  -0.173934
   0 1  -0.104883   0.308876  -0.245980  -0.426050  -0.173933
   0 1  -0.104883   0.308876  -0.245980   0.426050  -0.173933
   0 1   0.988209   0.063992   0.000000   0.000000   0.000000
 $END
 
 $DATA
 FMO calculation
 C1 
 H.1-1    1
      N31 6
   
 O.1-1    8
      N31 6
      d 1
      1 0.800 1.0
   
 C.1-1    6
      N31 6
      d 1
      1 0.800 1.0
   
 N.1-1    7
      N31 6
      d 1
      1 0.800 1.0
   
 P.1-1   15
      N31 6
      d 1
      1 0.550 1.0
   
 $END
 $FMOXYZ
    1    H    6.597    10.983    17.179
    2    O    6.672    11.167    16.223
    3    C    5.342    11.128    15.687
    4    H    4.726    11.883    16.224
    5    H    4.904    10.130    15.894
    6    C    5.240    11.392    14.172
    7    H    4.198    11.679    13.903
    8    O    6.104    12.497    13.767
    9    C    6.771    12.167    12.550
    10    H    6.538    12.999    11.850
    11    N    8.255    12.066    12.699
    12    C    8.824    12.019    13.951
    13    H    8.141    12.081    14.797
    14    C    10.149    11.932    14.121
    15    H    10.606    11.896    15.107
    16    C    9.078    12.041    11.568
    17    O    8.570    12.116    10.442
    18    N    10.423    11.952    11.724
    19    C    10.962    11.899    12.954
    20    N    12.287    11.833    13.084
    21    H    12.867    11.869    12.267
    22    H    12.727    11.824    13.989
    23    C    6.150    10.885    12.016
    24    H    6.887    10.243    11.489
    25    O    5.080    11.179    11.140
    26    H    4.644    10.334    10.954
    27    C    5.651    10.206    13.286
    28    H    6.501    9.714    13.811
    29    O    4.519    9.333    13.077
    30    P    4.614    7.774    13.208
    31    O    3.245    7.218    13.313
    32    O    5.555    7.439    14.296
    33    O    5.258    7.323    11.847
    34    C    4.503    7.222    10.620
    35    H    3.751    8.042    10.530
    36    H    3.950    6.257    10.613
    37    C    5.402    7.267    9.360
    38    H    4.786    7.459    8.452
    39    O    6.369    8.351    9.456
    40    C    7.630    7.916    8.955
    41    H    7.891    8.639    8.147
    42    N    8.708    7.939    9.986
    43    C    8.383    7.958    11.318
    44    H    7.324    7.990    11.548
    45    C    9.319    7.986    12.274
    46    H    9.067    8.022    13.331
    47    C    10.051    7.920    9.602
    48    O    10.338    7.891    8.401
    49    N    11.016    7.934    10.556
    50    C    10.681    7.980    11.857
    51    N    11.644    8.033    12.776
    52    H    12.592    8.050    12.460
    53    H    11.451    8.039    13.756
    54    C    7.439    6.542    8.336
    55    H    8.325    5.884    8.475
    56    O    7.147    6.652    6.956
    57    H    6.955    5.749    6.674
    58    C    6.237    6.000    9.107
    59    H    6.554    5.631    10.109
    60    O    5.436    5.041    8.384
    61    P    5.773    3.514    8.395
    62    O    4.615    2.802    7.811
    63    O    6.156    3.137    9.775
    64    O    7.015    3.375    7.449
    65    C    6.909    3.445    6.008
    66    H    6.785    4.498    5.667
    67    H    6.037    2.860    5.633
    68    C    8.169    2.890    5.331
    69    H    8.108    2.994    4.226
    70    O    9.338    3.648    5.781
    71    C    10.444    2.772    5.911
    72    H    11.231    3.188    5.238
    73    N    10.949    2.707    7.307
    74    C    10.079    2.810    8.367
    75    H    9.034    2.895    8.099
    76    C    12.303    2.583    7.519
    77    O    13.115    2.470    6.601
    78    N    12.678    2.593    8.837
    79    H    13.677    2.685    8.990
    80    C    11.877    2.815    9.938
    81    O    12.368    2.921    11.061
    82    C    10.484    2.887    9.640
    83    H    9.785    3.052    10.456
    84    C    10.000    1.435    5.383
    85    H    10.499    0.586    5.894
    86    O    10.265    1.406    3.996
    87    H    10.885    0.659    3.895
    88    C    8.507    1.427    5.653
    89    H    8.304    1.281    6.734
    90    O    7.727    0.523    4.838
    91    P    7.866    -1.051    4.930
    92    O    7.090    -1.666    3.830
    93    O    7.525    -1.507    6.300
    94    O    9.385    -1.404    4.680
    95    C    9.900    -1.567    3.332
    96    H    9.524    -0.750    2.669
    97    H    9.548    -2.532    2.901
    98    C    11.449    -1.536    3.251
    99    H    11.746    -1.243    2.221
    100    O    12.003    -0.531    4.148
    101    C    13.186    -0.972    4.749
    102    H    13.948    -0.188    4.518
    103    N    13.034    -1.126    6.243
    104    C    11.851    -1.558    6.802
    105    H    11.075    -1.835    6.092
    106    C    14.112    -0.824    7.053
    107    O    15.205    -0.508    6.602
    108    N    13.869    -0.897    8.407
    109    H    14.610    -0.622    9.029
    110    C    12.690    -1.238    9.025
    111    O    12.612    -1.211    10.250
    112    C    11.641    -1.615    8.127
    113    H    10.688    -1.932    8.545
    114    C    13.562    -2.239    4.026
    115    H    14.088    -2.868    4.715
    116    O    14.415    -1.972    2.930
    117    H    13.888    -1.617    2.201
    118    C    12.208    -2.818    3.600
    119    H    11.675    -3.274    4.463
    120    O    12.219    -3.702    2.462
    121    P    13.005    -5.073    2.463
    122    O    14.448    -4.831    2.202
    123    O    12.348    -5.966    1.492
    124    O    12.788    -5.687    3.905
    125    C    13.788    -6.552    4.513
    126    H    14.059    -7.398    3.845
    127    H    13.334    -6.988    5.431
    128    C    15.060    -5.811    4.965
    129    H    15.654    -5.463    4.095
    130    O    14.636    -4.659    5.670
    131    C    15.605    -4.208    6.562
    132    H    15.946    -3.210    6.208
    133    N    14.995    -4.092    7.890
    134    C    15.563    -3.634    9.043
    135    N    18.399    -2.833    10.815
    136    H    18.687    -2.709    11.761
    137    H    19.062    -2.735    10.072
    138    N    16.827    -3.201    9.187
    139    C    17.142    -3.026    10.462
    140    N    16.219    -3.048    11.483
    141    H    16.510    -2.816    12.412
    142    C    14.871    -3.365    11.337
    143    O    14.097    -3.373    12.299
    144    C    14.568    -3.729    10.002
    145    N    13.390    -4.226    9.457
    146    C    13.687    -4.413    8.201
    147    H    13.000    -4.786    7.437
    148    C    16.732    -5.205    6.495
    149    H    17.164    -5.376    7.489
    150    O    17.767    -4.772    5.630
    151    H    18.369    -5.520    5.510
    152    C    16.019    -6.455    5.960
    153    H    15.407    -6.940    6.750
    154    O    16.860    -7.389    5.278
    155    P    17.996    -8.193    6.001
    156    O    19.282    -7.790    5.398
    157    O    17.615    -9.622    5.939
    158    O    17.971    -7.756    7.512
    159    C    19.108    -7.105    8.133
    160    H    19.516    -6.297    7.478
    161    H    19.924    -7.844    8.297
    162    C    18.785    -6.450    9.500
    163    H    19.344    -5.491    9.599
    164    O    17.365    -6.149    9.611
    165    C    16.870    -6.497    10.878
    166    H    16.377    -5.579    11.259
    167    N    15.823    -7.527    10.869
    168    C    15.411    -8.062    9.677
    169    H    15.949    -7.733    8.785
    170    C    14.416    -8.953    9.627
    171    H    14.084    -9.398    8.694
    172    C    15.161    -7.856    12.056
    173    O    15.478    -7.293    13.110
    174    N    14.169    -8.772    12.025
    175    C    13.796    -9.319    10.858
    176    N    12.821    -10.221    10.861
    177    H    12.399    -10.466    11.736
    178    H    12.468    -10.626    10.017
    179    C    18.046    -6.833    11.728
    180    H    17.851    -7.592    12.514
    181    O    18.449    -5.634    12.305
    182    H    18.961    -5.152    11.650
    183    C    19.091    -7.312    10.730
    184    H    18.893    -8.369    10.441
    185    O    20.469    -7.118    11.126
    186    P    20.991    -7.614    12.537
    187    O    22.437    -7.887    12.410
    188    O    20.154    -8.740    13.010
    189    O    20.834    -6.383    13.522
    190    C    21.256    -5.066    13.092
    191    H    20.739    -4.737    12.161
    192    H    22.347    -5.078    12.860
    193    C    21.032    -3.977    14.164
    194    H    21.667    -3.132    13.836
    195    O    19.653    -3.486    14.185
    196    C    19.146    -3.479    15.528
    197    H    19.332    -2.464    15.925
    198    N    17.677    -3.750    15.619
    199    C    17.058    -4.288    14.541
    200    H    17.673    -4.335    13.673
    201    C    15.769    -4.619    14.530
    202    H    15.289    -5.043    13.652
    203    C    16.925    -3.487    16.760
    204    O    17.487    -2.976    17.740
    205    N    15.596    -3.794    16.784
    206    C    15.021    -4.356    15.700
    207    N    13.725    -4.661    15.710
    208    H    13.280    -5.059    14.906
    209    H    13.167    -4.432    16.505
    210    C    19.979    -4.502    16.281
    211    H    19.598    -5.524    16.053
    212    O    20.019    -4.299    17.687
    213    H    19.237    -3.780    17.940
    214    C    21.363    -4.338    15.627
    215    H    21.853    -5.336    15.621
    216    O    22.260    -3.405    16.255
    217    P    22.110    -1.859    16.486
    218    O    23.406    -1.358    17.011
    219    O    20.932    -1.549    17.311
    220    O    21.867    -1.200    15.075
    221    C    22.903    -0.483    14.371
    222    H    23.855    -1.064    14.367
    223    H    23.107    0.482    14.894
    224    C    22.561    -0.141    12.900
    225    H    23.466    -0.229    12.263
    226    O    21.552    -1.032    12.337
    227    C    20.636    -0.271    11.569
    228    H    20.587    -0.759    10.567
    229    N    19.300    -0.272    12.170
    230    C    17.123    -0.135    12.455
    231    N    17.641    -0.614    13.650
    232    C    18.934    -0.682    13.429
    233    H    19.681    -1.041    14.140
    234    N    15.624    0.381    10.701
    235    C    16.704    0.580    9.943
    236    H    16.502    0.881    8.909
    237    N    17.995    0.462    10.257
    238    C    18.136    0.081    11.536
    239    C    15.799    0.048    12.005
    240    N    14.728    -0.117    12.801
    241    H    14.806    -0.314    13.780
    242    H    13.817    0.059    12.428
    243    C    21.187    1.129    11.427
    244    H    20.387    1.895    11.382
    245    O    21.994    1.214    10.268
    246    H    22.212    2.150    10.120
    247    C    21.998    1.270    12.710
    248    H    21.324    1.451    13.578
    249    O    23.092    2.202    12.644
    250    P    22.921    3.712    13.018
    251    O    24.246    4.252    13.384
    252    O    21.847    3.850    14.026
    253    O    22.457    4.376    11.675
    254    C    23.323    4.420    10.522
    255    H    23.811    3.433    10.341
    256    H    24.130    5.172    10.673
    257    C    22.536    4.794    9.262
    258    H    23.196    4.810    8.370
    259    O    21.525    3.777    9.023
    260    C    20.336    4.392    8.574
    261    H    20.082    3.910    7.600
    262    N    19.240    4.184    9.517
    263    C    17.262    3.827    10.396
    264    N    18.136    3.961    11.464
    265    C    19.292    4.170    10.889
    266    H    20.226    4.319    11.425
    267    N    15.321    3.488    9.101
    268    C    16.090    3.649    8.022
    269    H    15.575    3.564    7.057
    270    N    17.404    3.877    7.958
    271    C    17.931    3.958    9.191
    272    C    15.878    3.585    10.334
    273    N    15.110    3.428    11.428
    274    H    15.513    3.344    12.344
    275    H    14.152    3.146    11.312
    276    C    20.624    5.858    8.345
    277    H    19.752    6.510    8.571
    278    O    21.034    6.055    7.011
    279    H    20.898    7.006    6.843
    280    C    21.775    6.129    9.311
    281    H    21.396    6.244    10.350
    282    O    22.665    7.209    8.932
    283    P    22.226    8.704    9.136
    284    O    23.386    9.577    8.852
    285    O    21.602    8.848    10.468
    286    O    21.126    8.956    8.044
    287    C    21.441    9.103    6.641
    288    H    22.142    8.305    6.300
    289    H    21.947    10.081    6.467
    290    C    20.170    9.048    5.759
    291    H    20.425    8.830    4.700
    292    O    19.263    8.006    6.214
    293    C    17.922    8.459    6.164
    294    H    17.376    7.740    5.513
    295    N    17.301    8.463    7.505
    296    C    15.970    8.283    7.805
    297    N    12.704    7.700    6.807
    298    H    12.781    7.640    5.817
    299    H    11.798    7.670    7.237
    300    N    14.977    8.081    6.920
    301    C    13.788    7.951    7.517
    302    N    13.611    8.026    8.875
    303    H    12.683    7.913    9.252
    304    C    14.620    8.219    9.810
    305    O    14.394    8.265    11.025
    306    C    15.888    8.355    9.184
    307    N    17.138    8.573    9.745
    308    C    17.942    8.638    8.713
    309    H    19.015    8.800    8.776
    310    C    17.923    9.825    5.510
    311    H    17.159    10.502    5.947
    312    O    17.698    9.701    4.122
    313    H    17.696    10.606    3.779
    314    C    19.339    10.332    5.795
    315    H    19.406    10.720    6.836
    316    O    19.872    11.256    4.824
    317    P    19.635    12.799    4.936
    318    O    20.422    13.477    3.883
    319    O    19.884    13.226    6.328
    320    O    18.104    12.974    4.609
    321    C    17.612    12.887    3.250
    322    H    17.922    11.937    2.759
    323    H    18.019    13.718    2.633
    324    C    16.078    12.985    3.198
    325    H    15.700    12.823    2.165
    326    O    15.480    11.974    4.055
    327    C    14.359    12.524    4.734
    328    H    13.486    11.883    4.467
    329    N    14.550    12.495    6.196
    330    C    13.578    12.364    7.159
    331    N    10.256    11.976    8.085
    332    H    9.773    12.009    7.210
    333    H    9.721    11.949    8.932
    334    N    12.253    12.247    6.945
    335    C    11.568    12.105    8.085
    336    N    12.158    12.107    9.320
    337    H    11.563    12.019    10.129
    338    C    13.515    12.251    9.572
    339    O    13.958    12.260    10.726
    340    C    14.255    12.382    8.367
    341    N    15.620    12.526    8.170
    342    C    15.747    12.592    6.869
    343    H    16.693    12.701    6.343
    344    C    14.125    13.933    4.204
    345    H    13.799    14.629    5.009
    346    O    13.155    13.915    3.169
    347    H    13.151    14.777    2.717
    348    C    15.512    14.321    3.696
    349    H    16.150    14.665    4.540
    350    O    15.506    15.291    2.631
    351    H    15.156    16.137    2.960
 $END
