!*** FMO 5.3 (Gamess) INPUT generated by Facio 22.1.1.32 ***
 $CONTRL RUNTYP=ENERGY NPRINT=-5 ISPHER=1 MAXIT=200 $END
 $SYSTEM MWORDS=63 MEMDDI=63 $END
 $GDDI NGROUP=1 $END
 $SCF DIRSCF=.TRUE. NPUNCH=0 $END
!*** NumCPU : 2  MemPerNode : 512MB
 $PCM SOLVNT=WATER IEF=-10 ICOMP=2 ICAV=1 IDISP=1 IFMO=-1 $END
 $PCMCAV RADII=SUAHF $END
 $TESCAV NTSALL=60 $END
 $FMOPRP
    NAODIR=200
    NGRFMO(1)=1, 1, 0, 0, 0,   0, 0, 0, 0, 0
    IPIEDA=1
    NPRINT=9
 $END
 $FMO
      SCFTYP(1)=RHF
      MODGRD=10
      MODMUL=0
      MAXCAO=5
      MAXBND=13
      NLAYER=1
      MPLEVL(1)=2
      NFRAG=11
      ICHARG(1)=-1, -1, -1, -1, -1, -1, -1, -1, -1, -1, 0
      FRGNAM(1)=F1, F2, F3, F4, F5, F6, F7, F8, F9, F10, F11
      indat(1)=0
               1   -35   0
               36   -66   0
               67   -97   0
               98   -127   0
               128   -157   0
               158   -188   0
               189   -219   0
               220   -250   0
               251   -284   0
               285   -318   0
               319   -345   0
 $END

 $FMOBND
   -36   35       6-31G*    MINI
   -67   66       6-31G*    MINI
   -98   97       6-31G*    MINI
   -128   127       6-31G*    MINI
   -158   157       6-31G*    MINI
   -189   188       6-31G*    MINI
   -220   219       6-31G*    MINI
   -251   250       6-31G*    MINI
   -285   284       6-31G*    MINI
   -319   318       6-31G*    MINI
 $END
 $FMOHYB
 6-31G*      15   5
   1 0  -0.065034   0.288264   0.000000   0.000000   0.604412
         0.290129   0.000000   0.000000   0.319045  -0.017106
        -0.017106   0.057934   0.000000   0.000000   0.000000
   0 1  -0.065040   0.288293   0.569832   0.000000  -0.201456
         0.290147   0.300783   0.000000  -0.106342   0.049598
        -0.017106  -0.008771   0.000000  -0.027223   0.000000
   0 1  -0.065039   0.288293  -0.284916  -0.493490  -0.201455
         0.290145  -0.150392  -0.260486  -0.106340  -0.000427
         0.032923  -0.008771   0.033353   0.013612   0.023576
   0 1  -0.065039   0.288293  -0.284916   0.493490  -0.201455
         0.290145  -0.150392   0.260486  -0.106340  -0.000427
         0.032923  -0.008771  -0.033353   0.013612  -0.023576
   0 1   1.010938  -0.011975   0.000000   0.000000   0.000000
        -0.054085   0.000000   0.000000  -0.000000  -0.003174
        -0.003174  -0.003174   0.000000   0.000000   0.000000
 MINI         5   5
   1 0  -0.104883   0.308874   0.000000   0.000000   0.521806
   0 1  -0.104883   0.308874   0.491961   0.000000  -0.173934
   0 1  -0.104883   0.308876  -0.245980  -0.426050  -0.173933
   0 1  -0.104883   0.308876  -0.245980   0.426050  -0.173933
   0 1   0.988209   0.063992   0.000000   0.000000   0.000000
 $END
 
 $DATA
 FMO calculation
 C1 
 H.1-1    1
      N31 6
   
 O.1-1    8
      N31 6
      d 1
      1 0.800 1.0
   
 C.1-1    6
      N31 6
      d 1
      1 0.800 1.0
   
 N.1-1    7
      N31 6
      d 1
      1 0.800 1.0
   
 P.1-1   15
      N31 6
      d 1
      1 0.550 1.0
   
 $END
 $FMOXYZ
    1    H    11.951    -5.094    13.181
    2    O    11.194    -4.956    12.582
    3    C    10.159    -4.328    13.355
    4    H    10.566    -3.419    13.854
    5    H    9.827    -5.031    14.149
    6    C    8.939    -3.930    12.518
    7    H    8.130    -3.516    13.160
    8    O    9.319    -2.894    11.561
    9    C    8.628    -3.109    10.340
    10    H    8.068    -2.171    10.117
    11    N    9.562    -3.385    9.237
    12    C    10.470    -3.601    7.242
    13    N    11.471    -3.895    8.157
    14    C    10.888    -3.743    9.325
    15    H    11.371    -3.887    10.296
    16    N    9.298    -3.190    5.224
    17    C    8.223    -2.958    5.989
    18    H    7.305    -2.694    5.450
    19    N    8.116    -2.976    7.323
    20    C    9.288    -3.293    7.894
    21    C    10.465    -3.524    5.831
    22    N    11.552    -3.755    5.071
    23    H    12.435    -4.007    5.476
    24    H    11.489    -3.744    4.070
    25    C    7.649    -4.239    10.568
    26    H    7.474    -4.842    9.655
    27    O    6.421    -3.721    11.038
    28    H    5.850    -4.483    11.193
    29    C    8.355    -5.050    11.649
    30    H    9.221    -5.597    11.213
    31    O    7.500    -5.895    12.452
    32    P    7.265    -7.390    12.015
    33    O    8.569    -7.995    11.678
    34    O    6.469    -8.073    13.058
    35    O    6.415    -7.256    10.703
    36    C    5.045    -6.798    10.734
    37    H    4.951    -5.825    11.260
    38    H    4.405    -7.534    11.269
    39    C    4.484    -6.614    9.318
    40    H    3.450    -6.208    9.353
    41    O    5.297    -5.661    8.576
    42    C    5.367    -6.064    7.213
    43    H    4.962    -5.208    6.621
    44    N    6.760    -6.352    6.764
    45    C    7.738    -6.643    7.686
    46    H    7.423    -6.642    8.729
    47    C    9.004    -6.871    7.315
    48    H    9.794    -7.069    8.036
    49    C    7.069    -6.370    5.407
    50    O    6.171    -6.161    4.579
    51    N    8.339    -6.613    5.012
    52    C    9.302    -6.832    5.924
    53    N    10.554    -7.016    5.508
    54    H    10.753    -6.966    4.527
    55    H    11.314    -7.189    6.139
    56    C    4.444    -7.254    7.047
    57    H    4.801    -7.967    6.279
    58    O    3.143    -6.815    6.716
    59    H    2.584    -7.603    6.724
    60    C    4.477    -7.869    8.439
    61    H    5.448    -8.377    8.618
    62    O    3.337    -8.689    8.767
    63    P    3.370    -10.234    8.480
    64    O    4.691    -10.764    8.873
    65    O    2.180    -10.847    9.108
    66    O    3.254    -10.349    6.919
    67    C    2.071    -9.993    6.177
    68    H    1.718    -8.967    6.432
    69    H    1.245    -10.700    6.416
    70    C    2.337    -10.055    4.663
    71    H    1.439    -9.757    4.083
    72    O    3.403    -9.125    4.309
    73    C    4.216    -9.697    3.290
    74    H    4.160    -8.985    2.434
    75    N    5.643    -9.844    3.695
    76    C    5.972    -9.947    5.025
    77    H    5.136    -9.923    5.725
    78    C    7.247    -10.042    5.425
    79    H    7.524    -10.100    6.476
    80    C    6.646    -9.913    2.731
    81    O    6.340    -9.859    1.530
    82    N    7.939    -10.016    3.113
    83    C    8.255    -10.069    4.419
    84    N    9.536    -10.163    4.768
    85    H    10.242    -10.156    4.055
    86    H    9.834    -10.243    5.724
    87    C    3.584    -11.010    2.874
    88    H    4.340    -11.772    2.608
    89    O    2.705    -10.804    1.784
    90    H    2.144    -11.590    1.717
    91    C    2.826    -11.414    4.135
    92    H    3.533    -11.810    4.899
    93    O    1.704    -12.289    3.893
    94    P    1.806    -13.839    4.146
    95    O    2.056    -14.069    5.580
    96    O    0.614    -14.488    3.563
    97    O    3.078    -14.279    3.353
    98    C    3.112    -14.393    1.918
    99    H    2.833    -13.434    1.430
    100    H    2.400    -15.176    1.573
    101    C    4.519    -14.766    1.438
    102    H    4.547    -14.880    0.331
    103    O    5.458    -13.702    1.792
    104    C    6.699    -14.262    2.168
    105    H    7.449    -13.810    1.477
    106    N    7.065    -13.937    3.585
    107    C    6.095    -13.635    4.513
    108    H    5.072    -13.669    4.147
    109    C    8.395    -13.940    3.947
    110    O    9.289    -14.244    3.166
    111    N    8.656    -13.569    5.240
    112    H    9.636    -13.514    5.493
    113    C    7.740    -13.195    6.197
    114    O    8.123    -12.830    7.305
    115    C    6.376    -13.270    5.772
    116    H    5.595    -12.998    6.479
    117    C    6.593    -15.750    1.892
    118    H    7.187    -16.340    2.603
    119    O    6.993    -16.014    0.560
    120    H    7.942    -15.852    0.476
    121    C    5.109    -16.023    2.082
    122    H    4.841    -15.989    3.162
    123    O    4.618    -17.213    1.413
    124    P    4.472    -18.559    2.227
    125    O    3.495    -18.335    3.313
    126    O    4.170    -19.683    1.309
    127    O    5.837    -18.838    2.934
    128    C    7.033    -19.266    2.261
    129    H    7.243    -18.599    1.396
    130    H    6.916    -20.292    1.854
    131    C    8.246    -19.235    3.218
    132    H    9.175    -19.501    2.670
    133    O    8.415    -17.874    3.725
    134    C    8.846    -17.903    5.071
    135    H    9.781    -17.295    5.098
    136    N    7.854    -17.289    5.997
    137    C    6.540    -17.109    5.625
    138    H    6.283    -17.461    4.630
    139    C    8.305    -16.840    7.218
    140    O    9.472    -16.959    7.578
    141    N    7.357    -16.234    7.999
    142    H    7.686    -15.874    8.884
    143    C    6.044    -15.976    7.672
    144    O    5.331    -15.338    8.442
    145    C    5.641    -16.480    6.395
    146    H    4.624    -16.296    6.057
    147    C    9.188    -19.342    5.385
    148    H    9.036    -19.606    6.453
    149    O    10.529    -19.566    4.988
    150    H    11.187    -19.132    5.567
    151    C    8.218    -20.113    4.481
    152    H    7.183    -20.059    4.886
    153    O    8.579    -21.484    4.154
    154    P    8.951    -22.495    5.312
    155    O    8.191    -22.127    6.529
    156    O    8.762    -23.875    4.808
    157    O    10.479    -22.257    5.561
    158    C    11.363    -23.016    6.396
    159    H    11.063    -24.083    6.449
    160    H    11.348    -22.603    7.427
    161    C    12.817    -22.941    5.904
    162    H    13.505    -23.406    6.642
    163    O    12.942    -23.713    4.672
    164    C    13.814    -23.028    3.780
    165    H    14.608    -23.761    3.509
    166    N    13.134    -22.564    2.533
    167    C    11.761    -22.466    2.490
    168    H    11.234    -22.724    3.407
    169    C    11.120    -22.090    1.378
    170    H    10.033    -22.047    1.324
    171    C    13.882    -22.224    1.406
    172    O    15.120    -22.309    1.456
    173    N    13.250    -21.845    0.269
    174    C    11.906    -21.787    0.231
    175    N    11.304    -21.454    -0.909
    176    H    11.867    -21.207    -1.695
    177    H    10.307    -21.423    -0.996
    178    C    14.447    -21.890    4.554
    179    H    14.673    -21.043    3.894
    180    O    15.636    -22.309    5.197
    181    H    15.914    -21.571    5.758
    182    C    13.356    -21.538    5.553
    183    H    12.534    -20.995    5.036
    184    O    13.815    -20.854    6.744
    185    P    13.968    -19.282    6.748
    186    O    12.784    -18.683    6.094
    187    O    14.234    -18.852    8.141
    188    O    15.270    -19.010    5.891
    189    C    15.440    -17.789    5.116
    190    H    16.185    -17.128    5.612
    191    H    14.494    -17.202    5.033
    192    C    15.925    -18.063    3.682
    193    H    16.936    -18.525    3.678
    194    O    15.014    -19.002    3.070
    195    C    14.732    -18.644    1.740
    196    H    14.952    -19.550    1.128
    197    N    13.319    -18.257    1.543
    198    C    12.549    -17.915    2.630
    199    H    13.008    -18.013    3.617
    200    C    11.286    -17.524    2.478
    201    H    10.670    -17.240    3.322
    202    C    12.780    -18.201    0.256
    203    O    13.498    -18.480    -0.716
    204    N    11.487    -17.848    0.096
    205    C    10.751    -17.524    1.165
    206    N    9.481    -17.231    0.990
    207    H    8.894    -17.252    1.804
    208    H    9.084    -17.418    0.090
    209    C    15.684    -17.541    1.378
    210    H    15.245    -16.832    0.646
    211    O    16.881    -18.106    0.874
    212    H    17.540    -17.405    0.920
    213    C    15.914    -16.859    2.723
    214    H    15.030    -16.241    3.004
    215    O    17.162    -16.132    2.808
    216    P    17.202    -14.605    2.428
    217    O    16.145    -13.927    3.206
    218    O    18.586    -14.122    2.608
    219    O    16.839    -14.518    0.904
    220    C    17.671    -15.032    -0.159
    221    H    17.999    -16.075    0.039
    222    H    18.593    -14.417    -0.258
    223    C    16.938    -15.018    -1.518
    224    H    17.552    -15.509    -2.303
    225    O    15.683    -15.747    -1.429
    226    C    14.683    -15.072    -2.172
    227    H    14.317    -15.817    -2.913
    228    N    13.534    -14.621    -1.342
    229    C    13.681    -14.452    0.015
    230    H    14.662    -14.691    0.420
    231    C    12.661    -14.051    0.783
    232    H    12.759    -13.921    1.858
    233    C    12.310    -14.339    -1.946
    234    O    12.194    -14.467    -3.175
    235    N    11.264    -13.961    -1.185
    236    C    11.421    -13.791    0.136
    237    N    10.370    -13.378    0.830
    238    H    9.519    -13.299    0.317
    239    H    10.319    -13.493    1.824
    240    C    15.349    -13.933    -2.914
    241    H    14.684    -13.053    -2.990
    242    O    15.747    -14.345    -4.209
    243    H    16.293    -13.633    -4.579
    244    C    16.545    -13.626    -2.021
    245    H    16.216    -13.054    -1.122
    246    O    17.668    -13.018    -2.695
    247    P    17.717    -11.456    -2.864
    248    O    17.235    -10.827    -1.614
    249    O    19.081    -11.101    -3.316
    250    O    16.718    -11.132    -4.040
    251    C    16.107    -9.812    -4.133
    252    H    16.642    -9.202    -4.895
    253    H    16.167    -9.238    -3.175
    254    C    14.617    -9.886    -4.515
    255    H    14.488    -10.146    -5.587
    256    O    13.988    -10.939    -3.734
    257    C    12.737    -10.519    -3.243
    258    H    12.004    -11.304    -3.538
    259    N    12.745    -10.411    -1.773
    260    C    11.639    -10.321    -0.965
    261    N    8.196    -10.179    -0.570
    262    H    7.861    -10.249    -1.510
    263    H    7.533    -10.094    0.179
    264    N    10.351    -10.300    -1.380
    265    C    9.500    -10.223    -0.361
    266    N    9.895    -10.178    0.949
    267    H    9.185    -10.152    1.663
    268    C    11.206    -10.208    1.403
    269    O    11.448    -10.169    2.614
    270    C    12.129    -10.280    0.327
    271    N    13.520    -10.338    0.336
    272    C    13.846    -10.414    -0.933
    273    H    14.867    -10.487    -1.320
    274    C    12.405    -9.216    -3.931
    275    H    11.784    -8.553    -3.296
    276    O    11.726    -9.467    -5.146
    277    H    11.626    -8.613    -5.585
    278    C    13.791    -8.629    -4.176
    279    H    14.208    -8.246    -3.216
    280    O    13.862    -7.665    -5.259
    281    P    13.733    -6.130    -4.901
    282    O    14.483    -5.890    -3.649
    283    O    14.133    -5.330    -6.082
    284    O    12.213    -5.900    -4.588
    285    C    11.189    -5.975    -5.597
    286    H    11.272    -6.910    -6.198
    287    H    11.268    -5.112    -6.296
    288    C    9.798    -5.910    -4.963
    289    H    9.003    -5.996    -5.733
    290    O    9.627    -7.017    -4.039
    291    C    8.878    -6.578    -2.917
    292    H    8.003    -7.263    -2.819
    293    N    9.681    -6.641    -1.690
    294    C    9.207    -6.647    -0.409
    295    N    6.563    -6.504    1.828
    296    H    5.763    -6.426    1.234
    297    H    6.440    -6.451    2.823
    298    N    7.913    -6.584    -0.045
    299    C    7.758    -6.604    1.277
    300    N    8.807    -6.719    2.150
    301    H    8.607    -6.734    3.138
    302    C    10.146    -6.804    1.803
    303    O    11.025    -6.912    2.662
    304    C    10.322    -6.740    0.399
    305    N    11.483    -6.761    -0.361
    306    C    11.054    -6.699    -1.595
    307    H    11.687    -6.699    -2.482
    308    C    8.404    -5.172    -3.212
    309    H    8.299    -4.558    -2.296
    310    O    7.166    -5.212    -3.895
    311    H    6.955    -4.303    -4.138
    312    C    9.523    -4.659    -4.111
    313    H    10.446    -4.460    -3.513
    314    O    9.158    -3.557    -4.967
    315    P    9.493    -2.081    -4.546
    316    O    10.862    -1.997    -3.985
    317    O    9.200    -1.185    -5.685
    318    O    8.475    -1.800    -3.381
    319    C    7.054    -1.730    -3.624
    320    H    6.671    -2.642    -4.138
    321    H    6.823    -0.865    -4.284
    322    C    6.273    -1.551    -2.315
    323    H    5.186    -1.431    -2.523
    324    O    6.430    -2.734    -1.478
    325    C    6.516    -2.339    -0.113
    326    H    5.694    -2.882    0.413
    327    N    7.834    -2.701    0.484
    328    C    8.935    -2.931    -0.312
    329    H    8.764    -2.837    -1.381
    330    C    7.935    -2.767    1.855
    331    O    6.993    -2.518    2.600
    332    N    9.170    -3.134    2.327
    333    H    9.250    -3.172    3.337
    334    C    10.303    -3.412    1.589
    335    O    11.342    -3.749    2.155
    336    C    10.130    -3.289    0.175
    337    H    10.970    -3.510    -0.480
    338    C    6.246    -0.842    -0.057
    339    H    6.832    -0.349    0.748
    340    O    4.859    -0.600    0.140
    341    H    4.680    0.349    0.021
    342    C    6.732    -0.389    -1.428
    343    H    7.842    -0.353    -1.448
    344    O    6.169    0.859    -1.876
    345    H    6.488    1.584    -1.305
 $END
