!*** FMO 5.3 (Gamess) INPUT generated by Facio 22.1.1.32 ***
 $CONTRL RUNTYP=ENERGY NPRINT=-5 ISPHER=1 MAXIT=200 $END
 $SYSTEM MWORDS=63 MEMDDI=63 $END
 $GDDI NGROUP=1 $END
 $SCF DIRSCF=.TRUE. NPUNCH=0 $END
!*** NumCPU : 2  MemPerNode : 512MB
 $PCM SOLVNT=WATER IEF=-10 ICOMP=2 ICAV=1 IDISP=1 IFMO=-1 $END
 $PCMCAV RADII=SUAHF $END
 $TESCAV NTSALL=60 $END
 $FMOPRP
    NAODIR=200
    NGRFMO(1)=1, 1, 0, 0, 0,   0, 0, 0, 0, 0
    IPIEDA=1
    NPRINT=9
 $END
 $FMO
      SCFTYP(1)=RHF
      MODGRD=10
      MODMUL=0
      MAXCAO=5
      MAXBND=13
      NLAYER=1
      MPLEVL(1)=2
      NFRAG=11
      ICHARG(1)=-1, -1, -1, -1, -1, -1, -1, -1, -1, -1, 0
      FRGNAM(1)=F1, F2, F3, F4, F5, F6, F7, F8, F9, F10, F11
      indat(1)=0
               1   -35   0
               36   -66   0
               67   -97   0
               98   -127   0
               128   -157   0
               158   -188   0
               189   -219   0
               220   -250   0
               251   -284   0
               285   -318   0
               319   -345   0
 $END

 $FMOBND
   -36   35       6-31G*    MINI
   -67   66       6-31G*    MINI
   -98   97       6-31G*    MINI
   -128   127       6-31G*    MINI
   -158   157       6-31G*    MINI
   -189   188       6-31G*    MINI
   -220   219       6-31G*    MINI
   -251   250       6-31G*    MINI
   -285   284       6-31G*    MINI
   -319   318       6-31G*    MINI
 $END
 $FMOHYB
 6-31G*      15   5
   1 0  -0.065034   0.288264   0.000000   0.000000   0.604412
         0.290129   0.000000   0.000000   0.319045  -0.017106
        -0.017106   0.057934   0.000000   0.000000   0.000000
   0 1  -0.065040   0.288293   0.569832   0.000000  -0.201456
         0.290147   0.300783   0.000000  -0.106342   0.049598
        -0.017106  -0.008771   0.000000  -0.027223   0.000000
   0 1  -0.065039   0.288293  -0.284916  -0.493490  -0.201455
         0.290145  -0.150392  -0.260486  -0.106340  -0.000427
         0.032923  -0.008771   0.033353   0.013612   0.023576
   0 1  -0.065039   0.288293  -0.284916   0.493490  -0.201455
         0.290145  -0.150392   0.260486  -0.106340  -0.000427
         0.032923  -0.008771  -0.033353   0.013612  -0.023576
   0 1   1.010938  -0.011975   0.000000   0.000000   0.000000
        -0.054085   0.000000   0.000000  -0.000000  -0.003174
        -0.003174  -0.003174   0.000000   0.000000   0.000000
 MINI         5   5
   1 0  -0.104883   0.308874   0.000000   0.000000   0.521806
   0 1  -0.104883   0.308874   0.491961   0.000000  -0.173934
   0 1  -0.104883   0.308876  -0.245980  -0.426050  -0.173933
   0 1  -0.104883   0.308876  -0.245980   0.426050  -0.173933
   0 1   0.988209   0.063992   0.000000   0.000000   0.000000
 $END
 
 $DATA
 FMO calculation
 C1 
 H.1-1    1
      N31 6
   
 O.1-1    8
      N31 6
      d 1
      1 0.800 1.0
   
 C.1-1    6
      N31 6
      d 1
      1 0.800 1.0
   
 N.1-1    7
      N31 6
      d 1
      1 0.800 1.0
   
 P.1-1   15
      N31 6
      d 1
      1 0.550 1.0
   
 $END
 $FMOXYZ
    1    H    12.294    -3.586    12.625
    2    O    11.516    -3.461    12.051
    3    C    10.629    -2.572    12.745
    4    H    11.184    -1.659    13.056
    5    H    10.255    -3.070    13.669
    6    C    9.428    -2.147    11.898
    7    H    8.736    -1.510    12.486
    8    O    9.873    -1.360    10.755
    9    C    9.066    -1.677    9.632
    10    H    8.634    -0.718    9.259
    11    N    9.869    -2.275    8.563
    12    C    10.600    -2.955    6.604
    13    N    11.608    -3.245    7.514
    14    C    11.129    -2.819    8.660
    15    H    11.654    -2.862    9.620
    16    N    9.337    -2.779    4.609
    17    C    8.370    -2.240    5.361
    18    H    7.458    -1.955    4.824
    19    N    8.367    -1.975    6.673
    20    C    9.521    -2.366    7.239
    21    C    10.497    -3.146    5.210
    22    N    11.493    -3.652    4.458
    23    H    12.377    -3.908    4.856
    24    H    11.365    -3.801    3.474
    25    C    7.954    -2.587    10.111
    26    H    7.627    -3.306    9.333
    27    O    6.852    -1.805    10.533
    28    H    6.189    -2.420    10.870
    29    C    8.622    -3.300    11.285
    30    H    9.359    -4.049    10.914
    31    O    7.723    -3.845    12.278
    32    P    7.233    -5.336    12.142
    33    O    8.392    -6.212    11.872
    34    O    6.402    -5.675    13.319
    35    O    6.332    -5.314    10.856
    36    C    5.052    -4.642    10.844
    37    H    5.142    -3.584    11.177
    38    H    4.345    -5.147    11.540
    39    C    4.425    -4.661    9.439
    40    H    3.465    -4.101    9.427
    41    O    5.310    -4.017    8.478
    42    C    5.229    -4.702    7.232
    43    H    4.898    -3.935    6.493
    44    N    6.537    -5.263    6.791
    45    C    7.541    -5.477    7.707
    46    H    7.304    -5.228    8.742
    47    C    8.737    -5.952    7.334
    48    H    9.550    -6.104    8.042
    49    C    6.741    -5.601    5.455
    50    O    5.821    -5.441    4.640
    51    N    7.938    -6.097    5.065
    52    C    8.931    -6.254    5.957
    53    N    10.110    -6.704    5.536
    54    H    10.247    -6.869    4.556
    55    H    10.883    -6.847    6.157
    56    C    4.149    -5.764    7.359
    57    H    4.368    -6.677    6.765
    58    O    2.903    -5.225    6.967
    59    H    2.228    -5.886    7.184
    60    C    4.173    -6.057    8.856
    61    H    5.066    -6.671    9.117
    62    O    2.944    -6.598    9.394
    63    P    2.680    -8.148    9.289
    64    O    3.974    -8.850    9.415
    65    O    1.617    -8.505    10.255
    66    O    2.114    -8.346    7.833
    67    C    2.072    -9.675    7.246
    68    H    1.143    -10.204    7.558
    69    H    2.937    -10.301    7.578
    70    C    2.115    -9.638    5.704
    71    H    1.134    -9.313    5.290
    72    O    3.102    -8.661    5.258
    73    C    3.854    -9.189    4.179
    74    H    3.779    -8.427    3.368
    75    N    5.293    -9.381    4.522
    76    C    5.718    -9.304    5.834
    77    H    4.945    -9.121    6.587
    78    C    7.012    -9.439    6.153
    79    H    7.369    -9.374    7.179
    80    C    6.224    -9.602    3.509
    81    O    5.843    -9.653    2.330
    82    N    7.532    -9.749    3.817
    83    C    7.939    -9.662    5.094
    84    N    9.236    -9.796    5.364
    85    H    9.885    -9.947    4.613
    86    H    9.601    -9.718    6.298
    87    C    3.167    -10.466    3.727
    88    H    3.881    -11.211    3.320
    89    O    2.178    -10.175    2.753
    90    H    1.662    -10.985    2.616
    91    C    2.549    -10.957    5.028
    92    H    3.346    -11.390    5.677
    93    O    1.413    -11.837    4.857
    94    P    1.631    -13.400    4.893
    95    O    2.572    -13.705    5.994
    96    O    0.310    -14.062    4.943
    97    O    2.308    -13.727    3.510
    98    C    3.138    -14.907    3.354
    99    H    2.549    -15.707    2.857
    100    H    3.481    -15.323    4.334
    101    C    4.412    -14.640    2.529
    102    H    4.181    -14.569    1.444
    103    O    4.985    -13.358    2.936
    104    C    6.381    -13.466    3.070
    105    H    6.797    -12.617    2.480
    106    N    6.824    -13.342    4.487
    107    C    5.927    -13.449    5.532
    108    H    4.890    -13.656    5.252
    109    C    8.145    -13.032    4.728
    110    O    8.959    -12.868    3.826
    111    N    8.482    -12.894    6.047
    112    H    9.443    -12.660    6.238
    113    C    7.641    -12.957    7.134
    114    O    8.077    -12.747    8.264
    115    C    6.280    -13.258    6.811
    116    H    5.559    -13.320    7.625
    117    C    6.771    -14.783    2.431
    118    H    7.698    -15.225    2.856
    119    O    6.903    -14.589    1.031
    120    H    7.248    -13.713    0.831
    121    C    5.558    -15.655    2.749
    122    H    5.578    -15.932    3.827
    123    O    5.420    -16.800    1.874
    124    P    4.785    -18.150    2.379
    125    O    3.781    -17.848    3.422
    126    O    4.301    -18.906    1.200
    127    O    5.974    -18.943    3.044
    128    C    5.656    -19.919    4.078
    129    H    4.593    -20.278    4.038
    130    H    5.792    -19.455    5.076
    131    C    6.581    -21.147    4.008
    132    H    6.384    -21.834    4.863
    133    O    6.293    -21.894    2.791
    134    C    7.501    -22.375    2.214
    135    H    7.380    -23.482    2.118
    136    N    7.758    -21.784    0.866
    137    C    6.944    -20.793    0.353
    138    H    6.175    -20.412    1.027
    139    C    8.763    -22.332    0.095
    140    O    9.453    -23.273    0.474
    141    N    8.915    -21.770    -1.145
    142    H    9.643    -22.165    -1.720
    143    C    8.115    -20.822    -1.738
    144    O    8.326    -20.482    -2.901
    145    C    7.074    -20.317    -0.893
    146    H    6.412    -19.546    -1.279
    147    C    8.619    -22.089    3.203
    148    H    9.576    -21.861    2.697
    149    O    8.796    -23.187    4.082
    150    H    9.331    -22.876    4.830
    151    C    8.092    -20.862    3.931
    152    H    8.215    -19.962    3.287
    153    O    8.650    -20.697    5.248
    154    P    9.583    -19.498    5.638
    155    O    8.790    -18.253    5.625
    156    O    10.252    -19.837    6.912
    157    O    10.665    -19.435    4.495
    158    C    11.668    -20.472    4.370
    159    H    11.220    -21.492    4.433
    160    H    12.410    -20.369    5.195
    161    C    12.431    -20.365    3.039
    162    H    13.279    -21.078    2.998
    163    O    11.545    -20.688    1.932
    164    C    11.780    -19.792    0.852
    165    H    12.019    -20.450    -0.015
    166    N    10.592    -18.970    0.509
    167    C    9.704    -18.629    1.494
    168    H    9.914    -19.031    2.477
    169    C    8.608    -17.910    1.231
    170    H    7.871    -17.681    1.997
    171    C    10.399    -18.500    -0.787
    172    O    11.242    -18.766    -1.658
    173    N    9.281    -17.800    -1.081
    174    C    8.391    -17.517    -0.120
    175    N    7.265    -16.909    -0.451
    176    H    6.709    -16.506    0.286
    177    H    7.169    -16.536    -1.372
    178    C    13.000    -18.965    1.196
    179    H    12.933    -17.931    0.805
    180    O    14.165    -19.596    0.699
    181    H    14.920    -19.063    0.983
    182    C    12.962    -18.964    2.720
    183    H    12.169    -18.246    3.060
    184    O    14.259    -18.769    3.350
    185    P    14.415    -17.525    4.290
    186    O    13.498    -16.458    3.840
    187    O    14.314    -17.961    5.696
    188    O    15.886    -17.032    4.023
    189    C    16.281    -15.738    4.557
    190    H    15.736    -15.465    5.494
    191    H    16.056    -14.953    3.799
    192    C    17.786    -15.681    4.858
    193    H    18.123    -14.640    5.036
    194    O    18.078    -16.432    6.067
    195    C    19.285    -17.166    5.892
    196    H    19.950    -16.850    6.731
    197    N    19.063    -18.641    5.983
    198    C    17.804    -19.160    5.776
    199    H    17.014    -18.443    5.545
    200    C    17.567    -20.474    5.845
    201    H    16.585    -20.894    5.655
    202    C    20.119    -19.502    6.280
    203    O    21.249    -19.024    6.473
    204    N    19.899    -20.838    6.361
    205    C    18.660    -21.329    6.158
    206    N    18.460    -22.644    6.242
    207    H    19.232    -23.229    6.506
    208    H    17.561    -23.064    6.097
    209    C    19.908    -16.731    4.566
    210    H    20.431    -17.569    4.056
    211    O    20.811    -15.655    4.760
    212    H    21.057    -15.299    3.891
    213    C    18.668    -16.313    3.780
    214    H    18.150    -17.231    3.421
    215    O    18.873    -15.351    2.729
    216    P    19.281    -15.844    1.298
    217    O    20.469    -15.069    0.882
    218    O    19.427    -17.317    1.269
    219    O    18.074    -15.437    0.374
    220    C    16.760    -15.995    0.534
    221    H    16.138    -15.312    1.153
    222    H    16.780    -16.982    1.053
    223    C    16.106    -16.178    -0.839
    224    H    16.724    -16.807    -1.511
    225    O    14.853    -16.876    -0.633
    226    C    13.839    -16.302    -1.450
    227    H    13.408    -17.145    -2.041
    228    N    12.757    -15.666    -0.657
    229    C    12.973    -15.333    0.665
    230    H    13.944    -15.598    1.091
    231    C    12.015    -14.769    1.402
    232    H    12.157    -14.529    2.454
    233    C    11.532    -15.373    -1.258
    234    O    11.364    -15.651    -2.456
    235    N    10.557    -14.795    -0.522
    236    C    10.777    -14.508    0.767
    237    N    9.790    -13.976    1.453
    238    H    9.844    -13.767    2.433
    239    H    8.919    -13.928    0.983
    240    C    14.508    -15.324    -2.391
    241    H    13.854    -14.462    -2.624
    242    O    14.882    -15.963    -3.598
    243    H    15.461    -15.351    -4.078
    244    C    15.717    -14.882    -1.572
    245    H    15.401    -14.166    -0.779
    246    O    16.830    -14.395    -2.358
    247    P    16.891    -12.857    -2.706
    248    O    16.618    -12.062    -1.488
    249    O    18.163    -12.590    -3.408
    250    O    15.730    -12.625    -3.745
    251    C    15.121    -11.311    -3.891
    252    H    15.566    -10.780    -4.763
    253    H    15.280    -10.658    -2.999
    254    C    13.599    -11.414    -4.095
    255    H    13.358    -11.859    -5.081
    256    O    13.044    -12.292    -3.077
    257    C    11.832    -11.770    -2.579
    258    H    11.075    -12.584    -2.675
    259    N    11.965    -11.394    -1.162
    260    C    10.941    -11.089    -0.304
    261    N    7.563    -10.677    0.331
    262    H    7.151    -10.850    -0.563
    263    H    6.975    -10.342    1.072
    264    N    9.628    -11.066    -0.611
    265    C    8.877    -10.745    0.439
    266    N    9.386    -10.480    1.681
    267    H    8.741    -10.282    2.429
    268    C    10.729    -10.505    2.029
    269    O    11.097    -10.250    3.180
    270    C    11.546    -10.835    0.915
    271    N    12.926    -10.970    0.826
    272    C    13.133    -11.306    -0.427
    273    H    14.109    -11.510    -0.878
    274    C    11.449    -10.605    -3.463
    275    H    10.884    -9.821    -2.919
    276    O    10.679    -11.065    -4.555
    277    H    10.585    -10.325    -5.169
    278    C    12.811    -10.102    -3.925
    279    H    13.312    -9.555    -3.092
    280    O    12.779    -9.364    -5.174
    281    P    12.775    -7.790    -5.118
    282    O    13.688    -7.365    -4.038
    283    O    13.040    -7.259    -6.470
    284    O    11.307    -7.420    -4.698
    285    C    10.212    -7.558    -5.631
    286    H    10.156    -8.600    -6.027
    287    H    10.342    -6.866    -6.497
    288    C    8.874    -7.226    -4.953
    289    H    8.024    -7.358    -5.659
    290    O    8.662    -8.137    -3.835
    291    C    8.051    -7.437    -2.760
    292    H    7.118    -7.992    -2.503
    293    N    8.927    -7.391    -1.579
    294    C    8.538    -7.126    -0.294
    295    N    6.062    -6.331    1.995
    296    H    5.246    -6.253    1.424
    297    H    5.998    -6.094    2.969
    298    N    7.287    -6.849    0.109
    299    C    7.209    -6.647    1.423
    300    N    8.290    -6.740    2.258
    301    H    8.145    -6.583    3.244
    302    C    9.588    -7.051    1.875
    303    O    10.499    -7.132    2.703
    304    C    9.685    -7.227    0.469
    305    N    10.786    -7.517    -0.327
    306    C    10.289    -7.600    -1.537
    307    H    10.860    -7.816    -2.441
    308    C    7.697    -6.053    -3.261
    309    H    7.741    -5.286    -2.463
    310    O    6.401    -6.068    -3.825
    311    H    6.252    -5.199    -4.220
    312    C    8.774    -5.830    -4.316
    313    H    9.758    -5.651    -3.822
    314    O    8.441    -4.842    -5.317
    315    P    9.042    -3.392    -5.183
    316    O    10.435    -3.480    -4.693
    317    O    8.841    -2.680    -6.466
    318    O    8.157    -2.740    -4.057
    319    C    6.740    -2.529    -4.249
    320    H    6.220    -3.463    -4.560
    321    H    6.572    -1.768    -5.047
    322    C    6.075    -2.011    -2.966
    323    H    5.006    -1.765    -3.144
    324    O    6.112    -3.037    -1.930
    325    C    6.352    -2.419    -0.669
    326    H    5.507    -2.728    -0.010
    327    N    7.646    -2.862    -0.074
    328    C    8.630    -3.416    -0.859
    329    H    8.402    -3.472    -1.921
    330    C    7.827    -2.719    1.283
    331    O    6.976    -2.230    2.017
    332    N    9.035    -3.166    1.755
    333    H    9.180    -3.042    2.752
    334    C    10.064    -3.725    1.029
    335    O    11.103    -4.061    1.592
    336    C    9.789    -3.867    -0.368
    337    H    10.546    -4.313    -1.008
    338    C    6.294    -0.912    -0.882
    339    H    6.984    -0.373    -0.198
    340    O    4.966    -0.443    -0.691
    341    H    4.913    0.474    -1.007
    342    C    6.758    -0.792    -2.329
    343    H    7.861    -0.927    -2.398
    344    O    6.351    0.422    -2.985
    345    H    6.812    1.179    -2.587
 $END
