!*** FMO 5.3 (Gamess) INPUT generated by Facio 22.1.1.32 ***
 $CONTRL RUNTYP=ENERGY NPRINT=-5 ISPHER=1 MAXIT=200 $END
 $SYSTEM MWORDS=63 MEMDDI=63 $END
 $GDDI NGROUP=1 $END
 $SCF DIRSCF=.TRUE. NPUNCH=0 $END
!*** NumCPU : 2  MemPerNode : 512MB
 $PCM SOLVNT=WATER IEF=-10 ICOMP=2 ICAV=1 IDISP=1 IFMO=-1 $END
 $PCMCAV RADII=SUAHF $END
 $TESCAV NTSALL=60 $END
 $FMOPRP
    NAODIR=200
    NGRFMO(1)=1, 1, 0, 0, 0,   0, 0, 0, 0, 0
    IPIEDA=1
    NPRINT=9
 $END
 $FMO
      SCFTYP(1)=RHF
      MODGRD=10
      MODMUL=0
      MAXCAO=5
      MAXBND=13
      NLAYER=1
      MPLEVL(1)=2
      NFRAG=11
      ICHARG(1)=-1, -1, -1, -1, -1, -1, -1, -1, -1, -1, 0
      FRGNAM(1)=F1, F2, F3, F4, F5, F6, F7, F8, F9, F10, F11
      indat(1)=0
               1   -35   0
               36   -66   0
               67   -97   0
               98   -127   0
               128   -157   0
               158   -188   0
               189   -219   0
               220   -252   0
               253   -285   0
               286   -319   0
               320   -346   0
 $END

 $FMOBND
   -36   35       6-31G*    MINI
   -67   66       6-31G*    MINI
   -98   97       6-31G*    MINI
   -128   127       6-31G*    MINI
   -158   157       6-31G*    MINI
   -189   188       6-31G*    MINI
   -220   219       6-31G*    MINI
   -253   252       6-31G*    MINI
   -286   285       6-31G*    MINI
   -320   319       6-31G*    MINI
 $END
 $FMOHYB
 6-31G*      15   5
   1 0  -0.065034   0.288264   0.000000   0.000000   0.604412
         0.290129   0.000000   0.000000   0.319045  -0.017106
        -0.017106   0.057934   0.000000   0.000000   0.000000
   0 1  -0.065040   0.288293   0.569832   0.000000  -0.201456
         0.290147   0.300783   0.000000  -0.106342   0.049598
        -0.017106  -0.008771   0.000000  -0.027223   0.000000
   0 1  -0.065039   0.288293  -0.284916  -0.493490  -0.201455
         0.290145  -0.150392  -0.260486  -0.106340  -0.000427
         0.032923  -0.008771   0.033353   0.013612   0.023576
   0 1  -0.065039   0.288293  -0.284916   0.493490  -0.201455
         0.290145  -0.150392   0.260486  -0.106340  -0.000427
         0.032923  -0.008771  -0.033353   0.013612  -0.023576
   0 1   1.010938  -0.011975   0.000000   0.000000   0.000000
        -0.054085   0.000000   0.000000  -0.000000  -0.003174
        -0.003174  -0.003174   0.000000   0.000000   0.000000
 MINI         5   5
   1 0  -0.104883   0.308874   0.000000   0.000000   0.521806
   0 1  -0.104883   0.308874   0.491961   0.000000  -0.173934
   0 1  -0.104883   0.308876  -0.245980  -0.426050  -0.173933
   0 1  -0.104883   0.308876  -0.245980   0.426050  -0.173933
   0 1   0.988209   0.063992   0.000000   0.000000   0.000000
 $END
 
 $DATA
 FMO calculation
 C1 
 H.1-1    1
      N31 6
   
 O.1-1    8
      N31 6
      d 1
      1 0.800 1.0
   
 C.1-1    6
      N31 6
      d 1
      1 0.800 1.0
   
 N.1-1    7
      N31 6
      d 1
      1 0.800 1.0
   
 P.1-1   15
      N31 6
      d 1
      1 0.550 1.0
   
 $END
 $FMOXYZ
    1    H    -3.926    -4.708    4.580
    2    O    -3.138    -4.838    4.017
    3    C    -3.587    -4.846    2.653
    4    H    -4.174    -3.918    2.466
    5    H    -4.267    -5.711    2.502
    6    C    -2.445    -4.922    1.624
    7    H    -2.830    -4.738    0.599
    8    O    -1.440    -3.902    1.901
    9    C    -0.144    -4.448    1.721
    10    H    0.374    -3.792    0.983
    11    N    0.613    -4.442    2.983
    12    C    2.243    -4.441    4.466
    13    N    1.061    -4.333    5.189
    14    C    0.125    -4.341    4.268
    15    H    -0.945    -4.252    4.464
    16    N    4.537    -4.624    3.884
    17    C    4.121    -4.690    2.614
    18    H    4.917    -4.781    1.868
    19    N    2.879    -4.626    2.119
    20    C    1.979    -4.510    3.108
    21    C    3.600    -4.496    4.860
    22    N    4.004    -4.423    6.143
    23    H    3.347    -4.379    6.904
    24    H    4.977    -4.507    6.362
    25    C    -0.293    -5.841    1.130
    26    H    0.484    -6.543    1.501
    27    O    -0.240    -5.789    -0.280
    28    H    -0.333    -6.702    -0.592
    29    C    -1.679    -6.253    1.613
    30    H    -1.620    -6.585    2.672
    31    O    -2.361    -7.196    0.756
    32    P    -2.360    -8.738    1.056
    33    O    -3.431    -9.364    0.251
    34    O    -2.408    -8.943    2.519
    35    O    -0.976    -9.243    0.511
    36    C    -0.715    -9.440    -0.897
    37    H    -1.213    -8.663    -1.520
    38    H    -1.137    -10.418    -1.210
    39    C    0.793    -9.412    -1.260
    40    H    0.917    -9.180    -2.340
    41    O    1.482    -8.358    -0.527
    42    C    2.748    -8.829    -0.073
    43    H    3.500    -8.103    -0.462
    44    N    2.854    -8.871    1.417
    45    C    1.714    -8.884    2.184
    46    H    0.783    -8.813    1.644
    47    C    1.756    -8.918    3.518
    48    H    0.854    -8.919    4.129
    49    C    4.097    -8.933    2.044
    50    O    5.127    -8.951    1.352
    51    N    4.163    -8.957    3.396
    52    C    3.038    -8.944    4.130
    53    N    3.132    -8.949    5.454
    54    H    4.055    -8.951    5.850
    55    H    2.329    -8.965    6.053
    56    C    3.003    -10.184    -0.712
    57    H    3.539    -10.875    -0.027
    58    O    3.741    -10.041    -1.911
    59    H    3.730    -10.912    -2.330
    60    C    1.590    -10.700    -0.987
    61    H    1.155    -11.119    -0.048
    62    O    1.497    -11.603    -2.129
    63    P    1.262    -13.145    -1.901
    64    O    0.990    -13.761    -3.216
    65    O    0.243    -13.325    -0.847
    66    O    2.651    -13.671    -1.374
    67    C    3.800    -13.812    -2.244
    68    H    3.844    -12.988    -2.992
    69    H    3.728    -14.769    -2.809
    70    C    5.146    -13.797    -1.481
    71    H    5.986    -13.602    -2.184
    72    O    5.160    -12.718    -0.500
    73    C    5.761    -13.166    0.712
    74    H    6.590    -12.446    0.909
    75    N    4.832    -13.150    1.879
    76    C    3.476    -13.109    1.676
    77    H    3.155    -13.038    0.645
    78    C    2.611    -13.101    2.694
    79    H    1.534    -13.053    2.539
    80    C    5.336    -13.202    3.178
    81    O    6.567    -13.256    3.332
    82    N    4.471    -13.197    4.227
    83    C    3.146    -13.146    4.009
    84    N    2.310    -13.144    5.041
    85    H    2.680    -13.151    5.970
    86    H    1.315    -13.125    4.925
    87    C    6.355    -14.540    0.457
    88    H    6.288    -15.200    1.347
    89    O    7.709    -14.423    0.054
    90    H    7.978    -15.291    -0.275
    91    C    5.483    -15.067    -0.678
    92    H    4.512    -15.435    -0.272
    93    O    6.157    -16.023    -1.526
    94    P    5.774    -17.541    -1.512
    95    O    6.566    -18.240    -2.544
    96    O    4.307    -17.652    -1.607
    97    O    6.222    -18.051    -0.098
    98    C    7.611    -18.273    0.230
    99    H    8.263    -17.458    -0.164
    100    H    7.952    -19.232    -0.222
    101    C    7.843    -18.372    1.752
    102    H    8.928    -18.334    1.986
    103    O    7.222    -17.264    2.454
    104    C    6.603    -17.733    3.643
    105    H    7.042    -17.127    4.468
    106    N    5.119    -17.536    3.614
    107    C    4.456    -17.270    2.437
    108    H    5.084    -17.175    1.559
    109    C    4.434    -17.566    4.805
    110    O    4.981    -17.795    5.876
    111    N    3.084    -17.329    4.709
    112    H    2.575    -17.303    5.577
    113    C    2.352    -17.121    3.558
    114    O    1.131    -16.999    3.613
    115    C    3.132    -17.081    2.364
    116    H    2.629    -16.913    1.414
    117    C    7.020    -19.189    3.829
    118    H    6.222    -19.797    4.307
    119    O    8.204    -19.278    4.602
    120    H    8.436    -20.213    4.631
    121    C    7.269    -19.638    2.393
    122    H    6.305    -19.844    1.875
    123    O    8.224    -20.707    2.235
    124    P    7.796    -22.206    2.340
    125    O    8.965    -23.044    1.964
    126    O    6.551    -22.401    1.565
    127    O    7.511    -22.421    3.878
    128    C    6.239    -22.997    4.261
    129    H    6.158    -24.048    3.900
    130    H    5.386    -22.423    3.827
    131    C    6.088    -22.987    5.787
    132    H    7.037    -23.260    6.293
    133    O    5.721    -21.653    6.228
    134    C    4.742    -21.739    7.248
    135    H    5.161    -21.184    8.121
    136    N    3.445    -21.134    6.833
    137    C    3.201    -20.735    5.539
    138    H    4.032    -20.863    4.843
    139    C    2.526    -20.882    7.822
    140    O    2.758    -21.099    8.998
    141    N    1.336    -20.351    7.401
    142    H    0.654    -20.213    8.133
    143    C    1.026    -19.912    6.136
    144    O    -0.055    -19.369    5.915
    145    C    2.053    -20.149    5.165
    146    H    1.892    -19.810    4.145
    147    C    4.598    -23.206    7.615
    148    H    3.561    -23.471    7.907
    149    O    5.486    -23.547    8.657
    150    H    5.408    -24.502    8.745
    151    C    4.984    -23.904    6.320
    152    H    4.150    -23.856    5.585
    153    O    5.495    -25.244    6.478
    154    P    4.519    -26.448    6.742
    155    O    5.003    -27.596    5.945
    156    O    3.119    -26.020    6.539
    157    O    4.749    -26.763    8.263
    158    C    3.699    -26.792    9.258
    159    H    3.120    -27.738    9.147
    160    H    2.985    -25.944    9.126
    161    C    4.218    -26.748    10.724
    162    H    3.548    -27.333    11.385
    163    O    5.551    -27.331    10.834
    164    C    6.361    -26.538    11.689
    165    H    6.732    -27.237    12.475
    166    N    7.528    -25.921    10.984
    167    C    7.464    -25.690    9.634
    168    H    6.552    -25.995    9.147
    169    C    8.488    -25.168    8.953
    170    H    8.444    -25.004    7.878
    171    C    8.675    -25.557    11.686
    172    O    8.720    -25.774    12.907
    173    N    9.726    -25.007    11.020
    174    C    9.662    -24.837    9.684
    175    N    10.713    -24.348    9.028
    176    H    11.529    -24.079    9.541
    177    H    10.698    -24.206    8.040
    178    C    5.468    -25.510    12.349
    179    H    6.004    -24.550    12.507
    180    O    4.970    -25.992    13.582
    181    H    4.339    -25.333    13.910
    182    C    4.339    -25.338    11.333
    183    H    4.660    -24.661    10.523
    184    O    3.065    -24.923    11.872
    185    P    2.796    -23.458    12.390
    186    O    1.776    -23.513    13.458
    187    O    2.481    -22.603    11.240
    188    O    4.136    -22.991    13.078
    189    C    4.929    -21.916    12.542
    190    H    4.321    -20.983    12.476
    191    H    5.286    -22.159    11.514
    192    C    6.126    -21.635    13.466
    193    H    5.890    -21.885    14.522
    194    O    7.266    -22.441    13.063
    195    C    8.447    -21.642    13.092
    196    H    9.157    -22.187    13.755
    197    N    9.077    -21.471    11.754
    198    C    8.427    -21.904    10.619
    199    H    7.458    -22.389    10.763
    200    C    8.978    -21.764    9.409
    201    H    8.493    -22.136    8.509
    202    C    10.340    -20.885    11.649
    203    O    10.929    -20.527    12.681
    204    N    10.910    -20.730    10.432
    205    C    10.269    -21.164    9.331
    206    N    10.871    -21.054    8.151
    207    H    11.787    -20.653    8.109
    208    H    10.473    -21.422    7.311
    209    C    8.092    -20.312    13.735
    210    H    8.659    -19.468    13.291
    211    O    8.321    -20.351    15.130
    212    H    8.007    -19.506    15.478
    213    C    6.609    -20.174    13.418
    214    H    6.475    -19.835    12.362
    215    O    5.866    -19.371    14.369
    216    P    5.642    -17.838    14.118
    217    O    4.932    -17.260    15.281
    218    O    5.012    -17.677    12.791
    219    O    7.085    -17.212    14.072
    220    C    7.767    -16.864    15.301
    221    H    7.715    -17.695    16.045
    222    H    7.293    -15.965    15.758
    223    C    9.256    -16.549    15.078
    224    H    9.828    -16.627    16.028
    225    O    9.838    -17.496    14.132
    226    C    10.686    -16.821    13.229
    227    H    11.676    -17.331    13.272
    228    N    10.178    -16.873    11.842
    229    C    9.997    -16.751    9.648
    230    N    8.765    -17.184    10.117
    231    C    8.925    -17.240    11.416
    232    H    8.162    -17.565    12.121
    233    N    11.765    -16.066    8.229
    234    C    12.491    -15.903    9.339
    235    H    13.514    -15.541    9.174
    236    N    12.156    -16.152    10.611
    237    C    10.878    -16.560    10.699
    238    C    10.480    -16.494    8.348
    239    N    9.732    -16.656    7.241
    240    H    8.811    -17.039    7.268
    241    H    10.137    -16.483    6.344
    242    C    10.828    -15.406    13.735
    243    H    10.883    -14.726    12.890
    244    O    11.966    -15.260    14.564
    245    H    11.912    -14.382    14.966
    246    C    9.524    -15.163    14.481
    247    H    8.693    -14.956    13.769
    248    O    9.617    -14.177    15.528
    249    P    9.226    -12.666    15.354
    250    O    9.837    -11.917    16.480
    251    O    7.760    -12.579    15.197
    252    O    9.903    -12.200    14.003
    253    C    11.299    -11.810    13.952
    254    H    11.925    -12.492    14.570
    255    H    11.419    -10.782    14.364
    256    C    11.902    -11.823    12.522
    257    H    13.012    -11.868    12.574
    258    O    11.476    -12.989    11.791
    259    C    11.142    -12.672    10.470
    260    H    11.722    -13.372    9.828
    261    N    9.712    -12.869    10.218
    262    C    7.772    -13.109    9.218
    263    N    7.521    -13.237    10.576
    264    C    8.701    -13.091    11.125
    265    H    8.902    -13.155    12.194
    266    N    7.505    -13.006    6.877
    267    C    8.819    -12.811    6.809
    268    H    9.217    -12.694    5.798
    269    N    9.714    -12.720    7.797
    270    C    9.119    -12.890    8.985
    271    C    6.933    -13.161    8.091
    272    N    5.609    -13.373    8.138
    273    H    5.098    -13.469    8.996
    274    H    5.137    -13.406    7.261
    275    C    11.596    -11.259    10.223
    276    H    10.936    -10.716    9.513
    277    O    12.917    -11.271    9.719
    278    H    13.115    -10.361    9.445
    279    C    11.528    -10.642    11.625
    280    H    10.479    -10.371    11.886
    281    O    12.450    -9.561    11.874
    282    P    12.219    -8.146    11.244
    283    O    13.266    -7.243    11.768
    284    O    10.814    -7.757    11.482
    285    O    12.440    -8.351    9.700
    286    C    13.743    -8.276    9.077
    287    H    14.428    -9.056    9.488
    288    H    14.214    -7.287    9.279
    289    C    13.656    -8.439    7.544
    290    H    14.644    -8.727    7.122
    291    O    12.706    -9.479    7.178
    292    C    11.962    -9.073    6.037
    293    H    12.129    -9.857    5.265
    294    N    10.518    -8.978    6.333
    295    C    9.462    -9.033    5.447
    296    N    8.205    -9.293    2.216
    297    H    7.312    -9.278    1.770
    298    H    9.032    -9.400    1.660
    299    N    9.543    -9.189    4.108
    300    C    8.336    -9.179    3.526
    301    N    7.163    -9.046    4.223
    302    H    6.292    -9.087    3.719
    303    C    7.052    -8.910    5.600
    304    O    5.964    -8.798    6.177
    305    C    8.326    -8.898    6.226
    306    N    8.655    -8.773    7.570
    307    C    9.962    -8.830    7.584
    308    H    10.581    -8.789    8.478
    309    C    12.544    -7.760    5.544
    310    H    11.767    -7.076    5.139
    311    O    13.521    -7.998    4.548
    312    H    13.855    -7.126    4.310
    313    C    13.178    -7.179    6.807
    314    H    12.403    -6.710    7.456
    315    O    14.309    -6.314    6.575
    316    P    14.187    -4.764    6.411
    317    O    15.548    -4.200    6.267
    318    O    13.353    -4.239    7.516
    319    O    13.406    -4.577    5.057
    320    C    14.023    -4.731    3.761
    321    H    14.510    -5.725    3.661
    322    H    14.811    -3.956    3.615
    323    C    13.005    -4.592    2.609
    324    H    13.488    -4.797    1.629
    325    O    11.918    -5.550    2.767
    326    C    10.682    -4.952    2.394
    327    H    10.290    -5.588    1.564
    328    N    9.716    -4.932    3.538
    329    C    10.174    -4.829    4.828
    330    H    11.250    -4.809    4.933
    331    C    8.362    -4.987    3.285
    332    O    7.908    -5.048    2.148
    333    N    7.553    -4.968    4.399
    334    H    6.557    -4.961    4.225
    335    C    7.951    -4.842    5.715
    336    O    7.115    -4.786    6.616
    337    C    9.369    -4.785    5.896
    338    H    9.766    -4.708    6.906
    339    C    10.987    -3.558    1.849
    340    H    10.210    -2.825    2.157
    341    O    11.090    -3.578    0.432
    342    H    11.456    -2.727    0.138
    343    C    12.317    -3.227    2.527
    344    H    12.145    -2.883    3.567
    345    O    13.138    -2.290    1.805
    346    H    12.713    -1.411    1.789
 $END
