!*** FMO 5.3 (Gamess) INPUT generated by Facio 22.1.1.32 ***
 $CONTRL RUNTYP=ENERGY NPRINT=-5 ISPHER=1 MAXIT=200 $END
 $SYSTEM MWORDS=63 MEMDDI=63 $END
 $GDDI NGROUP=1 $END
 $SCF DIRSCF=.TRUE. NPUNCH=0 $END
!*** NumCPU : 2  MemPerNode : 512MB
 $PCM SOLVNT=WATER IEF=-10 ICOMP=2 ICAV=1 IDISP=1 IFMO=-1 $END
 $PCMCAV RADII=SUAHF $END
 $TESCAV NTSALL=60 $END
 $FMOPRP
    NAODIR=200
    NGRFMO(1)=1, 1, 0, 0, 0,   0, 0, 0, 0, 0
    IPIEDA=1
    NPRINT=9
 $END
 $FMO
      SCFTYP(1)=RHF
      MODGRD=10
      MODMUL=0
      MAXCAO=5
      MAXBND=13
      NLAYER=1
      MPLEVL(1)=2
      NFRAG=11
      ICHARG(1)=-1, -1, -1, -1, -1, -1, -1, -1, -1, -1, 0
      FRGNAM(1)=F1, F2, F3, F4, F5, F6, F7, F8, F9, F10, F11
      indat(1)=0
               1   -35   0
               36   -66   0
               67   -97   0
               98   -127   0
               128   -157   0
               158   -188   0
               189   -219   0
               220   -252   0
               253   -285   0
               286   -319   0
               320   -346   0
 $END

 $FMOBND
   -36   35       6-31G*    MINI
   -67   66       6-31G*    MINI
   -98   97       6-31G*    MINI
   -128   127       6-31G*    MINI
   -158   157       6-31G*    MINI
   -189   188       6-31G*    MINI
   -220   219       6-31G*    MINI
   -253   252       6-31G*    MINI
   -286   285       6-31G*    MINI
   -320   319       6-31G*    MINI
 $END
 $FMOHYB
 6-31G*      15   5
   1 0  -0.065034   0.288264   0.000000   0.000000   0.604412
         0.290129   0.000000   0.000000   0.319045  -0.017106
        -0.017106   0.057934   0.000000   0.000000   0.000000
   0 1  -0.065040   0.288293   0.569832   0.000000  -0.201456
         0.290147   0.300783   0.000000  -0.106342   0.049598
        -0.017106  -0.008771   0.000000  -0.027223   0.000000
   0 1  -0.065039   0.288293  -0.284916  -0.493490  -0.201455
         0.290145  -0.150392  -0.260486  -0.106340  -0.000427
         0.032923  -0.008771   0.033353   0.013612   0.023576
   0 1  -0.065039   0.288293  -0.284916   0.493490  -0.201455
         0.290145  -0.150392   0.260486  -0.106340  -0.000427
         0.032923  -0.008771  -0.033353   0.013612  -0.023576
   0 1   1.010938  -0.011975   0.000000   0.000000   0.000000
        -0.054085   0.000000   0.000000  -0.000000  -0.003174
        -0.003174  -0.003174   0.000000   0.000000   0.000000
 MINI         5   5
   1 0  -0.104883   0.308874   0.000000   0.000000   0.521806
   0 1  -0.104883   0.308874   0.491961   0.000000  -0.173934
   0 1  -0.104883   0.308876  -0.245980  -0.426050  -0.173933
   0 1  -0.104883   0.308876  -0.245980   0.426050  -0.173933
   0 1   0.988209   0.063992   0.000000   0.000000   0.000000
 $END
 
 $DATA
 FMO calculation
 C1 
 H.1-1    1
      N31 6
   
 O.1-1    8
      N31 6
      d 1
      1 0.800 1.0
   
 C.1-1    6
      N31 6
      d 1
      1 0.800 1.0
   
 N.1-1    7
      N31 6
      d 1
      1 0.800 1.0
   
 P.1-1   15
      N31 6
      d 1
      1 0.550 1.0
   
 $END
 $FMOXYZ
    1    H    -4.363    -10.545    8.801
    2    O    -3.712    -10.194    8.165
    3    C    -4.453    -9.669    7.055
    4    H    -5.167    -8.897    7.425
    5    H    -5.052    -10.485    6.594
    6    C    -3.561    -9.056    5.973
    7    H    -4.184    -8.704    5.121
    8    O    -2.849    -7.899    6.503
    9    C    -1.540    -7.866    5.957
    10    H    -1.414    -6.870    5.471
    11    N    -0.526    -8.014    7.009
    12    C    1.353    -7.946    8.154
    13    N    0.387    -8.444    9.021
    14    C    -0.706    -8.468    8.296
    15    H    -1.685    -8.809    8.642
    16    N    3.403    -7.183    7.248
    17    C    2.740    -7.006    6.100
    18    H    3.337    -6.609    5.272
    19    N    1.440    -7.188    5.836
    20    C    0.802    -7.681    6.911
    21    C    2.726    -7.659    8.322
    22    N    3.392    -7.825    9.479
    23    H    2.946    -8.212    10.293
    24    H    4.386    -7.701    9.508
    25    C    -1.455    -8.953    4.906
    26    H    -0.439    -9.388    4.825
    27    O    -1.857    -8.444    3.647
    28    H    -1.802    -9.184    3.034
    29    C    -2.455    -9.977    5.434
    30    H    -2.029    -10.512    6.315
    31    O    -3.000    -10.874    4.437
    32    P    -2.294    -12.260    4.181
    33    O    -2.006    -12.892    5.482
    34    O    -3.109    -13.037    3.224
    35    O    -0.936    -11.859    3.503
    36    C    -0.914    -11.309    2.164
    37    H    -1.613    -10.450    2.058
    38    H    -1.223    -12.082    1.426
    39    C    0.493    -10.827    1.783
    40    H    0.485    -10.324    0.791
    41    O    0.969    -9.838    2.747
    42    C    2.367    -10.026    2.942
    43    H    2.834    -9.044    2.699
    44    N    2.722    -10.378    4.352
    45    C    1.777    -10.917    5.197
    46    H    0.788    -11.067    4.764
    47    C    2.060    -11.198    6.478
    48    H    1.314    -11.587    7.170
    49    C    4.024    -10.190    4.813
    50    O    4.891    -9.770    4.032
    51    N    4.319    -10.446    6.103
    52    C    3.381    -10.915    6.935
    53    N    3.710    -11.098    8.207
    54    H    4.666    -10.924    8.458
    55    H    3.172    -11.684    8.818
    56    C    2.838    -11.044    1.920
    57    H    3.710    -11.605    2.278
    58    O    3.199    -10.408    0.709
    59    H    3.347    -11.103    0.048
    60    C    1.589    -11.905    1.757
    61    H    1.438    -12.537    2.664
    62    O    1.522    -12.648    0.519
    63    P    1.692    -14.211    0.496
    64    O    0.931    -14.824    1.605
    65    O    1.401    -14.714    -0.863
    66    O    3.222    -14.425    0.791
    67    C    3.806    -15.746    0.646
    68    H    3.380    -16.311    -0.217
    69    H    3.617    -16.343    1.567
    70    C    5.324    -15.653    0.419
    71    H    5.536    -15.099    -0.526
    72    O    5.920    -14.908    1.507
    73    C    7.101    -15.519    1.956
    74    H    7.860    -14.703    1.914
    75    N    6.986    -16.031    3.353
    76    C    5.848    -16.686    3.780
    77    H    5.036    -16.783    3.059
    78    C    5.742    -17.149    5.034
    79    H    4.855    -17.660    5.399
    80    C    8.042    -15.844    4.241
    81    O    9.063    -15.253    3.852
    82    N    7.950    -16.306    5.500
    83    C    6.857    -16.970    5.901
    84    N    6.839    -17.485    7.119
    85    H    7.500    -17.130    7.789
    86    H    5.984    -17.811    7.532
    87    C    7.466    -16.580    0.949
    88    H    7.988    -17.442    1.402
    89    O    8.270    -16.014    -0.069
    90    H    7.745    -15.350    -0.545
    91    C    6.089    -16.982    0.426
    92    H    5.573    -17.609    1.190
    93    O    6.098    -17.567    -0.897
    94    P    5.768    -19.099    -1.029
    95    O    4.446    -19.339    -0.413
    96    O    5.925    -19.499    -2.447
    97    O    6.915    -19.833    -0.215
    98    C    7.041    -21.282    -0.336
    99    H    8.083    -21.528    -0.646
    100    H    6.381    -21.719    -1.128
    101    C    6.736    -22.054    0.968
    102    H    6.635    -23.141    0.732
    103    O    7.831    -21.912    1.918
    104    C    7.400    -21.165    3.054
    105    H    7.192    -21.918    3.854
    106    N    8.442    -20.189    3.447
    107    C    9.088    -19.464    2.474
    108    H    8.783    -19.676    1.444
    109    C    8.765    -20.049    4.775
    110    O    8.235    -20.707    5.663
    111    N    9.763    -19.141    5.029
    112    H    9.956    -18.959    5.995
    113    C    10.497    -18.424    4.104
    114    O    11.444    -17.728    4.466
    115    C    10.082    -18.609    2.749
    116    H    10.626    -18.090    1.963
    117    C    6.098    -20.500    2.660
    118    H    6.305    -19.582    2.075
    119    O    5.255    -20.162    3.745
    120    H    4.952    -20.973    4.171
    121    C    5.505    -21.575    1.757
    122    H    4.836    -21.093    1.016
    123    O    4.856    -22.663    2.467
    124    P    3.295    -22.816    2.313
    125    O    2.681    -21.499    2.041
    126    O    2.982    -23.921    1.378
    127    O    2.888    -23.283    3.750
    128    C    3.000    -22.419    4.898
    129    H    2.495    -21.443    4.708
    130    H    4.069    -22.214    5.133
    131    C    2.367    -23.041    6.155
    132    H    2.617    -22.408    7.035
    133    O    0.917    -23.103    6.005
    134    C    0.496    -24.451    5.968
    135    H    0.151    -24.668    7.009
    136    N    -0.582    -24.618    4.962
    137    C    -0.297    -24.465    3.626
    138    H    0.746    -24.259    3.383
    139    C    -1.873    -24.835    5.390
    140    O    -2.174    -24.920    6.577
    141    N    -2.803    -24.953    4.386
    142    H    -3.748    -25.128    4.685
    143    C    -2.587    -24.842    3.029
    144    O    -3.520    -24.989    2.239
    145    C    -1.229    -24.571    2.667
    146    H    -0.981    -24.485    1.614
    147    C    1.727    -25.308    5.699
    148    H    1.965    -25.344    4.616
    149    O    1.605    -26.628    6.199
    150    H    1.609    -26.559    7.167
    151    C    2.794    -24.498    6.435
    152    H    3.776    -24.657    5.930
    153    O    2.834    -24.780    7.854
    154    P    4.194    -25.110    8.572
    155    O    3.891    -25.678    9.905
    156    O    5.043    -25.924    7.677
    157    O    4.869    -23.709    8.794
    158    C    6.285    -23.624    9.060
    159    H    6.801    -23.294    8.138
    160    H    6.732    -24.605    9.358
    161    C    6.575    -22.613    10.170
    162    H    5.946    -22.805    11.068
    163    O    7.960    -22.793    10.580
    164    C    8.534    -21.534    10.891
    165    H    8.859    -21.613    11.955
    166    N    9.702    -21.235    10.015
    167    C    9.628    -21.542    8.673
    168    H    8.700    -22.001    8.325
    169    C    10.660    -21.320    7.850
    170    H    10.625    -21.576    6.793
    171    C    10.868    -20.662    10.531
    172    O    10.925    -20.393    11.741
    173    N    11.919    -20.435    9.707
    174    C    11.842    -20.753    8.405
    175    N    12.897    -20.546    7.623
    176    H    13.734    -20.175    8.025
    177    H    12.921    -20.834    6.663
    178    C    7.435    -20.487    10.800
    179    H    7.805    -19.515    10.419
    180    O    6.817    -20.311    12.061
    181    H    6.085    -19.698    11.940
    182    C    6.481    -21.125    9.800
    183    H    6.922    -21.011    8.782
    184    O    5.117    -20.658    9.902
    185    P    4.361    -20.219    8.579
    186    O    5.040    -20.748    7.380
    187    O    2.914    -20.497    8.723
    188    O    4.538    -18.655    8.584
    189    C    3.722    -17.779    9.401
    190    H    3.269    -18.293    10.275
    191    H    2.871    -17.399    8.790
    192    C    4.555    -16.594    9.913
    193    H    5.351    -16.977    10.586
    194    O    5.204    -15.915    8.817
    195    C    4.710    -14.613    8.676
    196    H    5.441    -13.951    9.176
    197    N    4.603    -14.288    7.246
    198    C    3.532    -14.768    6.527
    199    H    2.776    -15.359    7.050
    200    C    3.424    -14.529    5.218
    201    H    2.575    -14.882    4.633
    202    C    5.663    -13.642    6.591
    203    O    6.674    -13.306    7.230
    204    N    5.561    -13.401    5.266
    205    C    4.475    -13.810    4.599
    206    N    4.395    -13.554    3.322
    207    H    5.250    -13.284    2.883
    208    H    3.749    -14.025    2.719
    209    C    3.415    -14.552    9.458
    210    H    2.554    -14.958    8.893
    211    O    3.128    -13.250    9.918
    212    H    3.786    -13.058    10.607
    213    C    3.744    -15.490    10.616
    214    H    2.780    -15.917    10.978
    215    O    4.487    -14.853    11.685
    216    P    4.579    -15.594    13.073
    217    O    4.543    -14.571    14.134
    218    O    3.549    -16.651    13.150
    219    O    6.002    -16.268    13.045
    220    C    6.477    -16.936    14.242
    221    H    6.079    -17.976    14.280
    222    H    6.154    -16.419    15.180
    223    C    8.010    -17.004    14.282
    224    H    8.359    -17.428    15.250
    225    O    8.482    -17.895    13.245
    226    C    9.709    -17.422    12.728
    227    H    10.456    -18.229    12.908
    228    N    9.601    -17.184    11.289
    229    C    10.063    -16.925    9.166
    230    N    8.682    -16.906    9.260
    231    C    8.454    -17.052    10.537
    232    H    7.465    -17.102    11.003
    233    N    12.263    -16.891    8.298
    234    C    12.675    -17.049    9.559
    235    H    13.760    -17.100    9.690
    236    N    11.956    -17.151    10.683
    237    C    10.642    -17.088    10.407
    238    C    10.931    -16.826    8.068
    239    N    10.482    -16.672    6.821
    240    H    9.518    -16.459    6.613
    241    H    11.123    -16.641    6.052
    242    C    10.106    -16.179    13.504
    243    H    10.569    -15.405    12.854
    244    O    10.988    -16.516    14.560
    245    H    11.142    -15.709    15.073
    246    C    8.757    -15.685    14.030
    247    H    8.199    -15.177    13.213
    248    O    8.816    -14.885    15.243
    249    P    9.139    -13.342    15.075
    250    O    8.347    -12.797    13.951
    251    O    8.961    -12.697    16.392
    252    O    10.669    -13.267    14.700
    253    C    11.189    -12.044    14.101
    254    H    11.450    -11.309    14.895
    255    H    10.440    -11.556    13.430
    256    C    12.444    -12.302    13.242
    257    H    13.320    -12.514    13.891
    258    O    12.236    -13.489    12.418
    259    C    12.750    -13.278    11.118
    260    H    13.441    -14.131    10.920
    261    N    11.677    -13.284    10.121
    262    C    10.563    -13.378    8.229
    263    N    9.618    -13.262    9.233
    264    C    10.321    -13.204    10.333
    265    H    9.906    -13.106    11.340
    266    N    11.607    -13.596    6.117
    267    C    12.760    -13.635    6.785
    268    H    13.654    -13.744    6.160
    269    N    13.001    -13.494    8.093
    270    C    11.841    -13.391    8.765
    271    C    10.458    -13.471    6.824
    272    N    9.293    -13.481    6.159
    273    H    8.429    -13.504    6.685
    274    H    9.278    -13.969    5.285
    275    C    13.526    -11.979    11.127
    276    H    13.475    -11.439    10.156
    277    O    14.879    -12.229    11.459
    278    H    15.279    -11.384    11.716
    279    C    12.811    -11.197    12.222
    280    H    11.840    -10.816    11.825
    281    O    13.638    -10.167    12.822
    282    P    13.215    -8.656    12.712
    283    O    11.891    -8.499    13.349
    284    O    14.305    -7.792    13.222
    285    O    13.046    -8.388    11.169
    286    C    14.196    -8.313    10.294
    287    H    14.837    -9.222    10.382
    288    H    14.819    -7.424    10.548
    289    C    13.783    -8.188    8.821
    290    H    14.675    -8.052    8.172
    291    O    13.137    -9.425    8.390
    292    C    12.047    -9.110    7.533
    293    H    12.174    -9.710    6.603
    294    N    10.764    -9.452    8.159
    295    C    9.562    -9.631    7.531
    296    N    7.640    -9.647    4.652
    297    H    8.298    -9.417    3.940
    298    H    6.673    -9.768    4.412
    299    N    9.335    -9.509    6.212
    300    C    8.064    -9.759    5.898
    301    N    7.108    -10.076    6.826
    302    H    6.181    -10.302    6.500
    303    C    7.316    -10.216    8.192
    304    O    6.397    -10.499    8.966
    305    C    8.664    -9.940    8.536
    306    N    9.290    -9.939    9.774
    307    C    10.532    -9.650    9.498
    308    H    11.333    -9.564    10.230
    309    C    12.141    -7.635    7.208
    310    H    11.150    -7.179    7.010
    311    O    12.979    -7.447    6.085
    312    H    13.114    -6.496    5.992
    313    C    12.773    -7.081    8.481
    314    H    12.027    -7.071    9.309
    315    O    13.461    -5.819    8.320
    316    P    12.727    -4.481    8.712
    317    O    11.996    -4.667    9.981
    318    O    13.700    -3.366    8.659
    319    O    11.668    -4.314    7.569
    320    C    12.066    -4.086    6.201
    321    H    12.796    -4.847    5.843
    322    H    12.558    -3.090    6.110
    323    C    10.848    -4.098    5.264
    324    H    11.145    -3.868    4.220
    325    O    10.214    -5.411    5.256
    326    C    8.799    -5.251    5.192
    327    H    8.469    -5.817    4.288
    328    N    8.126    -5.794    6.408
    329    C    8.820    -5.975    7.585
    330    H    9.874    -5.713    7.549
    331    C    6.791    -6.116    6.327
    332    O    6.132    -5.948    5.306
    333    N    6.247    -6.633    7.474
    334    H    5.261    -6.865    7.419
    335    C    6.881    -6.848    8.679
    336    O    6.255    -7.310    9.629
    337    C    8.266    -6.490    8.691
    338    H    8.843    -6.652    9.600
    339    C    8.520    -3.766    4.978
    340    H    7.576    -3.441    5.472
    341    O    8.478    -3.469    3.589
    342    H    8.381    -2.507    3.474
    343    C    9.726    -3.141    5.668
    344    H    9.603    -3.194    6.771
    345    O    10.034    -1.798    5.254
    346    H    9.311    -1.192    5.505
 $END
