!*** FMO 5.3 (Gamess) INPUT generated by Facio 22.1.1.32 ***
 $CONTRL RUNTYP=ENERGY NPRINT=-5 ISPHER=1 MAXIT=200 $END
 $SYSTEM MWORDS=63 MEMDDI=63 $END
 $GDDI NGROUP=1 $END
 $SCF DIRSCF=.TRUE. NPUNCH=0 $END
!*** NumCPU : 2  MemPerNode : 512MB
 $PCM SOLVNT=WATER IEF=-10 ICOMP=2 ICAV=1 IDISP=1 IFMO=-1 $END
 $PCMCAV RADII=SUAHF $END
 $TESCAV NTSALL=60 $END
 $FMOPRP
    NAODIR=200
    NGRFMO(1)=1, 1, 0, 0, 0,   0, 0, 0, 0, 0
    IPIEDA=1
    NPRINT=9
 $END
 $FMO
      SCFTYP(1)=RHF
      MODGRD=10
      MODMUL=0
      MAXCAO=5
      MAXBND=13
      NLAYER=1
      MPLEVL(1)=2
      NFRAG=11
      ICHARG(1)=-1, -1, -1, -1, -1, -1, -1, -1, -1, -1, 0
      FRGNAM(1)=F1, F2, F3, F4, F5, F6, F7, F8, F9, F10, F11
      indat(1)=0
               1   -35   0
               36   -66   0
               67   -97   0
               98   -127   0
               128   -157   0
               158   -188   0
               189   -219   0
               220   -252   0
               253   -285   0
               286   -319   0
               320   -346   0
 $END

 $FMOBND
   -36   35       6-31G*    MINI
   -67   66       6-31G*    MINI
   -98   97       6-31G*    MINI
   -128   127       6-31G*    MINI
   -158   157       6-31G*    MINI
   -189   188       6-31G*    MINI
   -220   219       6-31G*    MINI
   -253   252       6-31G*    MINI
   -286   285       6-31G*    MINI
   -320   319       6-31G*    MINI
 $END
 $FMOHYB
 6-31G*      15   5
   1 0  -0.065034   0.288264   0.000000   0.000000   0.604412
         0.290129   0.000000   0.000000   0.319045  -0.017106
        -0.017106   0.057934   0.000000   0.000000   0.000000
   0 1  -0.065040   0.288293   0.569832   0.000000  -0.201456
         0.290147   0.300783   0.000000  -0.106342   0.049598
        -0.017106  -0.008771   0.000000  -0.027223   0.000000
   0 1  -0.065039   0.288293  -0.284916  -0.493490  -0.201455
         0.290145  -0.150392  -0.260486  -0.106340  -0.000427
         0.032923  -0.008771   0.033353   0.013612   0.023576
   0 1  -0.065039   0.288293  -0.284916   0.493490  -0.201455
         0.290145  -0.150392   0.260486  -0.106340  -0.000427
         0.032923  -0.008771  -0.033353   0.013612  -0.023576
   0 1   1.010938  -0.011975   0.000000   0.000000   0.000000
        -0.054085   0.000000   0.000000  -0.000000  -0.003174
        -0.003174  -0.003174   0.000000   0.000000   0.000000
 MINI         5   5
   1 0  -0.104883   0.308874   0.000000   0.000000   0.521806
   0 1  -0.104883   0.308874   0.491961   0.000000  -0.173934
   0 1  -0.104883   0.308876  -0.245980  -0.426050  -0.173933
   0 1  -0.104883   0.308876  -0.245980   0.426050  -0.173933
   0 1   0.988209   0.063992   0.000000   0.000000   0.000000
 $END
 
 $DATA
 FMO calculation
 C1 
 H.1-1    1
      N31 6
   
 O.1-1    8
      N31 6
      d 1
      1 0.800 1.0
   
 C.1-1    6
      N31 6
      d 1
      1 0.800 1.0
   
 N.1-1    7
      N31 6
      d 1
      1 0.800 1.0
   
 P.1-1   15
      N31 6
      d 1
      1 0.550 1.0
   
 $END
 $FMOXYZ
    1    H    -4.363    -10.104    7.611
    2    O    -3.673    -9.951    6.934
    3    C    -4.370    -9.681    5.708
    4    H    -5.060    -8.820    5.869
    5    H    -4.980    -10.570    5.432
    6    C    -3.431    -9.349    4.547
    7    H    -4.004    -9.190    3.606
    8    O    -2.701    -8.117    4.832
    9    C    -1.370    -8.243    4.352
    10    H    -1.199    -7.390    3.657
    11    N    -0.394    -8.175    5.449
    12    C    1.450    -7.890    6.620
    13    N    0.446    -8.174    7.541
    14    C    -0.627    -8.327    6.798
    15    H    -1.625    -8.564    7.174
    16    N    3.539    -7.348    5.641
    17    C    2.915    -7.416    4.459
    18    H    3.546    -7.228    3.583
    19    N    1.627    -7.669    4.197
    20    C    0.945    -7.896    5.330
    21    C    2.822    -7.587    6.769
    22    N    3.446    -7.517    7.961
    23    H    2.945    -7.631    8.822
    24    H    4.433    -7.347    8.011
    25    C    -1.291    -9.541    3.577
    26    H    -0.285    -10.003    3.628
    27    O    -1.648    -9.315    2.227
    28    H    -1.624    -10.172    1.785
    29    C    -2.336    -10.392    4.292
    30    H    -1.955    -10.710    5.290
    31    O    -2.881    -11.488    3.521
    32    P    -2.186    -12.899    3.609
    33    O    -1.952    -13.226    5.030
    34    O    -2.957    -13.875    2.808
    35    O    -0.802    -12.655    2.913
    36    C    -0.708    -12.461    1.483
    37    H    -1.401    -11.668    1.121
    38    H    -0.979    -13.399    0.947
    39    C    0.723    -12.090    1.067
    40    H    0.771    -11.848    -0.017
    41    O    1.198    -10.924    1.799
    42    C    2.579    -11.101    2.100
    43    H    3.095    -10.226    1.639
    44    N    2.865    -11.114    3.562
    45    C    1.867    -11.408    4.463
    46    H    0.892    -11.631    4.035
    47    C    2.088    -11.381    5.784
    48    H    1.299    -11.568    6.511
    49    C    4.153    -10.851    4.020
    50    O    5.055    -10.614    3.201
    51    N    4.396    -10.829    5.345
    52    C    3.405    -11.059    6.223
    53    N    3.664    -10.960    7.523
    54    H    4.614    -10.791    7.799
    55    H    2.986    -11.158    8.229
    56    C    3.044    -12.360    1.403
    57    H    3.831    -12.887    1.975
    58    O    3.514    -12.072    0.098
    59    H    3.683    -12.929    -0.327
    60    C    1.762    -13.174    1.363
    61    H    1.528    -13.591    2.370
    62    O    1.715    -14.166    0.326
    63    P    2.391    -15.567    0.568
    64    O    1.933    -16.045    1.897
    65    O    2.016    -16.364    -0.611
    66    O    3.938    -15.256    0.574
    67    C    4.871    -16.201    1.146
    68    H    5.344    -16.780    0.323
    69    H    4.368    -16.949    1.808
    70    C    5.982    -15.539    1.988
    71    H    6.786    -15.137    1.339
    72    O    5.439    -14.413    2.733
    73    C    5.956    -14.383    4.037
    74    H    6.370    -13.356    4.148
    75    N    4.902    -14.590    5.075
    76    C    3.752    -15.292    4.783
    77    H    3.655    -15.673    3.759
    78    C    2.792    -15.453    5.707
    79    H    1.861    -15.973    5.495
    80    C    5.062    -14.038    6.343
    81    O    6.079    -13.376    6.585
    82    N    4.133    -14.225    7.297
    83    C    3.001    -14.882    6.998
    84    N    2.050    -14.983    7.922
    85    H    2.213    -14.578    8.823
    86    H    1.172    -15.433    7.752
    87    C    7.085    -15.397    4.102
    88    H    7.175    -15.865    5.104
    89    O    8.329    -14.797    3.738
    90    H    8.388    -13.882    4.041
    91    C    6.610    -16.432    3.069
    92    H    5.793    -17.046    3.510
    93    O    7.664    -17.248    2.541
    94    P    7.509    -18.478    1.572
    95    O    7.767    -18.018    0.192
    96    O    8.396    -19.552    2.058
    97    O    6.014    -18.923    1.667
    98    C    5.389    -19.846    0.754
    99    H    5.608    -20.878    1.087
    100    H    5.780    -19.752    -0.282
    101    C    3.863    -19.666    0.792
    102    H    3.557    -19.255    1.776
    103    O    3.417    -18.738    -0.214
    104    C    2.796    -19.421    -1.286
    105    H    1.719    -19.157    -1.217
    106    N    3.365    -19.002    -2.598
    107    C    4.692    -18.660    -2.697
    108    H    5.252    -18.669    -1.763
    109    C    2.533    -18.917    -3.693
    110    O    1.334    -19.169    -3.635
    111    N    3.142    -18.518    -4.859
    112    H    2.547    -18.477    -5.670
    113    C    4.463    -18.151    -5.023
    114    O    4.873    -17.773    -6.120
    115    C    5.256    -18.250    -3.840
    116    H    6.301    -17.959    -3.894
    117    C    2.967    -20.907    -1.030
    118    H    3.919    -21.283    -1.474
    119    O    1.869    -21.658    -1.508
    120    H    1.106    -21.412    -0.962
    121    C    3.069    -20.951    0.493
    122    H    3.712    -21.819    0.776
    123    O    1.788    -20.975    1.171
    124    P    1.444    -22.111    2.208
    125    O    0.203    -21.738    2.927
    126    O    1.436    -23.408    1.496
    127    O    2.652    -22.101    3.211
    128    C    3.041    -20.928    3.945
    129    H    2.639    -20.966    4.981
    130    H    2.646    -19.991    3.484
    131    C    4.563    -20.849    4.000
    132    H    5.029    -21.144    3.042
    133    O    4.914    -19.472    4.211
    134    C    6.083    -19.392    4.989
    135    H    6.846    -18.876    4.367
    136    N    5.820    -18.628    6.212
    137    C    4.543    -18.587    6.732
    138    H    3.779    -19.143    6.184
    139    C    6.863    -17.972    6.815
    140    O    8.017    -18.018    6.400
    141    N    6.503    -17.243    7.910
    142    H    7.252    -16.798    8.426
    143    C    5.250    -17.127    8.465
    144    O    5.084    -16.421    9.442
    145    C    4.226    -17.861    7.802
    146    H    3.205    -17.799    8.167
    147    C    6.557    -20.795    5.264
    148    H    6.958    -20.910    6.291
    149    O    7.557    -21.173    4.332
    150    H    7.809    -22.082    4.583
    151    C    5.275    -21.618    5.113
    152    H    4.648    -21.537    6.029
    153    O    5.448    -22.990    4.714
    154    P    6.338    -23.990    5.526
    155    O    6.328    -25.294    4.821
    156    O    7.681    -23.404    5.736
    157    O    5.614    -24.081    6.909
    158    C    4.887    -25.261    7.301
    159    H    5.369    -26.202    6.945
    160    H    3.869    -25.243    6.854
    161    C    4.793    -25.343    8.829
    162    H    3.986    -26.042    9.133
    163    O    6.039    -25.909    9.327
    164    C    6.379    -25.290    10.561
    165    H    6.453    -26.131    11.291
    166    N    7.689    -24.586    10.511
    167    C    8.210    -24.167    9.306
    168    H    7.611    -24.378    8.415
    169    C    9.406    -23.567    9.242
    170    H    9.853    -23.255    8.301
    171    C    8.379    -24.326    11.695
    172    O    7.877    -24.671    12.776
    173    N    9.600    -23.747    11.641
    174    C    10.120    -23.374    10.460
    175    N    11.333    -22.823    10.438
    176    H    11.789    -22.639    11.308
    177    H    11.764    -22.506    9.593
    178    C    5.227    -24.387    10.971
    179    H    5.567    -23.474    11.506
    180    O    4.316    -25.110    11.780
    181    H    3.516    -24.568    11.874
    182    C    4.619    -24.028    9.619
    183    H    5.259    -23.260    9.124
    184    O    3.221    -23.657    9.669
    185    P    2.818    -22.130    9.685
    186    O    3.745    -21.352    8.833
    187    O    1.375    -22.036    9.387
    188    O    3.013    -21.693    11.184
    189    C    3.204    -20.290    11.526
    190    H    2.230    -19.827    11.808
    191    H    3.601    -19.696    10.666
    192    C    4.209    -20.119    12.687
    193    H    3.741    -20.371    13.661
    194    O    5.320    -21.047    12.511
    195    C    6.545    -20.398    12.775
    196    H    7.064    -21.039    13.525
    197    N    7.398    -20.286    11.561
    198    C    6.860    -20.459    10.301
    199    H    5.788    -20.684    10.250
    200    C    7.626    -20.385    9.206
    201    H    7.222    -20.542    8.210
    202    C    8.755    -20.005    11.702
    203    O    9.224    -19.847    12.839
    204    N    9.539    -19.919    10.604
    205    C    9.016    -20.125    9.386
    206    N    9.836    -20.109    8.338
    207    H    9.534    -20.239    7.392
    208    H    10.811    -19.952    8.492
    209    C    6.226    -19.055    13.405
    210    H    6.980    -18.277    13.156
    211    O    6.113    -19.186    14.813
    212    H    5.790    -18.337    15.154
    213    C    4.879    -18.729    12.772
    214    H    5.028    -18.381    11.723
    215    O    4.059    -17.826    13.546
    216    P    4.298    -16.273    13.440
    217    O    4.691    -15.969    12.060
    218    O    3.097    -15.583    13.947
    219    O    5.507    -15.939    14.394
    220    C    6.222    -14.680    14.193
    221    H    5.795    -13.897    14.856
    222    H    6.131    -14.294    13.148
    223    C    7.736    -14.821    14.462
    224    H    7.934    -14.844    15.559
    225    O    8.203    -16.098    13.915
    226    C    9.453    -15.926    13.283
    227    H    10.131    -16.692    13.724
    228    N    9.363    -16.154    11.837
    229    C    9.900    -16.551    9.744
    230    N    8.514    -16.496    9.782
    231    C    8.239    -16.268    11.046
    232    H    7.230    -16.171    11.461
    233    N    12.137    -16.746    8.994
    234    C    12.503    -16.514    10.258
    235    H    13.583    -16.510    10.445
    236    N    11.733    -16.309    11.331
    237    C    10.431    -16.344    11.001
    238    C    10.814    -16.768    8.692
    239    N    10.456    -16.982    7.417
    240    H    9.513    -17.184    7.141
    241    H    11.177    -17.155    6.744
    242    C    9.955    -14.546    13.639
    243    H    10.589    -14.112    12.842
    244    O    10.683    -14.593    14.856
    245    H    10.795    -13.682    15.165
    246    C    8.656    -13.769    13.795
    247    H    8.212    -13.543    12.794
    248    O    8.797    -12.601    14.636
    249    P    8.882    -11.164    14.007
    250    O    7.728    -11.031    13.097
    251    O    8.967    -10.171    15.101
    252    O    10.224    -11.158    13.188
    253    C    11.511    -11.146    13.850
    254    H    11.568    -11.924    14.648
    255    H    11.692    -10.156    14.325
    256    C    12.652    -11.414    12.853
    257    H    13.629    -11.467    13.379
    258    O    12.442    -12.704    12.220
    259    C    12.736    -12.611    10.841
    260    H    13.458    -13.431    10.620
    261    N    11.541    -12.809    10.018
    262    C    10.206    -13.260    8.339
    263    N    9.383    -13.036    9.430
    264    C    10.219    -12.762    10.398
    265    H    9.930    -12.538    11.422
    266    N    10.987    -13.758    6.164
    267    C    12.221    -13.592    6.645
    268    H    13.029    -13.740    5.921
    269    N    12.606    -13.294    7.891
    270    C    11.537    -13.125    8.687
    271    C    9.939    -13.607    7.004
    272    N    8.718    -13.845    6.525
    273    H    7.874    -13.602    7.017
    274    H    8.631    -14.401    5.702
    275    C    13.408    -11.279    10.597
    276    H    13.189    -10.869    9.591
    277    O    14.808    -11.413    10.764
    278    H    15.185    -10.525    10.858
    279    C    12.788    -10.419    11.689
    280    H    11.746    -10.135    11.408
    281    O    13.606    -9.291    12.076
    282    P    13.206    -7.835    11.624
    283    O    11.870    -7.514    12.170
    284    O    14.312    -6.914    11.959
    285    O    13.079    -7.926    10.061
    286    C    14.250    -8.000    9.217
    287    H    14.906    -8.850    9.515
    288    H    14.848    -7.060    9.288
    289    C    13.867    -8.204    7.744
    290    H    14.771    -8.233    7.100
    291    O    13.186    -9.480    7.583
    292    C    12.125    -9.337    6.650
    293    H    12.263    -10.127    5.877
    294    N    10.817    -9.516    7.296
    295    C    9.632    -9.824    6.682
    296    N    7.801    -10.528    3.826
    297    H    8.481    -10.439    3.099
    298    H    6.832    -10.612    3.577
    299    N    9.448    -10.010    5.363
    300    C    8.180    -10.304    5.070
    301    N    7.195    -10.406    6.016
    302    H    6.258    -10.636    5.717
    303    C    7.361    -10.239    7.382
    304    O    6.414    -10.360    8.164
    305    C    8.700    -9.902    7.700
    306    N    9.284    -9.631    8.926
    307    C    10.539    -9.409    8.639
    308    H    11.312    -9.168    9.366
    309    C    12.265    -7.969    6.023
    310    H    11.291    -7.540    5.713
    311    O    13.126    -8.045    4.904
    312    H    13.283    -7.139    4.617
    313    C    12.894    -7.171    7.161
    314    H    12.137    -6.970    7.954
    315    O    13.622    -5.990    6.752
    316    P    12.906    -4.585    6.819
    317    O    12.160    -4.472    8.088
    318    O    13.901    -3.527    6.539
    319    O    11.867    -4.648    5.638
    320    C    12.310    -4.754    4.267
    321    H    13.014    -5.602    4.124
    322    H    12.842    -3.823    3.967
    323    C    11.127    -4.957    3.308
    324    H    11.468    -4.982    2.252
    325    O    10.466    -6.227    3.579
    326    C    9.059    -6.071    3.422
    327    H    8.750    -6.824    2.660
    328    N    8.327    -6.313    4.700
    329    C    8.978    -6.248    5.911
    330    H    10.032    -5.986    5.860
    331    C    6.981    -6.604    4.643
    332    O    6.358    -6.650    3.589
    333    N    6.388    -6.842    5.856
    334    H    5.397    -7.053    5.819
    335    C    6.978    -6.798    7.102
    336    O    6.308    -7.005    8.111
    337    C    8.375    -6.492    7.080
    338    H    8.915    -6.444    8.023
    339    C    8.819    -4.671    2.868
    340    H    7.867    -4.231    3.243
    341    O    8.821    -4.702    1.448
    342    H    8.847    -3.789    1.114
    343    C    10.014    -3.913    3.431
    344    H    9.858    -3.697    4.510
    345    O    10.353    -2.713    2.710
    346    H    9.653    -2.046    2.833
 $END
