!*** FMO 5.3 (Gamess) INPUT generated by Facio 22.1.1.32 ***
 $CONTRL RUNTYP=ENERGY NPRINT=-5 ISPHER=1 MAXIT=200 $END
 $SYSTEM MWORDS=63 MEMDDI=63 $END
 $GDDI NGROUP=1 $END
 $SCF DIRSCF=.TRUE. NPUNCH=0 $END
!*** NumCPU : 2  MemPerNode : 512MB
 $PCM SOLVNT=WATER IEF=-10 ICOMP=2 ICAV=1 IDISP=1 IFMO=-1 $END
 $PCMCAV RADII=SUAHF $END
 $TESCAV NTSALL=60 $END
 $FMOPRP
    NAODIR=200
    NGRFMO(1)=1, 1, 0, 0, 0,   0, 0, 0, 0, 0
    IPIEDA=1
    NPRINT=9
 $END
 $FMO
      SCFTYP(1)=RHF
      MODGRD=10
      MODMUL=0
      MAXCAO=5
      MAXBND=13
      NLAYER=1
      MPLEVL(1)=2
      NFRAG=11
      ICHARG(1)=-1, -1, -1, -1, 0, -1, -1, -1, -1, -1, 0
      FRGNAM(1)=F1, F2, F3, F4, F5, F6, F7, F8, F9, F10, F11
      indat(1)=0
               1   -35   0
               36   -65   0
               66   -99   0
               100   -133   0
               134   -165   0
               166   -195   0
               196   -226   0
               227   -259   0
               260   -292   0
               293   -325   0
               326   -352   0
 $END

 $FMOBND
   -36   35       6-31G*    MINI
   -66   65       6-31G*    MINI
   -100   99       6-31G*    MINI
   -134   133       6-31G*    MINI
   -166   165       6-31G*    MINI
   -196   195       6-31G*    MINI
   -227   226       6-31G*    MINI
   -260   259       6-31G*    MINI
   -293   292       6-31G*    MINI
   -326   325       6-31G*    MINI
 $END
 $FMOHYB
 6-31G*      15   5
   1 0  -0.065034   0.288264   0.000000   0.000000   0.604412
         0.290129   0.000000   0.000000   0.319045  -0.017106
        -0.017106   0.057934   0.000000   0.000000   0.000000
   0 1  -0.065040   0.288293   0.569832   0.000000  -0.201456
         0.290147   0.300783   0.000000  -0.106342   0.049598
        -0.017106  -0.008771   0.000000  -0.027223   0.000000
   0 1  -0.065039   0.288293  -0.284916  -0.493490  -0.201455
         0.290145  -0.150392  -0.260486  -0.106340  -0.000427
         0.032923  -0.008771   0.033353   0.013612   0.023576
   0 1  -0.065039   0.288293  -0.284916   0.493490  -0.201455
         0.290145  -0.150392   0.260486  -0.106340  -0.000427
         0.032923  -0.008771  -0.033353   0.013612  -0.023576
   0 1   1.010938  -0.011975   0.000000   0.000000   0.000000
        -0.054085   0.000000   0.000000  -0.000000  -0.003174
        -0.003174  -0.003174   0.000000   0.000000   0.000000
 MINI         5   5
   1 0  -0.104883   0.308874   0.000000   0.000000   0.521806
   0 1  -0.104883   0.308874   0.491961   0.000000  -0.173934
   0 1  -0.104883   0.308876  -0.245980  -0.426050  -0.173933
   0 1  -0.104883   0.308876  -0.245980   0.426050  -0.173933
   0 1   0.988209   0.063992   0.000000   0.000000   0.000000
 $END
 
 $DATA
 FMO calculation
 C1 
 H.1-1    1
      N31 6
   
 O.1-1    8
      N31 6
      d 1
      1 0.800 1.0
   
 C.1-1    6
      N31 6
      d 1
      1 0.800 1.0
   
 N.1-1    7
      N31 6
      d 1
      1 0.800 1.0
   
 P.1-1   15
      N31 6
      d 1
      1 0.550 1.0
   
 $END
 $FMOXYZ
    1    H    4.174    -3.741    0.588
    2    O    3.597    -3.524    -0.169
    3    C    3.464    -4.718    -0.955
    4    H    3.030    -5.524    -0.323
    5    H    4.467    -5.063    -1.292
    6    C    2.576    -4.523    -2.186
    7    H    2.525    -5.450    -2.792
    8    O    1.213    -4.202    -1.777
    9    C    0.680    -3.231    -2.664
    10    H    -0.265    -3.666    -3.066
    11    N    0.368    -1.980    -1.968
    12    C    -0.502    -0.035    -1.424
    13    N    0.320    -0.401    -0.367
    14    C    0.814    -1.560    -0.737
    15    H    1.511    -2.167    -0.152
    16    N    -2.009    1.150    -2.815
    17    C    -1.868    0.148    -3.689
    18    H    -2.448    0.247    -4.613
    19    N    -1.139    -0.969    -3.584
    20    C    -0.473    -0.996    -2.420
    21    C    -1.327    1.089    -1.644
    22    N    -1.482    2.082    -0.748
    23    H    -1.034    2.057    0.155
    24    H    -2.078    2.864    -0.954
    25    C    1.668    -3.048    -3.793
    26    H    1.663    -2.017    -4.202
    27    O    1.390    -3.979    -4.821
    28    H    2.098    -3.874    -5.467
    29    C    2.993    -3.363    -3.105
    30    H    3.285    -2.517    -2.439
    31    O    4.064    -3.787    -3.990
    32    P    5.084    -2.695    -4.511
    33    O    5.583    -1.913    -3.361
    34    O    6.106    -3.362    -5.343
    35    O    4.201    -1.770    -5.424
    36    C    3.676    -2.259    -6.677
    37    H    3.140    -3.226    -6.550
    38    H    4.507    -2.435    -7.391
    39    C    2.715    -1.249    -7.320
    40    H    2.257    -1.667    -8.241
    41    O    1.633    -0.924    -6.404
    42    C    1.269    0.437    -6.560
    43    H    0.193    0.429    -6.852
    44    N    1.447    1.213    -5.302
    45    C    2.284    0.773    -4.299
    46    H    2.823    -0.149    -4.511
    47    C    0.745    2.388    -5.173
    48    O    0.001    2.817    -6.048
    49    N    0.939    3.044    -3.986
    50    H    0.416    3.907    -3.897
    51    C    1.715    2.652    -2.919
    52    O    1.759    3.345    -1.904
    53    C    2.422    1.424    -3.132
    54    H    3.072    1.052    -2.344
    55    C    2.097    0.996    -7.703
    56    H    2.368    2.060    -7.543
    57    O    1.383    0.855    -8.916
    58    H    2.011    0.976    -9.647
    59    C    3.335    0.107    -7.671
    60    H    3.990    0.380    -6.813
    61    O    4.045    0.027    -8.927
    62    P    5.377    0.826    -9.171
    63    O    6.463    0.156    -8.427
    64    O    5.569    0.965    -10.632
    65    O    5.130    2.234    -8.527
    66    C    4.378    3.271    -9.188
    67    H    3.338    2.938    -9.394
    68    H    4.851    3.557    -10.155
    69    C    4.305    4.520    -8.300
    70    H    3.715    5.319    -8.797
    71    O    3.629    4.206    -7.049
    72    C    4.271    4.877    -5.984
    73    H    3.480    5.456    -5.460
    74    N    4.865    3.925    -5.028
    75    C    5.193    4.166    -3.716
    76    N    5.393    6.255    -0.956
    77    H    5.688    6.151    -0.005
    78    H    5.115    7.169    -1.257
    79    N    5.049    5.339    -3.061
    80    C    5.433    5.232    -1.782
    81    N    5.898    4.079    -1.218
    82    H    6.162    4.094    -0.245
    83    C    6.047    2.867    -1.864
    84    O    6.484    1.880    -1.263
    85    C    5.664    2.958    -3.228
    86    N    5.657    1.987    -4.219
    87    C    5.179    2.603    -5.269
    88    H    4.997    2.142    -6.239
    89    C    5.289    5.832    -6.583
    90    H    6.183    5.949    -5.937
    91    O    4.690    7.094    -6.833
    92    H    4.120    7.348    -6.097
    93    C    5.656    5.121    -7.883
    94    H    6.303    4.244    -7.651
    95    O    6.181    5.994    -8.930
    96    P    7.653    5.777    -9.432
    97    O    8.397    4.982    -8.436
    98    O    7.623    5.258    -10.814
    99    O    8.307    7.206    -9.441
    100    C    7.834    8.299    -10.250
    101    H    6.831    8.096    -10.697
    102    H    8.558    8.475    -11.082
    103    C    7.728    9.587    -9.425
    104    H    7.281    10.401    -10.034
    105    O    6.843    9.387    -8.284
    106    C    7.359    10.085    -7.164
    107    H    6.530    10.718    -6.782
    108    N    7.776    9.175    -6.093
    109    C    8.004    9.498    -4.782
    110    N    8.040    11.819    -2.214
    111    H    7.829    12.675    -2.684
    112    H    8.242    11.843    -1.231
    113    N    7.891    10.722    -4.233
    114    C    8.107    10.708    -2.923
    115    N    8.408    9.571    -2.220
    116    H    8.561    9.647    -1.227
    117    C    8.535    8.298    -2.760
    118    O    8.812    7.310    -2.070
    119    C    8.330    8.307    -4.162
    120    N    8.341    7.258    -5.074
    121    C    8.002    7.825    -6.204
    122    H    7.846    7.310    -7.148
    123    C    8.493    10.951    -7.658
    124    H    9.267    11.118    -6.883
    125    O    7.988    12.199    -8.097
    126    H    8.728    12.679    -8.488
    127    C    9.031    10.114    -8.818
    128    H    9.577    9.221    -8.435
    129    O    9.771    10.854    -9.820
    130    P    11.336    10.924    -9.677
    131    O    11.859    9.563    -9.432
    132    O    11.920    11.643    -10.834
    133    O    11.531    11.802    -8.383
    134    C    11.217    13.217    -8.435
    135    H    10.163    13.401    -8.742
    136    H    11.871    13.741    -9.172
    137    C    11.433    13.874    -7.069
    138    H    11.178    14.954    -7.103
    139    O    10.573    13.264    -6.061
    140    C    11.286    13.184    -4.835
    141    H    10.668    13.720    -4.076
    142    N    11.455    11.789    -4.412
    143    C    11.767    9.974    -3.209
    144    N    11.510    9.542    -4.502
    145    C    11.337    10.652    -5.177
    146    H    11.130    10.710    -6.247
    147    N    12.259    10.014    -0.895
    148    C    12.202    11.348    -0.984
    149    H    12.387    11.890    -0.049
    150    N    11.936    12.112    -2.050
    151    C    11.734    11.356    -3.140
    152    C    12.033    9.277    -2.011
    153    N    12.059    7.935    -1.923
    154    H    11.906    7.353    -2.725
    155    H    12.264    7.483    -1.052
    156    C    12.606    13.917    -5.015
    157    H    13.427    13.461    -4.418
    158    O    12.449    15.281    -4.656
    159    H    13.264    15.765    -4.877
    160    C    12.852    13.733    -6.508
    161    H    13.204    12.703    -6.724
    162    O    13.726    14.712    -7.098
    163    H    14.626    14.628    -6.730
    164    H    13.340    5.747    7.670
    165    O    13.217    6.550    7.129
    166    C    13.677    7.661    7.914
    167    H    14.757    7.525    8.138
    168    H    13.124    7.672    8.879
    169    C    13.481    9.023    7.232
    170    H    13.764    9.849    7.920
    171    O    14.336    9.126    6.052
    172    C    13.632    9.804    5.021
    173    H    14.275    10.667    4.724
    174    N    13.376    8.922    3.842
    175    C    13.438    7.547    3.948
    176    H    13.702    7.162    4.933
    177    C    13.074    9.518    2.637
    178    O    12.992    10.733    2.504
    179    N    12.868    8.651    1.595
    180    H    12.671    9.091    0.703
    181    C    12.945    7.274    1.617
    182    O    12.772    6.627    0.582
    183    C    13.235    6.726    2.907
    184    H    13.314    5.648    3.013
    185    C    12.349    10.334    5.638
    186    H    11.528    10.393    4.901
    187    O    12.560    11.615    6.204
    188    H    11.717    11.880    6.597
    189    C    12.065    9.288    6.707
    190    H    11.706    8.344    6.235
    191    O    11.224    9.728    7.792
    192    P    9.666    9.529    7.727
    193    O    9.378    8.139    7.313
    194    O    9.091    9.997    9.011
    195    O    9.235    10.508    6.569
    196    C    9.212    11.935    6.810
    197    H    10.211    12.307    7.140
    198    H    8.481    12.175    7.615
    199    C    8.783    12.720    5.558
    200    H    8.740    13.812    5.780
    201    O    9.757    12.532    4.476
    202    C    9.057    12.436    3.229
    203    H    9.500    13.216    2.570
    204    N    9.196    11.105    2.556
    205    C    9.535    9.995    3.289
    206    H    9.691    10.160    4.354
    207    C    9.693    8.795    2.714
    208    H    10.010    7.920    3.276
    209    C    8.929    10.968    1.193
    210    O    8.586    11.964    0.538
    211    N    9.045    9.756    0.602
    212    C    9.431    8.687    1.320
    213    N    9.578    7.513    0.706
    214    H    9.405    7.449    -0.280
    215    H    9.883    6.694    1.189
    216    C    7.611    12.788    3.499
    217    H    6.931    12.257    2.808
    218    O    7.402    14.187    3.393
    219    H    6.515    14.374    3.737
    220    C    7.445    12.292    4.927
    221    H    7.437    11.177    4.934
    222    O    6.323    12.875    5.623
    223    P    5.113    11.999    6.134
    224    O    5.528    10.605    6.392
    225    O    4.453    12.717    7.250
    226    O    4.119    11.999    4.918
    227    C    4.355    11.386    3.642
    228    H    3.733    10.470    3.545
    229    H    5.408    11.050    3.530
    230    C    3.969    12.350    2.515
    231    H    4.023    13.409    2.846
    232    O    4.934    12.213    1.441
    233    C    4.289    12.364    0.190
    234    H    4.769    13.234    -0.316
    235    N    4.474    11.167    -0.633
    236    C    4.683    9.765    -2.311
    237    N    4.999    9.054    -1.171
    238    C    4.861    9.921    -0.202
    239    H    5.036    9.713    0.857
    240    N    4.331    10.355    -4.566
    241    C    3.989    11.567    -4.118
    242    H    3.689    12.285    -4.888
    243    N    3.960    12.025    -2.857
    244    C    4.342    11.067    -1.998
    245    C    4.700    9.409    -3.672
    246    N    5.090    8.201    -4.118
    247    H    5.140    7.378    -3.544
    248    H    5.365    8.125    -5.073
    249    C    2.829    12.675    0.447
    250    H    2.159    12.195    -0.293
    251    O    2.609    14.067    0.428
    252    H    1.702    14.193    0.735
    253    C    2.613    12.096    1.841
    254    H    2.532    10.985    1.767
    255    O    1.535    12.718    2.596
    256    P    0.167    11.937    2.702
    257    O    0.422    10.483    2.779
    258    O    -0.641    12.543    3.781
    259    O    -0.506    12.236    1.319
    260    C    -0.954    13.547    0.928
    261    H    -0.173    14.317    1.124
    262    H    -1.868    13.829    1.499
    263    C    -1.290    13.573    -0.570
    264    H    -1.622    14.584    -0.889
    265    O    -0.088    13.253    -1.336
    266    C    -0.432    12.437    -2.442
    267    H    -0.057    12.962    -3.350
    268    N    0.200    11.111    -2.348
    269    C    1.168    9.201    -2.848
    270    N    1.155    9.276    -1.462
    271    C    0.555    10.413    -1.215
    272    H    0.367    10.809    -0.220
    273    N    1.500    8.442    -5.061
    274    C    0.899    9.574    -5.452
    275    H    0.796    9.700    -6.532
    276    N    0.403    10.575    -4.710
    277    C    0.576    10.320    -3.404
    278    C    1.657    8.222    -3.732
    279    N    2.268    7.109    -3.287
    280    H    2.328    6.908    -2.307
    281    H    2.542    6.409    -3.937
    282    C    -1.943    12.361    -2.505
    283    H    -2.294    11.380    -2.879
    284    O    -2.451    13.402    -3.321
    285    H    -3.412    13.385    -3.228
    286    C    -2.337    12.545    -1.042
    287    H    -2.140    11.608    -0.471
    288    O    -3.677    13.057    -0.842
    289    P    -4.862    12.068    -0.517
    290    O    -4.447    11.156    0.570
    291    O    -6.094    12.841    -0.253
    292    O    -5.066    11.246    -1.838
    293    C    -5.574    11.872    -3.041
    294    H    -5.085    12.853    -3.244
    295    H    -6.663    12.072    -2.944
    296    C    -5.379    10.963    -4.265
    297    H    -5.764    11.453    -5.185
    298    O    -3.958    10.716    -4.465
    299    C    -3.759    9.377    -4.879
    300    H    -3.168    9.416    -5.823
    301    N    -3.018    8.613    -3.865
    302    C    -1.695    7.163    -2.869
    303    N    -2.188    7.987    -1.870
    304    C    -2.969    8.821    -2.506
    305    H    -3.530    9.623    -2.031
    306    N    -0.553    5.454    -4.026
    307    C    -1.142    5.913    -5.134
    308    H    -0.894    5.371    -6.052
    309    N    -1.980    6.944    -5.281
    310    C    -2.210    7.534    -4.101
    311    C    -0.805    6.069    -2.845
    312    N    -0.188    5.622    -1.733
    313    H    -0.392    6.004    -0.824
    314    H    0.432    4.838    -1.779
    315    C    -5.122    8.789    -5.165
    316    H    -5.158    7.699    -4.987
    317    O    -5.495    9.055    -6.504
    318    H    -6.399    8.734    -6.613
    319    C    -5.993    9.556    -4.175
    320    H    -5.810    9.196    -3.135
    321    O    -7.392    9.609    -4.520
    322    P    -8.407    8.605    -3.865
    323    O    -8.081    8.434    -2.435
    324    O    -9.780    9.040    -4.198
    325    O    -8.092    7.246    -4.589
    326    C    -8.376    7.061    -5.991
    327    H    -7.928    7.872    -6.609
    328    H    -9.477    7.064    -6.160
    329    C    -7.850    5.719    -6.514
    330    H    -8.150    5.572    -7.574
    331    O    -6.392    5.701    -6.484
    332    C    -5.947    4.396    -6.136
    333    H    -5.276    4.072    -6.967
    334    N    -5.208    4.397    -4.836
    335    C    -5.388    5.405    -3.913
    336    H    -6.113    6.165    -4.195
    337    C    -4.383    3.332    -4.554
    338    O    -4.253    2.379    -5.315
    339    N    -3.728    3.410    -3.352
    340    H    -3.110    2.633    -3.145
    341    C    -3.833    4.400    -2.399
    342    O    -3.183    4.326    -1.358
    343    C    -4.735    5.456    -2.744
    344    H    -4.878    6.276    -2.042
    345    C    -7.173    3.492    -6.102
    346    H    -7.074    2.702    -5.327
    347    O    -7.399    2.887    -7.370
    348    H    -8.274    2.457    -7.363
    349    C    -8.269    4.479    -5.719
    350    H    -8.210    4.725    -4.638
    351    O    -9.600    4.071    -6.082
    352    H    -9.847    3.261    -5.594
 $END
