!*** FMO 5.3 (Gamess) INPUT generated by Facio 22.1.1.32 ***
 $CONTRL RUNTYP=ENERGY NPRINT=-5 ISPHER=1 MAXIT=200 $END
 $SYSTEM MWORDS=63 MEMDDI=63 $END
 $GDDI NGROUP=1 $END
 $SCF DIRSCF=.TRUE. NPUNCH=0 $END
!*** NumCPU : 2  MemPerNode : 512MB
 $PCM SOLVNT=WATER IEF=-10 ICOMP=2 ICAV=1 IDISP=1 IFMO=-1 $END
 $PCMCAV RADII=SUAHF $END
 $TESCAV NTSALL=60 $END
 $FMOPRP
    NAODIR=200
    NGRFMO(1)=1, 1, 0, 0, 0,   0, 0, 0, 0, 0
    IPIEDA=1
    NPRINT=9
 $END
 $FMO
      SCFTYP(1)=RHF
      MODGRD=10
      MODMUL=0
      MAXCAO=5
      MAXBND=13
      NLAYER=1
      MPLEVL(1)=2
      NFRAG=11
      ICHARG(1)=-1, -1, -1, -1, 0, -1, -1, -1, -1, -1, 0
      FRGNAM(1)=F1, F2, F3, F4, F5, F6, F7, F8, F9, F10, F11
      indat(1)=0
               1   -35   0
               36   -65   0
               66   -99   0
               100   -133   0
               134   -165   0
               166   -195   0
               196   -226   0
               227   -259   0
               260   -292   0
               293   -325   0
               326   -352   0
 $END

 $FMOBND
   -36   35       6-31G*    MINI
   -66   65       6-31G*    MINI
   -100   99       6-31G*    MINI
   -134   133       6-31G*    MINI
   -166   165       6-31G*    MINI
   -196   195       6-31G*    MINI
   -227   226       6-31G*    MINI
   -260   259       6-31G*    MINI
   -293   292       6-31G*    MINI
   -326   325       6-31G*    MINI
 $END
 $FMOHYB
 6-31G*      15   5
   1 0  -0.065034   0.288264   0.000000   0.000000   0.604412
         0.290129   0.000000   0.000000   0.319045  -0.017106
        -0.017106   0.057934   0.000000   0.000000   0.000000
   0 1  -0.065040   0.288293   0.569832   0.000000  -0.201456
         0.290147   0.300783   0.000000  -0.106342   0.049598
        -0.017106  -0.008771   0.000000  -0.027223   0.000000
   0 1  -0.065039   0.288293  -0.284916  -0.493490  -0.201455
         0.290145  -0.150392  -0.260486  -0.106340  -0.000427
         0.032923  -0.008771   0.033353   0.013612   0.023576
   0 1  -0.065039   0.288293  -0.284916   0.493490  -0.201455
         0.290145  -0.150392   0.260486  -0.106340  -0.000427
         0.032923  -0.008771  -0.033353   0.013612  -0.023576
   0 1   1.010938  -0.011975   0.000000   0.000000   0.000000
        -0.054085   0.000000   0.000000  -0.000000  -0.003174
        -0.003174  -0.003174   0.000000   0.000000   0.000000
 MINI         5   5
   1 0  -0.104883   0.308874   0.000000   0.000000   0.521806
   0 1  -0.104883   0.308874   0.491961   0.000000  -0.173934
   0 1  -0.104883   0.308876  -0.245980  -0.426050  -0.173933
   0 1  -0.104883   0.308876  -0.245980   0.426050  -0.173933
   0 1   0.988209   0.063992   0.000000   0.000000   0.000000
 $END
 
 $DATA
 FMO calculation
 C1 
 H.1-1    1
      N31 6
   
 O.1-1    8
      N31 6
      d 1
      1 0.800 1.0
   
 C.1-1    6
      N31 6
      d 1
      1 0.800 1.0
   
 N.1-1    7
      N31 6
      d 1
      1 0.800 1.0
   
 P.1-1   15
      N31 6
      d 1
      1 0.550 1.0
   
 $END
 $FMOXYZ
    1    H    4.595    -4.372    0.735
    2    O    4.157    -4.105    -0.095
    3    C    4.091    -5.274    -0.924
    4    H    3.635    -6.108    -0.345
    5    H    5.123    -5.579    -1.206
    6    C    3.286    -5.057    -2.207
    7    H    3.311    -5.959    -2.850
    8    O    1.888    -4.809    -1.880
    9    C    1.368    -3.834    -2.769
    10    H    0.472    -4.297    -3.250
    11    N    0.958    -2.627    -2.048
    12    C    -0.023    -0.742    -1.487
    13    N    0.751    -1.115    -0.395
    14    C    1.309    -2.241    -0.775
    15    H    1.995    -2.842    -0.171
    16    N    -1.485    0.441    -2.928
    17    C    -1.242    -0.516    -3.830
    18    H    -1.759    -0.396    -4.788
    19    N    -0.484    -1.613    -3.718
    20    C    0.105    -1.661    -2.514
    21    C    -0.882    0.355    -1.715
    22    N    -1.134    1.304    -0.795
    23    H    -0.706    1.280    0.118
    24    H    -1.734    2.079    -1.009
    25    C    2.424    -3.562    -3.819
    26    H    2.392    -2.522    -4.205
    27    O    2.263    -4.470    -4.889
    28    H    2.992    -4.313    -5.503
    29    C    3.708    -3.841    -3.045
    30    H    3.913    -3.012    -2.328
    31    O    4.855    -4.186    -3.859
    32    P    5.867    -3.051    -4.268
    33    O    6.168    -2.209    -3.093
    34    O    7.028    -3.660    -4.954
    35    O    5.051    -2.180    -5.289
    36    C    4.694    -2.713    -6.583
    37    H    4.141    -3.671    -6.485
    38    H    5.609    -2.918    -7.184
    39    C    3.821    -1.729    -7.375
    40    H    3.543    -2.152    -8.365
    41    O    2.581    -1.466    -6.657
    42    C    2.208    -0.106    -6.837
    43    H    1.191    -0.124    -7.294
    44    N    2.167    0.637    -5.549
    45    C    2.826    0.169    -4.434
    46    H    3.376    -0.759    -4.575
    47    C    1.436    1.803    -5.498
    48    O    0.844    2.261    -6.470
    49    N    1.411    2.409    -4.272
    50    H    0.824    3.235    -4.213
    51    C    1.986    1.971    -3.103
    52    O    1.825    2.605    -2.063
    53    C    2.744    0.765    -3.236
    54    H    3.231    0.352    -2.356
    55    C    3.189    0.500    -7.822
    56    H    3.393    1.573    -7.621
    57    O    2.695    0.339    -9.141
    58    H    3.411    0.590    -9.738
    59    C    4.437    -0.342    -7.587
    60    H    4.929    -0.061    -6.623
    61    O    5.352    -0.376    -8.704
    62    P    6.562    0.626    -8.747
    63    O    7.244    0.621    -7.433
    64    O    7.405    0.305    -9.922
    65    O    5.915    2.040    -8.944
    66    C    5.234    2.427    -10.155
    67    H    4.454    1.686    -10.445
    68    H    5.950    2.496    -10.999
    69    C    4.572    3.804    -10.000
    70    H    4.011    4.087    -10.916
    71    O    3.611    3.758    -8.913
    72    C    3.670    4.969    -8.183
    73    H    2.635    5.382    -8.180
    74    N    4.092    4.741    -6.799
    75    C    3.779    5.543    -5.741
    76    N    2.235    8.366    -4.452
    77    H    1.841    8.788    -5.270
    78    H    1.972    8.716    -3.553
    79    N    3.050    6.678    -5.798
    80    C    2.907    7.233    -4.601
    81    N    3.365    6.656    -3.450
    82    H    3.421    7.250    -2.638
    83    C    4.143    5.516    -3.359
    84    O    4.533    5.111    -2.259
    85    C    4.335    4.924    -4.635
    86    N    5.016    3.766    -5.000
    87    C    4.849    3.701    -6.299
    88    H    5.234    2.911    -6.941
    89    C    4.586    5.917    -8.927
    90    H    5.142    6.595    -8.249
    91    O    3.835    6.684    -9.849
    92    H    4.466    7.156    -10.407
    93    C    5.527    4.954    -9.638
    94    H    6.271    4.534    -8.920
    95    O    6.133    5.489    -10.838
    96    P    7.565    6.143    -10.753
    97    O    8.450    5.222    -10.005
    98    O    7.997    6.470    -12.134
    99    O    7.362    7.457    -9.907
    100    C    6.804    8.636    -10.535
    101    H    5.741    8.469    -10.822
    102    H    7.365    8.914    -11.454
    103    C    6.865    9.851    -9.599
    104    H    6.495    10.764    -10.114
    105    O    5.988    9.630    -8.456
    106    C    6.604    10.162    -7.292
    107    H    5.871    10.875    -6.851
    108    N    6.893    9.108    -6.307
    109    C    7.120    9.288    -4.969
    110    N    7.540    11.394    -2.252
    111    H    7.367    12.295    -2.646
    112    H    7.797    11.326    -1.284
    113    N    7.153    10.468    -4.325
    114    C    7.432    10.332    -3.032
    115    N    7.621    9.115    -2.432
    116    H    7.806    9.098    -1.441
    117    C    7.540    7.876    -3.060
    118    O    7.701    6.821    -2.438
    119    C    7.295    8.018    -4.451
    120    N    7.203    7.057    -5.450
    121    C    6.978    7.753    -6.538
    122    H    6.849    7.347    -7.540
    123    C    7.841    10.922    -7.725
    124    H    8.645    10.897    -6.964
    125    O    7.505    12.266    -8.010
    126    H    8.300    12.688    -8.357
    127    C    8.238    10.166    -8.986
    128    H    8.688    9.185    -8.712
    129    O    9.038    10.924    -9.927
    130    P    10.603    10.746    -9.904
    131    O    10.932    9.313    -9.776
    132    O    11.202    11.457    -11.058
    133    O    11.054    11.470    -8.578
    134    C    10.998    12.917    -8.519
    135    H    9.973    13.297    -8.737
    136    H    11.692    13.371    -9.267
    137    C    11.407    13.425    -7.132
    138    H    11.388    14.534    -7.088
    139    O    10.472    12.935    -6.129
    140    C    11.186    12.628    -4.941
    141    H    10.723    13.234    -4.130
    142    N    11.059    11.205    -4.607
    143    C    10.980    9.289    -3.533
    144    N    10.609    9.014    -4.842
    145    C    10.676    10.179    -5.437
    146    H    10.472    10.355    -6.494
    147    N    11.496    9.065    -1.234
    148    C    11.742    10.379    -1.240
    149    H    12.067    10.799    -0.283
    150    N    11.674    11.246    -2.257
    151    C    11.267    10.634    -3.379
    152    C    11.103    8.472    -2.389
    153    N    10.842    7.154    -2.385
    154    H    10.528    6.674    -3.205
    155    H    10.942    6.620    -1.541
    156    C    12.630    13.066    -5.133
    157    H    13.346    12.396    -4.612
    158    O    12.794    14.400    -4.677
    159    H    13.666    14.722    -4.959
    160    C    12.781    12.946    -6.645
    161    H    12.903    11.881    -6.939
    162    O    13.830    13.757    -7.202
    163    H    14.692    13.417    -6.912
    164    H    11.827    4.107    6.996
    165    O    11.866    4.952    6.511
    166    C    12.587    5.871    7.345
    167    H    13.617    5.479    7.505
    168    H    12.096    5.927    8.342
    169    C    12.687    7.291    6.766
    170    H    13.175    7.973    7.495
    171    O    13.519    7.283    5.566
    172    C    12.971    8.173    4.605
    173    H    13.791    8.874    4.327
    174    N    12.475    7.455    3.393
    175    C    12.214    6.100    3.416
    176    H    12.420    5.597    4.361
    177    C    12.310    8.179    2.233
    178    O    12.564    9.378    2.164
    179    N    11.856    7.459    1.157
    180    H    11.755    7.984    0.296
    181    C    11.632    6.099    1.092
    182    O    11.308    5.577    0.026
    183    C    11.815    5.414    2.336
    184    H    11.673    4.336    2.369
    185    C    11.866    8.948    5.301
    186    H    11.061    9.239    4.600
    187    O    12.388    10.103    5.930
    188    H    11.644    10.524    6.377
    189    C    11.367    7.930    6.319
    190    H    10.795    7.134    5.798
    191    O    10.667    8.479    7.463
    192    P    9.091    8.572    7.426
    193    O    8.546    7.285    6.940
    194    O    8.605    9.039    8.742
    195    O    8.810    9.700    6.359
    196    C    9.220    11.070    6.611
    197    H    10.282    11.137    6.943
    198    H    8.609    11.519    7.425
    199    C    9.047    11.958    5.366
    200    H    9.367    13.001    5.573
    201    O    9.872    11.460    4.271
    202    C    9.171    11.623    3.041
    203    H    9.836    12.235    2.389
    204    N    8.880    10.331    2.351
    205    C    8.895    9.150    3.054
    206    H    9.139    9.229    4.113
    207    C    8.656    7.976    2.456
    208    H    8.720    7.030    2.989
    209    C    8.515    10.321    1.007
    210    O    8.421    11.398    0.398
    211    N    8.267    9.146    0.384
    212    C    8.352    7.991    1.065
    213    N    8.155    6.842    0.421
    214    H    7.960    6.852    -0.563
    215    H    8.184    5.957    0.891
    216    C    7.914    12.412    3.341
    217    H    7.073    12.144    2.672
    218    O    8.172    13.796    3.245
    219    H    7.363    14.245    3.523
    220    C    7.628    12.006    4.781
    221    H    7.243    10.960    4.814
    222    O    6.814    12.945    5.526
    223    P    5.265    12.685    5.641
    224    O    5.030    11.234    5.773
    225    O    4.702    13.545    6.704
    226    O    4.694    13.154    4.258
    227    C    4.783    14.521    3.801
    228    H    5.805    14.938    3.950
    229    H    4.069    15.165    4.360
    230    C    4.450    14.627    2.306
    231    H    4.564    15.669    1.940
    232    O    5.389    13.797    1.562
    233    C    4.706    13.121    0.528
    234    H    5.246    13.375    -0.417
    235    N    4.728    11.670    0.725
    236    C    4.719    9.514    0.323
    237    N    4.924    9.645    1.688
    238    C    4.916    10.942    1.875
    239    H    5.063    11.428    2.836
    240    N    4.463    8.639    -1.847
    241    C    4.296    9.891    -2.268
    242    H    4.125    10.010    -3.343
    243    N    4.331    11.016    -1.561
    244    C    4.574    10.756    -0.270
    245    C    4.671    8.396    -0.529
    246    N    4.812    7.124    -0.111
    247    H    4.886    6.884    0.862
    248    H    4.741    6.371    -0.771
    249    C    3.302    13.666    0.464
    250    H    2.562    12.895    0.168
    251    O    3.256    14.759    -0.431
    252    H    2.371    15.138    -0.358
    253    C    3.058    14.109    1.898
    254    H    2.845    13.224    2.543
    255    O    2.072    15.156    2.031
    256    P    0.591    14.845    2.456
    257    O    0.589    13.822    3.520
    258    O    -0.077    16.129    2.762
    259    O    -0.084    14.219    1.183
    260    C    -0.203    14.866    -0.100
    261    H    0.700    15.470    -0.339
    262    H    -1.068    15.565    -0.097
    263    C    -0.427    13.853    -1.244
    264    H    -0.490    14.380    -2.219
    265    O    0.708    12.949    -1.323
    266    C    0.263    11.628    -1.564
    267    H    0.816    11.272    -2.466
    268    N    0.563    10.751    -0.420
    269    C    1.095    9.018    0.831
    270    N    0.873    10.066    1.704
    271    C    0.550    11.063    0.922
    272    H    0.302    12.056    1.280
    273    N    1.510    6.870    -0.044
    274    C    1.293    7.410    -1.241
    275    H    1.375    6.711    -2.073
    276    N    1.037    8.674    -1.588
    277    C    0.911    9.428    -0.484
    278    C    1.430    7.665    1.045
    279    N    1.684    7.131    2.253
    280    H    1.679    7.678    3.096
    281    H    1.966    6.169    2.319
    282    C    -1.218    11.687    -1.872
    283    H    -1.767    10.789    -1.515
    284    O    -1.416    11.834    -3.265
    285    H    -2.377    11.863    -3.417
    286    C    -1.654    12.938    -1.099
    287    H    -1.739    12.701    -0.015
    288    O    -2.840    13.612    -1.588
    289    P    -4.218    12.851    -1.495
    290    O    -4.176    11.883    -0.376
    291    O    -5.298    13.861    -1.473
    292    O    -4.296    12.053    -2.851
    293    C    -5.285    10.995    -2.996
    294    H    -6.320    11.408    -3.003
    295    H    -5.212    10.272    -2.148
    296    C    -5.074    10.186    -4.296
    297    H    -5.459    10.745    -5.175
    298    O    -3.647    9.970    -4.521
    299    C    -3.431    8.657    -4.995
    300    H    -2.811    8.736    -5.918
    301    N    -2.722    7.864    -3.987
    302    C    -1.461    6.367    -2.989
    303    N    -1.966    7.180    -1.984
    304    C    -2.697    8.057    -2.624
    305    H    -3.246    8.879    -2.157
    306    N    -0.310    4.665    -4.154
    307    C    -0.849    5.165    -5.271
    308    H    -0.583    4.640    -6.194
    309    N    -1.662    6.216    -5.415
    310    C    -1.924    6.779    -4.227
    311    C    -0.605    5.246    -2.968
    312    N    -0.066    4.728    -1.850
    313    H    -0.232    5.121    -0.938
    314    H    0.564    3.949    -1.907
    315    C    -4.781    8.078    -5.341
    316    H    -4.809    6.975    -5.245
    317    O    -5.138    8.445    -6.661
    318    H    -6.036    8.125    -6.814
    319    C    -5.668    8.763    -4.307
    320    H    -5.484    8.336    -3.293
    321    O    -7.069    8.808    -4.653
    322    P    -8.036    7.695    -4.108
    323    O    -7.737    7.485    -2.677
    324    O    -9.427    8.058    -4.460
    325    O    -7.607    6.398    -4.886
    326    C    -7.835    6.255    -6.302
    327    H    -7.406    7.111    -6.868
    328    H    -8.927    6.217    -6.513
    329    C    -7.223    4.957    -6.848
    330    H    -7.445    4.843    -7.932
    331    O    -5.772    4.988    -6.705
    332    C    -5.302    3.688    -6.370
    333    H    -4.558    3.422    -7.157
    334    N    -4.661    3.660    -5.020
    335    C    -4.931    4.634    -4.084
    336    H    -5.644    5.391    -4.398
    337    C    -3.796    2.631    -4.727
    338    O    -3.539    1.737    -5.528
    339    N    -3.248    2.674    -3.470
    340    H    -2.609    1.919    -3.251
    341    C    -3.476    3.611    -2.484
    342    O    -2.945    3.493    -1.382
    343    C    -4.361    4.667    -2.872
    344    H    -4.579    5.461    -2.161
    345    C    -6.494    2.741    -6.465
    346    H    -6.422    1.917    -5.725
    347    O    -6.594    2.203    -7.776
    348    H    -7.446    1.743    -7.863
    349    C    -7.653    3.673    -6.127
    350    H    -7.684    3.873    -5.032
    351    O    -8.936    3.227    -6.600
    352    H    -9.197    2.412    -6.132
 $END
