!*** FMO 5.3 (Gamess) INPUT generated by Facio 22.1.1.32 ***
 $CONTRL RUNTYP=ENERGY NPRINT=-5 ISPHER=1 MAXIT=200 $END
 $SYSTEM MWORDS=63 MEMDDI=63 $END
 $GDDI NGROUP=1 $END
 $SCF DIRSCF=.TRUE. NPUNCH=0 $END
!*** NumCPU : 2  MemPerNode : 512MB
 $PCM SOLVNT=WATER IEF=-10 ICOMP=2 ICAV=1 IDISP=1 IFMO=-1 $END
 $PCMCAV RADII=SUAHF $END
 $TESCAV NTSALL=60 $END
 $FMOPRP
    NAODIR=200
    NGRFMO(1)=1, 1, 0, 0, 0,   0, 0, 0, 0, 0
    IPIEDA=1
    NPRINT=9
 $END
 $FMO
      SCFTYP(1)=RHF
      MODGRD=10
      MODMUL=0
      MAXCAO=5
      MAXBND=13
      NLAYER=1
      MPLEVL(1)=2
      NFRAG=11
      ICHARG(1)=-1, -1, -1, -1, 0, -1, -1, -1, -1, -1, 0
      FRGNAM(1)=F1, F2, F3, F4, F5, F6, F7, F8, F9, F10, F11
      indat(1)=0
               1   -35   0
               36   -65   0
               66   -99   0
               100   -133   0
               134   -165   0
               166   -195   0
               196   -226   0
               227   -259   0
               260   -292   0
               293   -325   0
               326   -352   0
 $END

 $FMOBND
   -36   35       6-31G*    MINI
   -66   65       6-31G*    MINI
   -100   99       6-31G*    MINI
   -134   133       6-31G*    MINI
   -166   165       6-31G*    MINI
   -196   195       6-31G*    MINI
   -227   226       6-31G*    MINI
   -260   259       6-31G*    MINI
   -293   292       6-31G*    MINI
   -326   325       6-31G*    MINI
 $END
 $FMOHYB
 6-31G*      15   5
   1 0  -0.065034   0.288264   0.000000   0.000000   0.604412
         0.290129   0.000000   0.000000   0.319045  -0.017106
        -0.017106   0.057934   0.000000   0.000000   0.000000
   0 1  -0.065040   0.288293   0.569832   0.000000  -0.201456
         0.290147   0.300783   0.000000  -0.106342   0.049598
        -0.017106  -0.008771   0.000000  -0.027223   0.000000
   0 1  -0.065039   0.288293  -0.284916  -0.493490  -0.201455
         0.290145  -0.150392  -0.260486  -0.106340  -0.000427
         0.032923  -0.008771   0.033353   0.013612   0.023576
   0 1  -0.065039   0.288293  -0.284916   0.493490  -0.201455
         0.290145  -0.150392   0.260486  -0.106340  -0.000427
         0.032923  -0.008771  -0.033353   0.013612  -0.023576
   0 1   1.010938  -0.011975   0.000000   0.000000   0.000000
        -0.054085   0.000000   0.000000  -0.000000  -0.003174
        -0.003174  -0.003174   0.000000   0.000000   0.000000
 MINI         5   5
   1 0  -0.104883   0.308874   0.000000   0.000000   0.521806
   0 1  -0.104883   0.308874   0.491961   0.000000  -0.173934
   0 1  -0.104883   0.308876  -0.245980  -0.426050  -0.173933
   0 1  -0.104883   0.308876  -0.245980   0.426050  -0.173933
   0 1   0.988209   0.063992   0.000000   0.000000   0.000000
 $END
 
 $DATA
 FMO calculation
 C1 
 H.1-1    1
      N31 6
   
 O.1-1    8
      N31 6
      d 1
      1 0.800 1.0
   
 C.1-1    6
      N31 6
      d 1
      1 0.800 1.0
   
 N.1-1    7
      N31 6
      d 1
      1 0.800 1.0
   
 P.1-1   15
      N31 6
      d 1
      1 0.550 1.0
   
 $END
 $FMOXYZ
    1    H    4.257    -3.403    1.315
    2    O    3.739    -3.234    0.503
    3    C    3.741    -4.440    -0.278
    4    H    3.317    -5.269    0.330
    5    H    4.786    -4.717    -0.546
    6    C    2.928    -4.305    -1.568
    7    H    2.972    -5.235    -2.170
    8    O    1.528    -4.054    -1.249
    9    C    0.989    -3.147    -2.195
    10    H    0.107    -3.659    -2.652
    11    N    0.548    -1.907    -1.546
    12    C    -0.472    -0.013    -1.093
    13    N    0.307    -0.307    0.019
    14    C    0.890    -1.441    -0.297
    15    H    1.586    -1.993    0.339
    16    N    -1.968    1.049    -2.592
    17    C    -1.701    0.050    -3.441
    18    H    -2.224    0.100    -4.403
    19    N    -0.908    -1.015    -3.273
    20    C    -0.322    -0.985    -2.067
    21    C    -1.356    1.050    -1.379
    22    N    -1.622    2.048    -0.514
    23    H    -1.207    2.078    0.403
    24    H    -2.249    2.788    -0.769
    25    C    2.046    -2.910    -3.251
    26    H    1.999    -1.891    -3.686
    27    O    1.904    -3.878    -4.269
    28    H    2.631    -3.746    -4.890
    29    C    3.333    -3.123    -2.460
    30    H    3.518    -2.254    -1.786
    31    O    4.494    -3.479    -3.249
    32    P    5.455    -2.337    -3.761
    33    O    5.759    -1.439    -2.629
    34    O    6.616    -2.956    -4.438
    35    O    4.591    -1.552    -4.809
    36    C    4.220    -2.146    -6.070
    37    H    3.752    -3.145    -5.926
    38    H    5.124    -2.292    -6.701
    39    C    3.240    -1.260    -6.852
    40    H    2.923    -1.758    -7.794
    41    O    2.036    -1.019    -6.067
    42    C    1.568    0.300    -6.305
    43    H    0.531    0.197    -6.699
    44    N    1.561    1.124    -5.060
    45    C    2.368    0.810    -3.986
    46    H    3.017    -0.052    -4.128
    47    C    0.731    2.221    -5.018
    48    O    0.016    2.552    -5.958
    49    N    0.751    2.912    -3.838
    50    H    0.176    3.749    -3.834
    51    C    1.488    2.633    -2.709
    52    O    1.374    3.338    -1.709
    53    C    2.341    1.489    -2.830
    54    H    2.956    1.201    -1.980
    55    C    2.451    0.898    -7.386
    56    H    2.600    1.984    -7.239
    57    O    1.899    0.652    -8.668
    58    H    2.592    0.829    -9.321
    59    C    3.758    0.142    -7.192
    60    H    4.294    0.512    -6.287
    61    O    4.594    0.097    -8.370
    62    P    5.789    1.111    -8.534
    63    O    6.834    0.767    -7.546
    64    O    6.196    1.094    -9.955
    65    O    5.201    2.530    -8.173
    66    C    4.382    3.257    -9.123
    67    H    3.500    2.650    -9.427
    68    H    4.962    3.502    -10.043
    69    C    3.866    4.577    -8.530
    70    H    3.195    5.105    -9.242
    71    O    3.086    4.298    -7.331
    72    C    3.357    5.270    -6.341
    73    H    2.362    5.676    -6.079
    74    N    3.937    4.674    -5.125
    75    C    3.771    5.102    -3.824
    76    N    2.472    7.325    -1.488
    77    H    2.397    7.379    -0.496
    78    H    1.935    7.965    -2.048
    79    N    3.039    6.162    -3.412
    80    C    3.078    6.313    -2.087
    81    N    3.748    5.463    -1.248
    82    H    3.711    5.637    -0.262
    83    C    4.488    4.356    -1.643
    84    O    5.067    3.637    -0.822
    85    C    4.483    4.201    -3.053
    86    N    5.083    3.233    -3.844
    87    C    4.733    3.551    -5.065
    88    H    5.017    3.000    -5.960
    89    C    4.234    6.346    -6.968
    90    H    4.974    6.772    -6.255
    91    O    3.424    7.384    -7.505
    92    H    3.096    7.945    -6.787
    93    C    4.948    5.562    -8.067
    94    H    5.745    4.931    -7.607
    95    O    5.410    6.383    -9.173
    96    P    6.927    6.301    -9.581
    97    O    7.733    6.085    -8.361
    98    O    7.048    5.292    -10.656
    99    O    7.276    7.703    -10.210
    100    C    8.531    8.360    -9.917
    101    H    9.049    8.605    -10.872
    102    H    9.242    7.705    -9.347
    103    C    8.294    9.672    -9.153
    104    H    7.764    10.414    -9.786
    105    O    7.458    9.437    -7.980
    106    C    7.948    10.200    -6.891
    107    H    7.090    10.785    -6.487
    108    N    8.489    9.339    -5.834
    109    C    8.696    9.689    -4.528
    110    N    8.492    12.012    -1.969
    111    H    8.156    12.829    -2.432
    112    H    8.682    12.055    -0.983
    113    N    8.441    10.892    -3.982
    114    C    8.677    10.911    -2.674
    115    N    9.143    9.826    -1.978
    116    H    9.296    9.921    -0.985
    117    C    9.435    8.580    -2.520
    118    O    9.856    7.647    -1.827
    119    C    9.198    8.555    -3.918
    120    N    9.337    7.519    -4.833
    121    C    8.887    8.027    -5.955
    122    H    8.801    7.496    -6.905
    123    C    8.990    11.141    -7.445
    124    H    9.758    11.412    -6.694
    125    O    8.365    12.312    -7.924
    126    H    9.046    12.828    -8.370
    127    C    9.573    10.318    -8.589
    128    H    10.202    9.491    -8.188
    129    O    10.244    11.078    -9.623
    130    P    11.789    11.371    -9.490
    131    O    12.488    10.093    -9.234
    132    O    12.231    12.137    -10.674
    133    O    11.888    12.290    -8.217
    134    C    11.402    13.653    -8.288
    135    H    10.338    13.695    -8.611
    136    H    11.986    14.240    -9.033
    137    C    11.536    14.351    -6.928
    138    H    11.142    15.388    -6.967
    139    O    10.775    13.633    -5.918
    140    C    11.479    13.663    -4.688
    141    H    10.794    14.128    -3.942
    142    N    11.819    12.304    -4.247
    143    C    12.362    10.555    -3.028
    144    N    12.166    10.081    -4.316
    145    C    11.842    11.153    -4.998
    146    H    11.625    11.173    -6.067
    147    N    12.856    10.687    -0.718
    148    C    12.608    11.998    -0.820
    149    H    12.735    12.572    0.105
    150    N    12.266    12.712    -1.899
    151    C    12.152    11.923    -2.975
    152    C    12.723    9.913    -1.824
    153    N    12.926    8.587    -1.724
    154    H    12.835    7.978    -2.517
    155    H    13.156    8.172    -0.840
    156    C    12.704    14.550    -4.873
    157    H    13.570    14.201    -4.271
    158    O    12.384    15.888    -4.529
    159    H    13.118    16.470    -4.796
    160    C    12.965    14.394    -6.369
    161    H    13.449    13.416    -6.582
    162    O    13.708    15.475    -6.964
    163    H    14.627    15.464    -6.643
    164    H    14.478    6.676    7.858
    165    O    14.167    7.457    7.362
    166    C    14.553    8.617    8.113
    167    H    15.653    8.595    8.276
    168    H    14.066    8.580    9.112
    169    C    14.187    9.944    7.431
    170    H    14.392    10.800    8.112
    171    O    15.022    10.136    6.246
    172    C    14.246    10.721    5.210
    173    H    14.795    11.641    4.900
    174    N    14.078    9.799    4.046
    175    C    14.294    8.442    4.172
    176    H    14.603    8.102    5.161
    177    C    13.729    10.343    2.828
    178    O    13.553    11.547    2.667
    179    N    13.601    9.439    1.805
    180    H    13.369    9.840    0.903
    181    C    13.871    8.088    1.841
    182    O    13.795    7.416    0.813
    183    C    14.215    7.592    3.138
    184    H    14.435    6.535    3.257
    185    C    12.915    11.117    5.825
    186    H    12.090    11.083    5.088
    187    O    12.998    12.418    6.375
    188    H    12.150    12.601    6.798
    189    C    12.747    10.057    6.907
    190    H    12.501    9.074    6.441
    191    O    11.854    10.418    7.987
    192    P    10.351    9.946    7.932
    193    O    10.296    8.524    7.533
    194    O    9.713    10.298    9.220
    195    O    9.723    10.835    6.792
    196    C    9.574    12.261    7.014
    197    H    10.539    12.727    7.315
    198    H    8.844    12.453    7.836
    199    C    9.071    12.989    5.756
    200    H    8.944    14.078    5.962
    201    O    10.055    12.871    4.689
    202    C    9.377    12.700    3.445
    203    H    9.746    13.518    2.783
    204    N    9.665    11.391    2.796
    205    C    10.138    10.338    3.540
    206    H    10.287    10.538    4.601
    207    C    10.428    9.158    2.979
    208    H    10.847    8.331    3.550
    209    C    9.414    11.211    1.438
    210    O    8.957    12.155    0.776
    211    N    9.676    10.019    0.858
    212    C    10.188    9.011    1.585
    213    N    10.486    7.864    0.979
    214    H    10.316    7.779    -0.006
    215    H    10.863    7.082    1.471
    216    C    7.898    12.900    3.699
    217    H    7.264    12.289    3.020
    218    O    7.555    14.268    3.565
    219    H    6.634    14.354    3.858
    220    C    7.769    12.434    5.146
    221    H    7.828    11.322    5.205
    222    O    6.627    12.958    5.860
    223    P    5.208    12.303    5.658
    224    O    5.300    10.860    5.967
    225    O    4.217    13.081    6.430
    226    O    4.909    12.498    4.122
    227    C    3.904    11.683    3.476
    228    H    2.917    11.789    3.984
    229    H    4.195    10.606    3.510
    230    C    3.731    12.072    2.000
    231    H    3.487    13.152    1.900
    232    O    4.974    11.834    1.277
    233    C    4.688    11.359    -0.029
    234    H    5.169    12.074    -0.737
    235    N    5.257    10.019    -0.243
    236    C    6.042    8.172    -1.144
    237    N    6.209    8.034    0.228
    238    C    5.735    9.154    0.716
    239    H    5.705    9.416    1.777
    240    N    6.080    7.770    -3.473
    241    C    5.488    8.958    -3.611
    242    H    5.280    9.257    -4.643
    243    N    5.136    9.846    -2.672
    244    C    5.449    9.386    -1.449
    245    C    6.380    7.334    -2.227
    246    N    6.992    6.146    -2.088
    247    H    7.285    5.781    -1.200
    248    H    7.245    5.636    -2.908
    249    C    3.179    11.394    -0.217
    250    H    2.814    10.552    -0.846
    251    O    2.781    12.624    -0.795
    252    H    1.821    12.689    -0.693
    253    C    2.686    11.257    1.220
    254    H    2.831    10.200    1.547
    255    O    1.346    11.766    1.457
    256    P    0.194    10.757    1.861
    257    O    0.590    9.381    1.478
    258    O    -0.214    10.951    3.271
    259    O    -1.015    11.175    0.948
    260    C    -1.622    12.490    0.946
    261    H    -0.993    13.245    1.472
    262    H    -2.603    12.459    1.469
    263    C    -1.891    13.017    -0.474
    264    H    -2.230    14.073    -0.443
    265    O    -0.652    12.981    -1.234
    266    C    -0.926    12.619    -2.572
    267    H    -0.517    13.434    -3.210
    268    N    -0.261    11.367    -2.923
    269    C    0.649    9.731    -4.057
    270    N    0.842    9.421    -2.719
    271    C    0.277    10.418    -2.086
    272    H    0.233    10.528    -1.002
    273    N    0.622    9.618    -6.420
    274    C    -0.050    10.771    -6.393
    275    H    -0.327    11.174    -7.373
    276    N    -0.413    11.510    -5.339
    277    C    -0.032    10.923    -4.194
    278    C    0.995    9.064    -5.243
    279    N    1.661    7.909    -5.282
    280    H    2.023    7.446    -4.460
    281    H    1.584    7.372    -6.118
    282    C    -2.427    12.546    -2.751
    283    H    -2.731    11.744    -3.454
    284    O    -2.917    13.792    -3.208
    285    H    -3.881    13.781    -3.109
    286    C    -2.900    12.234    -1.338
    287    H    -2.724    11.157    -1.115
    288    O    -4.260    12.665    -1.079
    289    P    -5.372    11.611    -0.711
    290    O    -4.842    10.709    0.336
    291    O    -6.627    12.322    -0.374
    292    O    -5.586    10.814    -2.048
    293    C    -6.054    11.460    -3.254
    294    H    -5.560    12.448    -3.415
    295    H    -7.150    11.638    -3.191
    296    C    -5.790    10.600    -4.502
    297    H    -6.172    11.101    -5.417
    298    O    -4.351    10.435    -4.669
    299    C    -4.065    9.118    -5.104
    300    H    -3.443    9.206    -6.025
    301    N    -3.319    8.380    -4.075
    302    C    -1.961    7.001    -3.032
    303    N    -2.560    7.772    -2.049
    304    C    -3.343    8.574    -2.714
    305    H    -3.960    9.340    -2.257
    306    N    -0.656    5.380    -4.145
    307    C    -1.213    5.817    -5.278
    308    H    -0.887    5.297    -6.184
    309    N    -2.106    6.797    -5.456
    310    C    -2.432    7.357    -4.285
    311    C    -1.007    5.966    -2.975
    312    N    -0.452    5.533    -1.828
    313    H    -0.715    5.915    -0.935
    314    H    0.225    4.794    -1.835
    315    C    -5.383    8.463    -5.450
    316    H    -5.368    7.367    -5.290
    317    O    -5.719    8.736    -6.797
    318    H    -6.611    8.394    -6.941
    319    C    -6.332    9.160    -4.479
    320    H    -6.160    8.788    -3.442
    321    O    -7.724    9.138    -4.878
    322    P    -8.676    8.071    -4.208
    323    O    -8.368    7.982    -2.768
    324    O    -10.082    8.363    -4.561
    325    O    -8.249    6.711    -4.882
    326    C    -8.436    6.515    -6.303
    327    H    -7.997    7.351    -6.894
    328    H    -9.525    6.466    -6.546
    329    C    -7.788    5.207    -6.783
    330    H    -8.005    5.040    -7.863
    331    O    -6.338    5.281    -6.646
    332    C    -5.835    4.013    -6.241
    333    H    -5.081    3.717    -7.009
    334    N    -5.195    4.080    -4.889
    335    C    -5.482    5.104    -4.013
    336    H    -6.215    5.825    -4.369
    337    C    -4.326    3.076    -4.526
    338    O    -4.073    2.125    -5.258
    339    N    -3.777    3.204    -3.277
    340    H    -3.120    2.479    -3.014
    341    C    -4.004    4.207    -2.359
    342    O    -3.448    4.176    -1.263
    343    C    -4.912    5.219    -2.806
    344    H    -5.145    6.044    -2.134
    345    C    -7.001    3.031    -6.283
    346    H    -6.912    2.259    -5.489
    347    O    -7.084    2.402    -7.556
    348    H    -7.920    1.902    -7.614
    349    C    -8.184    3.950    -6.004
    350    H    -8.220    4.209    -4.925
    351    O    -9.457    3.453    -6.451
    352    H    -9.697    2.645    -5.959
 $END
