!*** FMO 5.3 (Gamess) INPUT generated by Facio 22.1.1.32 ***
 $CONTRL RUNTYP=ENERGY NPRINT=-5 ISPHER=1 MAXIT=200 $END
 $SYSTEM MWORDS=63 MEMDDI=63 $END
 $GDDI NGROUP=1 $END
 $SCF DIRSCF=.TRUE. NPUNCH=0 $END
!*** NumCPU : 2  MemPerNode : 512MB
 $PCM SOLVNT=WATER IEF=-10 ICOMP=2 ICAV=1 IDISP=1 IFMO=-1 $END
 $PCMCAV RADII=SUAHF $END
 $TESCAV NTSALL=60 $END
 $FMOPRP
    NAODIR=200
    NGRFMO(1)=1, 1, 0, 0, 0,   0, 0, 0, 0, 0
    IPIEDA=1
    NPRINT=9
 $END
 $FMO
      SCFTYP(1)=RHF
      MODGRD=10
      MODMUL=0
      MAXCAO=5
      MAXBND=24
      NLAYER=1
      MPLEVL(1)=2
      NFRAG=22
      ICHARG(1)=-1, -1, -1, -1, -1, -1, 0, -1, -1, -1, -1, -1, -1, -1, 0,
-1, -1, -1, -1, -1, -1, 0
      FRGNAM(1)=F1, F2, F3, F4, F5, F6, F7, F8, F9, F10, F11, F12, F13,
F14, F15, F16, F17, F18, F19, F20, F21, F22
      indat(1)=0
               1   -36   0
               37   -67   0
               68   -97   0
               98   -128   0
               129   -161   0
               162   -194   0
               195   -224   0
               225   -258   0
               259   -288   0
               289   -322   0
               323   -355   0
               356   -388   0
               389   -418   0
               419   -449   0
               450   -481   0
               482   -511   0
               512   -545   0
               546   -578   0
               579   -612   0
               613   -645   0
               646   -679   0
               680   -707   0
 $END

 $FMOBND
   -37   36       6-31G*    MINI
   -68   67       6-31G*    MINI
   -98   97       6-31G*    MINI
   -129   128       6-31G*    MINI
   -162   161       6-31G*    MINI
   -195   194       6-31G*    MINI
   -225   224       6-31G*    MINI
   -259   258       6-31G*    MINI
   -289   288       6-31G*    MINI
   -323   322       6-31G*    MINI
   -356   355       6-31G*    MINI
   -389   388       6-31G*    MINI
   -419   418       6-31G*    MINI
   -450   449       6-31G*    MINI
   -482   481       6-31G*    MINI
   -512   511       6-31G*    MINI
   -546   545       6-31G*    MINI
   -579   578       6-31G*    MINI
   -613   612       6-31G*    MINI
   -646   645       6-31G*    MINI
   -680   679       6-31G*    MINI
 $END
 $FMOHYB
 6-31G*      15   5
   1 0  -0.065034   0.288264   0.000000   0.000000   0.604412
         0.290129   0.000000   0.000000   0.319045  -0.017106
        -0.017106   0.057934   0.000000   0.000000   0.000000
   0 1  -0.065040   0.288293   0.569832   0.000000  -0.201456
         0.290147   0.300783   0.000000  -0.106342   0.049598
        -0.017106  -0.008771   0.000000  -0.027223   0.000000
   0 1  -0.065039   0.288293  -0.284916  -0.493490  -0.201455
         0.290145  -0.150392  -0.260486  -0.106340  -0.000427
         0.032923  -0.008771   0.033353   0.013612   0.023576
   0 1  -0.065039   0.288293  -0.284916   0.493490  -0.201455
         0.290145  -0.150392   0.260486  -0.106340  -0.000427
         0.032923  -0.008771  -0.033353   0.013612  -0.023576
   0 1   1.010938  -0.011975   0.000000   0.000000   0.000000
        -0.054085   0.000000   0.000000  -0.000000  -0.003174
        -0.003174  -0.003174   0.000000   0.000000   0.000000
 MINI         5   5
   1 0  -0.104883   0.308874   0.000000   0.000000   0.521806
   0 1  -0.104883   0.308874   0.491961   0.000000  -0.173934
   0 1  -0.104883   0.308876  -0.245980  -0.426050  -0.173933
   0 1  -0.104883   0.308876  -0.245980   0.426050  -0.173933
   0 1   0.988209   0.063992   0.000000   0.000000   0.000000
 $END
 
 $DATA
 FMO calculation
 C1 
 H.1-1    1
      N31 6
   
 O.1-1    8
      N31 6
      d 1
      1 0.800 1.0
   
 C.1-1    6
      N31 6
      d 1
      1 0.800 1.0
   
 N.1-1    7
      N31 6
      d 1
      1 0.800 1.0
   
 P.1-1   15
      N31 6
      d 1
      1 0.550 1.0
   
 $END
 $FMOXYZ
    1    H    -1.077    -9.794    3.033
    2    O    -1.348    -9.501    2.144
    3    C    -1.356    -10.666    1.307
    4    H    -2.059    -11.416    1.732
    5    H    -0.337    -11.112    1.300
    6    C    -1.768    -10.363    -0.137
    7    H    -1.735    -11.275    -0.766
    8    O    -3.134    -9.859    -0.168
    9    C    -3.226    -8.834    -1.141
    10    H    -4.035    -9.133    -1.847
    11    N    -3.584    -7.546    -0.533
    12    C    -4.102    -6.465    -1.192
    13    N    -5.149    -4.947    -4.122
    14    H    -5.007    -5.657    -4.809
    15    H    -5.537    -4.066    -4.407
    16    N    -4.360    -6.392    -2.511
    17    C    -4.859    -5.210    -2.862
    18    N    -5.146    -4.220    -1.960
    19    H    -5.545    -3.363    -2.309
    20    C    -4.928    -4.278    -0.589
    21    O    -5.226    -3.338    0.156
    22    C    -4.330    -5.512    -0.217
    23    N    -3.931    -5.973    1.030
    24    C    -3.492    -7.189    0.796
    25    H    -3.101    -7.882    1.547
    26    C    -1.909    -8.782    -1.884
    27    H    -1.655    -7.759    -2.227
    28    O    -1.958    -9.655    -2.992
    29    H    -1.089    -9.625    -3.410
    30    C    -0.927    -9.278    -0.826
    31    H    -0.759    -8.478    -0.066
    32    O    0.310    -9.857    -1.336
    33    P    1.560    -8.899    -1.481
    34    O    1.683    -8.081    -0.258
    35    O    2.746    -9.696    -1.867
    36    O    1.156    -7.962    -2.678
    37    C    1.047    -8.497    -4.015
    38    H    0.375    -9.382    -4.050
    39    H    2.046    -8.826    -4.382
    40    C    0.511    -7.449    -4.997
    41    H    0.410    -7.884    -6.012
    42    O    -0.820    -6.999    -4.603
    43    C    -0.931    -5.605    -4.868
    44    H    -1.822    -5.502    -5.531
    45    N    -1.167    -4.789    -3.648
    46    C    -0.808    -5.281    -2.417
    47    H    -0.343    -6.265    -2.416
    48    C    -1.040    -4.594    -1.292
    49    H    -0.790    -4.988    -0.309
    50    C    -1.739    -3.521    -3.742
    51    O    -2.037    -3.068    -4.858
    52    N    -1.966    -2.806    -2.616
    53    C    -1.648    -3.313    -1.413
    54    N    -1.910    -2.602    -0.318
    55    H    -2.351    -1.704    -0.402
    56    H    -1.714    -2.951    0.600
    57    C    0.304    -5.188    -5.638
    58    H    0.599    -4.136    -5.445
    59    O    0.078    -5.379    -7.022
    60    H    0.931    -5.236    -7.448
    61    C    1.349    -6.168    -5.121
    62    H    1.668    -5.894    -4.089
    63    O    2.467    -6.391    -6.017
    64    P    3.736    -5.458    -5.899
    65    O    4.156    -5.417    -4.482
    66    O    4.740    -5.928    -6.878
    67    O    3.225    -4.028    -6.310
    68    C    2.894    -3.697    -7.675
    69    H    2.109    -4.370    -8.081
    70    H    3.777    -3.823    -8.334
    71    C    2.407    -2.243    -7.799
    72    H    2.162    -2.011    -8.857
    73    O    1.183    -2.041    -7.026
    74    C    1.184    -0.736    -6.461
    75    H    0.262    -0.232    -6.836
    76    N    1.166    -0.778    -4.963
    77    C    1.648    -1.874    -4.279
    78    H    2.027    -2.681    -4.905
    79    C    0.675    0.312    -4.274
    80    O    0.266    1.323    -4.828
    81    N    0.672    0.182    -2.913
    82    H    0.329    0.994    -2.409
    83    C    1.071    -0.899    -2.166
    84    O    0.956    -0.885    -0.942
    85    C    1.603    -1.978    -2.942
    86    H    1.945    -2.871    -2.426
    87    C    2.405    -0.014    -7.012
    88    H    2.831    0.714    -6.289
    89    O    2.088    0.645    -8.225
    90    H    2.909    1.067    -8.496
    91    C    3.369    -1.169    -7.275
    92    H    3.776    -1.561    -6.316
    93    O    4.399    -0.899    -8.263
    94    P    5.800    -0.388    -7.767
    95    O    6.240    -1.226    -6.633
    96    O    6.708    -0.326    -8.934
    97    O    5.495    1.051    -7.242
    98    C    5.187    2.148    -8.124
    99    H    4.289    1.942    -8.747
    100    H    6.044    2.324    -8.807
    101    C    4.931    3.430    -7.324
    102    H    4.668    4.287    -7.982
    103    O    3.819    3.209    -6.419
    104    C    4.009    3.957    -5.234
    105    H    3.180    4.701    -5.238
    106    N    3.918    3.113    -4.010
    107    C    4.419    1.835    -4.070
    108    H    4.827    1.533    -5.037
    109    C    4.360    1.011    -3.016
    110    H    4.738    -0.009    -3.052
    111    C    3.373    3.584    -2.811
    112    O    2.928    4.735    -2.741
    113    N    3.337    2.776    -1.730
    114    C    3.790    1.518    -1.811
    115    N    3.683    0.737    -0.739
    116    H    3.203    1.087    0.069
    117    H    4.027    -0.206    -0.712
    118    C    5.348    4.675    -5.346
    119    H    5.920    4.666    -4.393
    120    O    5.161    6.009    -5.764
    121    H    4.488    6.426    -5.192
    122    C    6.083    3.849    -6.413
    123    H    6.457    2.915    -5.928
    124    O    7.095    4.569    -7.177
    125    P    8.501    3.931    -7.438
    126    O    9.514    5.009    -7.401
    127    O    8.727    2.818    -6.491
    128    O    8.451    3.334    -8.903
    129    C    8.486    4.173    -10.081
    130    H    9.494    4.105    -10.550
    131    H    8.290    5.251    -9.857
    132    C    7.446    3.722    -11.112
    133    H    7.535    2.631    -11.301
    134    O    6.112    3.964    -10.599
    135    C    5.221    4.201    -11.665
    136    H    4.475    3.374    -11.635
    137    N    4.532    5.483    -11.505
    138    C    3.216    7.222    -11.753
    139    N    3.963    7.458    -10.608
    140    C    4.715    6.395    -10.491
    141    H    5.434    6.212    -9.687
    142    N    1.711    7.489    -13.566
    143    C    2.128    6.293    -13.986
    144    H    1.671    5.939    -14.918
    145    N    3.029    5.469    -13.439
    146    C    3.550    6.007    -12.317
    147    C    2.239    7.987    -12.418
    148    N    1.807    9.155    -11.936
    149    H    2.154    9.536    -11.069
    150    H    0.872    9.438    -12.165
    151    C    6.028    4.126    -12.946
    152    H    5.694    4.873    -13.688
    153    O    5.936    2.827    -13.506
    154    H    6.611    2.760    -14.196
    155    C    7.438    4.441    -12.462
    156    H    7.530    5.527    -12.224
    157    O    8.476    3.938    -13.337
    158    P    9.422    4.954    -14.081
    159    O    9.906    5.949    -13.101
    160    O    10.456    4.206    -14.828
    161    O    8.476    5.690    -15.099
    162    C    7.800    4.976    -16.156
    163    H    7.374    4.010    -15.794
    164    H    8.515    4.744    -16.976
    165    C    6.651    5.805    -16.739
    166    H    6.137    5.258    -17.560
    167    O    5.665    6.043    -15.698
    168    C    5.170    7.359    -15.797
    169    H    4.059    7.278    -15.835
    170    N    5.557    8.152    -14.624
    171    C    5.614    9.669    -13.038
    172    N    6.627    8.768    -12.741
    173    C    6.547    7.887    -13.705
    174    H    7.179    7.005    -13.791
    175    N    4.164    11.532    -12.974
    176    C    3.630    11.059    -14.102
    177    H    2.819    11.663    -14.526
    178    N    3.972    9.975    -14.807
    179    C    4.959    9.307    -14.200
    180    C    5.173    10.843    -12.397
    181    N    5.717    11.330    -11.269
    182    H    6.485    10.877    -10.805
    183    H    5.363    12.179    -10.870
    184    C    5.682    7.930    -17.100
    185    H    5.805    9.029    -17.060
    186    O    4.795    7.594    -18.151
    187    H    5.227    7.848    -18.975
    188    C    7.018    7.209    -17.241
    189    H    7.757    7.621    -16.516
    190    O    7.524    7.130    -18.592
    191    P    8.609    8.164    -19.073
    192    O    9.634    8.305    -18.019
    193    O    9.084    7.774    -20.419
    194    O    7.794    9.505    -19.193
    195    C    6.783    9.628    -20.224
    196    H    6.028    8.813    -20.158
    197    H    7.251    9.572    -21.234
    198    C    6.042    10.967    -20.131
    199    H    5.310    11.077    -20.959
    200    O    5.288    11.033    -18.885
    201    C    5.380    12.355    -18.360
    202    H    4.326    12.697    -18.232
    203    N    6.067    12.403    -17.035
    204    C    6.884    11.371    -16.638
    205    H    6.991    10.552    -17.345
    206    C    7.489    11.371    -15.444
    207    H    8.114    10.547    -15.104
    208    C    5.907    13.506    -16.203
    209    O    5.201    14.452    -16.584
    210    N    6.526    13.538    -15.000
    211    C    7.290    12.504    -14.606
    212    N    7.869    12.546    -13.407
    213    H    7.702    13.336    -12.811
    214    H    8.394    11.777    -13.044
    215    C    6.055    13.227    -19.407
    216    H    6.663    14.037    -18.949
    217    O    5.082    13.780    -20.279
    218    H    5.540    14.186    -21.032
    219    C    6.943    12.209    -20.113
    220    H    7.835    11.982    -19.492
    221    O    7.326    12.579    -21.451
    222    H    7.908    13.357    -21.423
    223    H    5.700    20.924    -6.475
    224    O    5.355    20.670    -7.351
    225    C    4.803    21.857    -7.938
    226    H    5.589    22.641    -7.982
    227    H    3.982    22.229    -7.283
    228    C    4.248    21.634    -9.351
    229    H    3.757    22.556    -9.732
    230    O    5.327    21.304    -10.283
    231    C    4.864    20.305    -11.186
    232    H    5.031    20.684    -12.218
    233    N    5.582    19.036    -11.020
    234    C    5.648    18.030    -11.945
    235    N    4.745    16.709    -15.015
    236    H    4.162    17.420    -15.400
    237    H    4.887    15.858    -15.530
    238    N    5.079    18.041    -13.163
    239    C    5.281    16.906    -13.826
    240    N    6.069    15.891    -13.349
    241    H    6.209    15.084    -13.936
    242    C    6.716    15.874    -12.120
    243    O    7.419    14.916    -11.781
    244    C    6.432    17.047    -11.369
    245    N    6.831    17.419    -10.088
    246    C    6.308    18.615    -9.930
    247    H    6.425    19.249    -9.046
    248    C    3.381    20.137    -10.958
    249    H    3.034    19.103    -11.159
    250    O    2.650    21.049    -11.753
    251    H    1.721    20.894    -11.546
    252    C    3.259    20.469    -9.477
    253    H    3.658    19.627    -8.867
    254    O    1.949    20.902    -9.052
    255    P    0.920    19.818    -8.565
    256    O    1.529    19.017    -7.478
    257    O    -0.340    20.517    -8.224
    258    O    0.686    18.927    -9.838
    259    C    -0.151    19.425    -10.910
    260    H    0.196    20.419    -11.273
    261    H    -1.203    19.549    -10.563
    262    C    -0.170    18.454    -12.104
    263    H    -0.719    18.905    -12.956
    264    O    1.178    18.157    -12.574
    265    C    1.243    16.801    -13.004
    266    H    1.568    16.832    -14.070
    267    N    2.201    15.984    -12.202
    268    C    2.628    16.408    -10.964
    269    H    2.189    17.343    -10.618
    270    C    2.636    14.786    -12.727
    271    O    2.279    14.376    -13.827
    272    N    3.525    14.103    -11.934
    273    H    3.815    13.201    -12.299
    274    C    4.035    14.487    -10.711
    275    O    4.867    13.787    -10.134
    276    C    3.526    15.735    -10.231
    277    H    3.877    16.111    -9.274
    278    C    -0.164    16.241    -12.926
    279    H    -0.167    15.177    -12.629
    280    O    -0.839    16.393    -14.165
    281    H    -1.782    16.260    -13.990
    282    C    -0.787    17.083    -11.823
    283    H    -0.410    16.768    -10.823
    284    O    -2.223    17.163    -11.890
    285    P    -3.119    16.199    -11.031
    286    O    -2.971    16.609    -9.616
    287    O    -4.492    16.280    -11.591
    288    O    -2.487    14.772    -11.228
    289    C    -2.774    13.953    -12.380
    290    H    -2.497    14.476    -13.324
    291    H    -3.861    13.711    -12.425
    292    C    -1.993    12.627    -12.337
    293    H    -2.172    12.046    -13.264
    294    O    -0.559    12.873    -12.292
    295    C    0.056    11.958    -11.398
    296    H    0.873    11.488    -11.983
    297    N    0.660    12.626    -10.244
    298    C    1.659    12.130    -9.446
    299    N    3.819    9.576    -8.612
    300    H    3.662    8.893    -9.329
    301    H    4.368    9.284    -7.814
    302    N    2.267    10.935    -9.581
    303    C    3.181    10.728    -8.646
    304    N    3.526    11.663    -7.695
    305    H    4.182    11.413    -6.972
    306    C    2.884    12.883    -7.521
    307    O    3.216    13.658    -6.620
    308    C    1.907    13.119    -8.518
    309    N    1.097    14.230    -8.739
    310    C    0.363    13.881    -9.767
    311    H    -0.401    14.499    -10.238
    312    C    -0.983    10.919    -11.012
    313    H    -0.854    10.539    -9.973
    314    O    -0.951    9.842    -11.935
    315    H    -1.779    9.354    -11.815
    316    C    -2.282    11.703    -11.145
    317    H    -2.399    12.352    -10.246
    318    O    -3.441    10.883    -11.431
    319    P    -4.696    10.881    -10.485
    320    O    -5.279    12.239    -10.415
    321    O    -5.587    9.798    -10.962
    322    O    -4.102    10.479    -9.083
    323    C    -4.682    11.043    -7.882
    324    H    -5.800    11.096    -7.944
    325    H    -4.297    12.076    -7.716
    326    C    -4.333    10.209    -6.646
    327    H    -4.812    10.626    -5.738
    328    O    -4.863    8.863    -6.821
    329    C    -3.982    7.937    -6.213
    330    H    -4.591    7.400    -5.456
    331    N    -3.483    6.949    -7.174
    332    C    -2.595    5.169    -8.115
    333    N    -3.255    5.854    -9.127
    334    C    -3.758    6.902    -8.517
    335    H    -4.344    7.691    -8.996
    336    N    -1.365    3.546    -6.920
    337    C    -1.528    4.321    -5.846
    338    H    -1.073    3.949    -4.925
    339    N    -2.184    5.480    -5.732
    340    C    -2.724    5.836    -6.907
    341    C    -1.888    3.947    -8.098
    342    N    -1.719    3.147    -9.168
    343    H    -1.961    3.448    -10.092
    344    H    -1.081    2.389    -9.062
    345    C    -2.889    8.719    -5.519
    346    H    -1.918    8.188    -5.514
    347    O    -3.296    8.994    -4.198
    348    H    -3.205    8.204    -3.642
    349    C    -2.835    10.002    -6.336
    350    H    -2.350    9.810    -7.322
    351    O    -2.264    11.133    -5.609
    352    P    -1.015    11.911    -6.204
    353    O    -1.172    11.986    -7.663
    354    O    -0.867    13.197    -5.495
    355    O    0.242    11.024    -5.858
    356    C    0.635    10.807    -4.484
    357    H    -0.215    10.889    -3.765
    358    H    1.369    11.585    -4.191
    359    C    1.310    9.441    -4.307
    360    H    1.585    9.280    -3.246
    361    O    0.389    8.373    -4.694
    362    C    1.076    7.410    -5.476
    363    H    0.844    6.416    -5.021
    364    N    0.637    7.403    -6.877
    365    C    0.285    6.787    -8.956
    366    N    -0.302    8.032    -8.820
    367    C    -0.047    8.362    -7.578
    368    H    -0.369    9.282    -7.104
    369    N    1.062    4.743    -9.856
    370    C    1.548    4.491    -8.631
    371    H    2.071    3.538    -8.497
    372    N    1.533    5.262    -7.545
    373    C    0.874    6.394    -7.771
    374    C    0.382    5.902    -10.049
    375    N    -0.200    6.162    -11.233
    376    H    -0.661    7.033    -11.392
    377    H    -0.187    5.486    -11.970
    378    C    2.550    7.712    -5.360
    379    H    3.112    7.414    -6.272
    380    O    3.091    7.063    -4.236
    381    H    2.592    7.316    -3.449
    382    C    2.569    9.219    -5.169
    383    H    2.380    9.728    -6.136
    384    O    3.745    9.745    -4.502
    385    P    5.147    9.758    -5.232
    386    O    5.129    8.912    -6.441
    387    O    5.471    11.170    -5.571
    388    O    6.255    9.211    -4.253
    389    C    7.016    10.158    -3.453
    390    H    7.265    11.084    -4.011
    391    H    8.002    9.696    -3.230
    392    C    6.385    10.544    -2.100
    393    H    5.947    11.564    -2.128
    394    O    5.315    9.625    -1.746
    395    C    5.383    9.298    -0.384
    396    H    4.378    9.564    0.020
    397    N    5.660    7.844    -0.175
    398    C    6.294    7.064    -1.128
    399    H    6.592    7.589    -2.040
    400    C    5.228    7.293    1.007
    401    O    4.678    7.953    1.879
    402    N    5.452    5.950    1.139
    403    H    5.159    5.545    2.022
    404    C    6.044    5.099    0.234
    405    O    6.152    3.902    0.496
    406    C    6.501    5.744    -0.963
    407    H    6.998    5.138    -1.718
    408    C    6.415    10.206    0.242
    409    H    6.911    9.732    1.107
    410    O    5.820    11.421    0.650
    411    H    6.545    11.975    0.956
    412    C    7.374    10.429    -0.917
    413    H    7.965    9.498    -1.090
    414    O    8.198    11.627    -0.818
    415    P    9.642    11.490    -0.183
    416    O    10.254    10.221    -0.635
    417    O    10.411    12.728    -0.448
    418    O    9.364    11.364    1.357
    419    C    8.801    12.441    2.132
    420    H    7.907    12.876    1.631
    421    H    9.551    13.255    2.254
    422    C    8.376    11.965    3.532
    423    H    7.925    12.801    4.108
    424    O    7.366    10.923    3.420
    425    C    7.560    9.959    4.452
    426    H    6.595    9.919    5.009
    427    N    7.872    8.594    3.926
    428    C    8.414    8.452    2.672
    429    H    8.572    9.375    2.118
    430    C    8.668    7.248    2.147
    431    H    9.050    7.126    1.134
    432    C    7.666    7.461    4.712
    433    O    7.228    7.598    5.865
    434    N    7.929    6.234    4.206
    435    C    8.404    6.106    2.954
    436    N    8.620    4.890    2.455
    437    H    8.421    4.081    3.015
    438    H    8.985    4.750    1.533
    439    C    8.635    10.501    5.373
    440    H    9.233    9.698    5.845
    441    O    8.049    11.308    6.376
    442    H    8.771    11.694    6.888
    443    C    9.470    11.331    4.400
    444    H    10.038    10.659    3.726
    445    O    10.291    12.361    4.998
    446    P    11.780    12.028    5.386
    447    O    12.449    11.325    4.269
    448    O    12.429    13.263    5.876
    449    O    11.618    11.018    6.580
    450    C    11.179    11.489    7.873
    451    H    10.192    12.004    7.809
    452    H    11.907    12.222    8.293
    453    C    11.066    10.327    8.862
    454    H    10.721    10.694    9.853
    455    O    10.088    9.350    8.396
    456    C    10.549    8.041    8.703
    457    H    9.744    7.562    9.310
    458    N    10.770    7.252    7.482
    459    C    11.017    5.594    6.057
    460    N    11.116    6.762    5.312
    461    C    10.964    7.712    6.201
    462    H    10.985    8.781    5.982
    463    N    11.007    3.316    6.699
    464    C    10.851    3.748    7.957
    465    H    10.800    2.964    8.720
    466    N    10.723    5.002    8.406
    467    C    10.822    5.883    7.397
    468    C    11.094    4.231    5.699
    469    N    11.239    3.801    4.431
    470    H    11.351    4.434    3.659
    471    H    11.262    2.818    4.231
    472    C    11.808    8.176    9.543
    473    H    12.535    7.361    9.343
    474    O    11.476    8.187    10.922
    475    H    10.957    8.984    11.114
    476    C    12.353    9.520    9.061
    477    H    12.851    9.408    8.072
    478    O    13.219    10.189    9.995
    479    H    14.019    9.653    10.139
    480    H    10.818    -6.119    4.754
    481    O    10.747    -5.373    5.380
    482    C    10.936    -5.916    6.696
    483    H    11.959    -6.352    6.762
    484    H    10.205    -6.739    6.856
    485    C    10.761    -4.886    7.822
    486    H    10.834    -5.382    8.815
    487    O    11.816    -3.877    7.759
    488    C    11.273    -2.605    8.095
    489    H    11.895    -2.216    8.937
    490    N    11.311    -1.659    6.940
    491    C    11.455    -2.119    5.648
    492    H    11.547    -3.200    5.540
    493    C    11.188    -0.310    7.192
    494    O    11.037    0.141    8.323
    495    N    11.265    0.497    6.085
    496    H    11.179    1.490    6.265
    497    C    11.449    0.111    4.774
    498    O    11.534    0.959    3.885
    499    C    11.539    -1.305    4.587
    500    H    11.704    -1.696    3.586
    501    C    9.859    -2.848    8.589
    502    H    9.188    -1.992    8.377
    503    O    9.862    -3.112    9.980
    504    H    8.946    -3.291    10.219
    505    C    9.457    -4.078    7.781
    506    H    9.284    -3.800    6.715
    507    O    8.380    -4.860    8.343
    508    P    6.896    -4.545    7.917
    509    O    6.828    -4.404    6.446
    510    O    5.995    -5.545    8.532
    511    O    6.620    -3.144    8.566
    512    C    6.425    -3.042    9.994
    513    H    7.294    -3.461    10.548
    514    H    5.521    -3.613    10.309
    515    C    6.248    -1.580    10.424
    516    H    6.153    -1.509    11.529
    517    O    7.422    -0.801    10.041
    518    C    7.008    0.487    9.601
    519    H    7.575    1.233    10.207
    520    N    7.300    0.700    8.170
    521    C    7.370    1.908    7.527
    522    N    7.184    5.369    7.595
    523    H    6.921    5.561    8.540
    524    H    7.215    6.125    6.936
    525    N    7.167    3.112    8.090
    526    C    7.342    4.111    7.227
    527    N    7.675    3.914    5.914
    528    H    7.782    4.724    5.322
    529    C    7.893    2.686    5.306
    530    O    8.202    2.605    4.115
    531    C    7.696    1.614    6.217
    532    N    7.796    0.240    6.028
    533    C    7.546    -0.260    7.215
    534    H    7.539    -1.320    7.463
    535    C    5.533    0.611    9.902
    536    H    5.006    1.261    9.175
    537    O    5.334    1.107    11.214
    538    H    4.380    1.106    11.358
    539    C    5.070    -0.834    9.780
    540    H    5.059    -1.149    8.710
    541    O    3.837    -1.132    10.483
    542    P    2.484    -1.066    9.674
    543    O    2.701    -1.668    8.345
    544    O    1.399    -1.644    10.499
    545    O    2.219    0.473    9.462
    546    C    1.951    1.368    10.564
    547    H    2.680    1.224    11.391
    548    H    0.933    1.181    10.975
    549    C    2.041    2.840    10.133
    550    H    1.926    3.513    11.012
    551    O    3.351    3.110    9.564
    552    C    3.222    4.000    8.475
    553    H    3.890    4.869    8.693
    554    N    3.639    3.367    7.222
    555    C    4.347    3.031    5.170
    556    N    4.197    1.773    5.737
    557    C    3.772    2.029    6.949
    558    H    3.539    1.278    7.703
    559    N    4.821    4.795    3.672
    560    C    4.440    5.631    4.645
    561    H    4.486    6.697    4.395
    562    N    4.034    5.346    5.886
    563    C    4.001    4.019    6.077
    564    C    4.796    3.457    3.904
    565    N    5.227    2.612    2.943
    566    H    5.251    1.620    3.077
    567    H    5.606    2.988    2.093
    568    C    1.787    4.466    8.434
    569    H    1.432    4.660    7.401
    570    O    1.647    5.637    9.210
    571    H    0.703    5.844    9.215
    572    C    1.038    3.292    9.061
    573    H    0.942    2.449    8.337
    574    O    -0.225    3.641    9.682
    575    P    -1.532    3.687    8.801
    576    O    -1.734    2.355    8.188
    577    O    -2.634    4.229    9.627
    578    O    -1.195    4.702    7.644
    579    C    -1.334    6.134    7.823
    580    H    -0.707    6.506    8.669
    581    H    -2.387    6.395    8.073
    582    C    -0.956    6.921    6.551
    583    H    -0.957    8.017    6.750
    584    O    0.382    6.561    6.106
    585    C    0.419    6.527    4.683
    586    H    1.215    7.237    4.366
    587    N    0.767    5.187    4.180
    588    C    1.271    4.876    2.942
    589    N    2.253    5.820    -0.240
    590    H    2.093    6.803    -0.235
    591    H    2.555    5.373    -1.089
    592    N    1.509    5.744    1.941
    593    C    1.991    5.142    0.855
    594    N    2.245    3.804    0.786
    595    H    2.602    3.432    -0.082
    596    C    2.045    2.894    1.812
    597    O    2.318    1.703    1.654
    598    C    1.489    3.514    2.962
    599    N    1.106    2.970    4.181
    600    C    0.666    3.997    4.864
    601    H    0.254    3.957    5.873
    602    C    -0.921    7.014    4.177
    603    H    -1.231    6.511    3.238
    604    O    -0.885    8.413    3.974
    605    H    -1.795    8.684    3.799
    606    C    -1.844    6.643    5.331
    607    H    -2.018    5.544    5.337
    608    O    -3.067    7.414    5.412
    609    P    -4.385    6.802    4.799
    610    O    -4.412    5.348    5.054
    611    O    -5.556    7.581    5.254
    612    O    -4.204    7.028    3.262
    613    C    -4.253    8.342    2.669
    614    H    -3.541    9.041    3.165
    615    H    -5.277    8.774    2.756
    616    C    -3.899    8.248    1.180
    617    H    -3.947    9.241    0.690
    618    O    -2.532    7.763    1.029
    619    C    -2.466    6.896    -0.092
    620    H    -1.684    7.305    -0.770
    621    N    -2.098    5.536    0.306
    622    C    -1.324    3.479    0.343
    623    N    -1.868    3.710    1.596
    624    C    -2.325    4.933    1.518
    625    H    -2.818    5.465    2.331
    626    N    -0.290    2.442    -1.505
    627    C    -0.491    3.590    -2.164
    628    H    -0.128    3.605    -3.196
    629    N    -1.042    4.726    -1.727