!*** FMO 5.3 (Gamess) INPUT generated by Facio 22.1.1.32 ***
 $CONTRL RUNTYP=ENERGY NPRINT=-5 ISPHER=1 MAXIT=200 $END
 $SYSTEM MWORDS=63 MEMDDI=63 $END
 $GDDI NGROUP=1 $END
 $SCF DIRSCF=.TRUE. NPUNCH=0 $END
!*** NumCPU : 2  MemPerNode : 512MB
 $PCM SOLVNT=WATER IEF=-10 ICOMP=2 ICAV=1 IDISP=1 IFMO=-1 $END
 $PCMCAV RADII=SUAHF $END
 $TESCAV NTSALL=60 $END
 $FMOPRP
    NAODIR=200
    NGRFMO(1)=1, 1, 0, 0, 0,   0, 0, 0, 0, 0
    IPIEDA=1
    NPRINT=9
 $END
 $FMO
      SCFTYP(1)=RHF
      MODGRD=10
      MODMUL=0
      MAXCAO=5
      MAXBND=24
      NLAYER=1
      MPLEVL(1)=2
      NFRAG=22
      ICHARG(1)=-1, -1, -1, -1, -1, -1, 0, -1, -1, -1, -1, -1, -1, -1, 0,
-1, -1, -1, -1, -1, -1, 0
      FRGNAM(1)=F1, F2, F3, F4, F5, F6, F7, F8, F9, F10, F11, F12, F13,
F14, F15, F16, F17, F18, F19, F20, F21, F22
      indat(1)=0
               1   -36   0
               37   -67   0
               68   -97   0
               98   -128   0
               129   -161   0
               162   -194   0
               195   -224   0
               225   -258   0
               259   -288   0
               289   -322   0
               323   -355   0
               356   -388   0
               389   -418   0
               419   -449   0
               450   -481   0
               482   -511   0
               512   -545   0
               546   -578   0
               579   -612   0
               613   -645   0
               646   -679   0
               680   -707   0
 $END

 $FMOBND
   -37   36       6-31G*    MINI
   -68   67       6-31G*    MINI
   -98   97       6-31G*    MINI
   -129   128       6-31G*    MINI
   -162   161       6-31G*    MINI
   -195   194       6-31G*    MINI
   -225   224       6-31G*    MINI
   -259   258       6-31G*    MINI
   -289   288       6-31G*    MINI
   -323   322       6-31G*    MINI
   -356   355       6-31G*    MINI
   -389   388       6-31G*    MINI
   -419   418       6-31G*    MINI
   -450   449       6-31G*    MINI
   -482   481       6-31G*    MINI
   -512   511       6-31G*    MINI
   -546   545       6-31G*    MINI
   -579   578       6-31G*    MINI
   -613   612       6-31G*    MINI
   -646   645       6-31G*    MINI
   -680   679       6-31G*    MINI
 $END
 $FMOHYB
 6-31G*      15   5
   1 0  -0.065034   0.288264   0.000000   0.000000   0.604412
         0.290129   0.000000   0.000000   0.319045  -0.017106
        -0.017106   0.057934   0.000000   0.000000   0.000000
   0 1  -0.065040   0.288293   0.569832   0.000000  -0.201456
         0.290147   0.300783   0.000000  -0.106342   0.049598
        -0.017106  -0.008771   0.000000  -0.027223   0.000000
   0 1  -0.065039   0.288293  -0.284916  -0.493490  -0.201455
         0.290145  -0.150392  -0.260486  -0.106340  -0.000427
         0.032923  -0.008771   0.033353   0.013612   0.023576
   0 1  -0.065039   0.288293  -0.284916   0.493490  -0.201455
         0.290145  -0.150392   0.260486  -0.106340  -0.000427
         0.032923  -0.008771  -0.033353   0.013612  -0.023576
   0 1   1.010938  -0.011975   0.000000   0.000000   0.000000
        -0.054085   0.000000   0.000000  -0.000000  -0.003174
        -0.003174  -0.003174   0.000000   0.000000   0.000000
 MINI         5   5
   1 0  -0.104883   0.308874   0.000000   0.000000   0.521806
   0 1  -0.104883   0.308874   0.491961   0.000000  -0.173934
   0 1  -0.104883   0.308876  -0.245980  -0.426050  -0.173933
   0 1  -0.104883   0.308876  -0.245980   0.426050  -0.173933
   0 1   0.988209   0.063992   0.000000   0.000000   0.000000
 $END
 
 $DATA
 FMO calculation
 C1 
 H.1-1    1
      N31 6
   
 O.1-1    8
      N31 6
      d 1
      1 0.800 1.0
   
 C.1-1    6
      N31 6
      d 1
      1 0.800 1.0
   
 N.1-1    7
      N31 6
      d 1
      1 0.800 1.0
   
 P.1-1   15
      N31 6
      d 1
      1 0.550 1.0
   
 $END
 $FMOXYZ
    1    H    -0.129    -8.754    4.675
    2    O    -0.524    -8.679    3.787
    3    C    -0.074    -9.810    3.029
    4    H    -0.300    -10.740    3.597
    5    H    1.029    -9.749    2.902
    6    C    -0.718    -9.929    1.639
    7    H    -0.498    -10.931    1.214
    8    O    -2.168    -9.809    1.729
    9    C    -2.641    -8.978    0.685
    10    H    -3.491    -9.519    0.202
    11    N    -3.130    -7.691    1.198
    12    C    -3.872    -6.775    0.507
    13    N    -5.591    -5.837    -2.345
    14    H    -5.413    -6.590    -2.974
    15    H    -6.159    -5.072    -2.658
    16    N    -4.289    -6.896    -0.764
    17    C    -5.060    -5.878    -1.139
    18    N    -5.366    -4.825    -0.318
    19    H    -5.968    -4.113    -0.694
    20    C    -4.942    -4.669    0.994
    21    O    -5.278    -3.688    1.665
    22    C    -4.118    -5.748    1.401
    23    N    -3.535    -6.010    2.631
    24    C    -2.977    -7.185    2.469
    25    H    -2.458    -7.739    3.248
    26    C    -1.508    -8.819    -0.304
    27    H    -1.558    -7.870    -0.875
    28    O    -1.541    -9.919    -1.193
    29    H    -1.333    -10.729    -0.704
    30    C    -0.279    -8.870    0.608
    31    H    -0.155    -7.905    1.157
    32    O    0.938    -9.310    -0.037
    33    P    1.837    -8.294    -0.835
    34    O    3.152    -8.929    -1.072
    35    O    1.853    -7.000    -0.122
    36    O    1.175    -8.076    -2.224
    37    C    0.839    -9.070    -3.204
    38    H    0.284    -9.917    -2.751
    39    H    1.770    -9.486    -3.653
    40    C    -0.018    -8.461    -4.339
    41    H    -0.263    -9.218    -5.116
    42    O    -1.295    -7.945    -3.822
    43    C    -1.551    -6.658    -4.387
    44    H    -2.578    -6.705    -4.816
    45    N    -1.507    -5.552    -3.374
    46    C    -0.771    -5.732    -2.238
    47    H    -0.376    -6.712    -2.108
    48    C    -0.661    -4.789    -1.289
    49    H    -0.068    -4.944    -0.394
    50    C    -2.161    -4.349    -3.568
    51    O    -2.815    -4.171    -4.611
    52    N    -2.099    -3.387    -2.612
    53    C    -1.373    -3.588    -1.497
    54    N    -1.318    -2.628    -0.572
    55    H    -1.791    -1.764    -0.760
    56    H    -0.701    -2.692    0.211
    57    C    -0.564    -6.467    -5.517
    58    H    -0.310    -5.403    -5.655
    59    O    -1.076    -7.008    -6.724
    60    H    -0.339    -7.060    -7.349
    61    C    0.643    -7.248    -5.020
    62    H    1.165    -6.667    -4.225
    63    O    1.538    -7.694    -6.058
    64    P    2.817    -6.865    -6.444
    65    O    3.380    -7.424    -7.692
    66    O    3.718    -6.815    -5.279
    67    O    2.288    -5.416    -6.728
    68    C    1.708    -5.080    -8.009
    69    H    0.911    -5.805    -8.293
    70    H    2.490    -5.106    -8.805
    71    C    1.087    -3.675    -8.004
    72    H    0.531    -3.483    -8.948
    73    O    0.135    -3.542    -6.918
    74    C    0.213    -2.251    -6.359
    75    H    -0.814    -1.827    -6.466
    76    N    0.611    -2.282    -4.930
    77    C    1.311    -3.332    -4.378
    78    H    1.488    -4.172    -5.043
    79    C    0.251    -1.193    -4.177
    80    O    -0.364    -0.245    -4.641
    81    N    0.642    -1.259    -2.865
    82    H    0.336    -0.458    -2.321
    83    C    1.348    -2.261    -2.236
    84    O    1.628    -2.166    -1.042
    85    C    1.679    -3.364    -3.087
    86    H    2.194    -4.220    -2.660
    87    C    1.178    -1.448    -7.212
    88    H    1.765    -0.725    -6.606
    89    O    0.489    -0.762    -8.241
    90    H    1.167    -0.327    -8.770
    91    C    2.081    -2.541    -7.783
    92    H    2.799    -2.907    -7.017
    93    O    2.736    -2.234    -9.026
    94    P    3.888    -1.173    -9.117
    95    O    3.411    -0.087    -9.991
    96    O    5.118    -1.895    -9.530
    97    O    4.091    -0.684    -7.640
    98    C    4.970    0.401    -7.306
    99    H    5.814    0.529    -8.022
    100    H    5.429    0.160    -6.322
    101    C    4.247    1.735    -7.158
    102    H    4.044    2.212    -8.141
    103    O    2.954    1.554    -6.492
    104    C    2.824    2.532    -5.476
    105    H    1.824    3.007    -5.614
    106    N    2.915    1.964    -4.102
    107    C    3.281    0.647    -3.955
    108    H    3.442    0.082    -4.877
    109    C    3.404    0.089    -2.753
    110    H    3.677    -0.956    -2.625
    111    C    2.665    2.737    -2.965
    112    O    2.364    3.931    -3.094
    113    N    2.766    2.180    -1.735
    114    C    3.121    0.889    -1.614
    115    N    3.203    0.343    -0.405
    116    H    2.939    0.862    0.408
    117    H    3.377    -0.636    -0.295
    118    C    3.899    3.547    -5.760
    119    H    4.174    4.142    -4.873
    120    O    3.463    4.345    -6.823
    121    H    4.003    5.141    -6.846
    122    C    5.042    2.702    -6.260
    123    H    5.501    2.120    -5.430
    124    O    6.031    3.403    -7.056
    125    P    7.146    4.309    -6.417
    126    O    8.239    3.417    -5.938
    127    O    6.603    5.249    -5.436
    128    O    7.734    5.148    -7.623
    129    C    6.858    5.857    -8.522
    130    H    7.335    6.811    -8.836
    131    H    5.899    6.145    -8.023
    132    C    6.577    5.005    -9.761
    133    H    6.750    3.927    -9.560
    134    O    5.161    5.140    -10.041
    135    C    4.956    5.288    -11.420
    136    H    4.137    4.592    -11.711
    137    N    4.560    6.665    -11.750
    138    C    3.530    8.401    -12.616
    139    N    4.315    8.891    -11.575
    140    C    4.879    7.823    -11.077
    141    H    5.537    7.819    -10.204
    142    N    1.917    8.230    -14.350
    143    C    2.188    6.919    -14.360
    144    H    1.626    6.335    -15.097
    145    N    3.053    6.219    -13.616
    146    C    3.690    7.033    -12.750
    147    C    2.578    9.015    -13.462
    148    N    2.248    10.316    -13.385
    149    H    2.630    10.904    -12.680
    150    H    1.611    10.704    -14.052
    151    C    6.221    4.858    -12.075
    152    H    6.326    5.298    -13.056
    153    O    6.228    3.452    -12.216
    154    H    6.369    3.056    -11.348
    155    C    7.273    5.382    -11.091
    156    H    7.320    6.491    -11.138
    157    O    8.608    4.835    -11.180
    158    P    9.288    4.399    -12.541
    159    O    8.928    2.989    -12.821
    160    O    10.741    4.665    -12.496
    161    O    8.695    5.360    -13.647
    162    C    8.211    4.856    -14.924
    163    H    7.648    3.900    -14.791
    164    H    9.067    4.646    -15.607
    165    C    7.264    5.833    -15.670
    166    H    6.537    5.268    -16.291
    167    O    6.510    6.637    -14.731
    168    C    6.318    7.926    -15.209
    169    H    5.211    8.061    -15.216
    170    N    6.907    8.912    -14.325
    171    C    7.176    10.735    -13.142
    172    N    8.277    9.929    -12.867
    173    C    8.066    8.853    -13.591
    174    H    8.717    7.975    -13.630
    175    N    5.604    12.503    -13.147
    176    C    4.918    11.784    -14.040
    177    H    3.989    12.235    -14.405
    178    N    5.209    10.602    -14.577
    179    C    6.336    10.115    -14.045
    180    C    6.772    12.003    -12.671
    181    N    7.479    12.752    -11.806
    182    H    8.354    12.445    -11.425
    183    H    7.120    13.642    -11.527
    184    C    6.862    7.976    -16.600
    185    H    7.314    8.954    -16.864
    186    O    5.787    7.674    -17.465
    187    H    5.269    8.473    -17.638
    188    C    7.927    6.869    -16.576
    189    H    8.840    7.208    -16.035
    190    O    8.248    6.277    -17.858
    191    P    9.034    7.163    -18.900
    192    O    9.444    6.308    -20.034
    193    O    10.107    7.898    -18.195
    194    O    7.989    8.212    -19.417
    195    C    6.875    7.821    -20.253
    196    H    6.153    7.166    -19.719
    197    H    7.229    7.240    -21.136
    198    C    6.144    9.063    -20.779
    199    H    5.400    8.778    -21.554
    200    O    5.415    9.759    -19.720
    201    C    5.491    11.165    -19.946
    202    H    4.439    11.508    -20.076
    203    N    6.099    11.889    -18.793
    204    C    7.151    11.294    -18.138
    205    H    7.450    10.312    -18.510
    206    C    7.735    11.869    -17.083
    207    H    8.551    11.393    -16.540
    208    C    5.660    13.153    -18.387
    209    O    4.736    13.710    -19.009
    210    N    6.238    13.753    -17.315
    211    C    7.244    13.136    -16.662
    212    N    7.797    13.715    -15.599
    213    H    7.473    14.597    -15.250
    214    H    8.615    13.333    -15.167
    215    C    6.237    11.389    -21.259
    216    H    6.889    12.288    -21.217
    217    O    5.326    11.506    -22.342
    218    H    4.886    10.652    -22.468
    219    C    7.087    10.123    -21.355
    220    H    7.968    10.222    -20.687
    221    O    7.496    9.750    -22.683
    222    H    8.102    10.423    -23.037
    223    H    5.623    23.498    -11.386
    224    O    5.231    22.903    -12.057
    225    C    3.895    23.363    -12.306
    226    H    3.914    24.464    -12.470
    227    H    3.299    23.172    -11.392
    228    C    3.171    22.697    -13.496
    229    H    2.444    23.411    -13.945
    230    O    4.098    22.279    -14.548
    231    C    3.723    20.988    -15.018
    232    H    3.680    21.044    -16.130
    233    N    4.699    19.960    -14.619
    234    C    4.898    18.748    -15.227
    235    N    4.117    16.433    -17.692
    236    H    3.376    16.878    -18.190
    237    H    4.433    15.531    -17.988
    238    N    4.239    18.283    -16.305
    239    C    4.658    17.068    -16.667
    240    N    5.675    16.406    -16.034
    241    H    5.956    15.517    -16.412
    242    C    6.393    16.880    -14.944
    243    O    7.313    16.224    -14.450
    244    C    5.915    18.142    -14.512
    245    N    6.330    18.943    -13.457
    246    C    5.583    20.014    -13.563
    247    H    5.641    20.882    -12.910
    248    C    2.345    20.692    -14.475
    249    H    2.170    19.604    -14.325
    250    O    1.360    21.226    -15.344
    251    H    0.514    21.209    -14.874
    252    C    2.385    21.428    -13.140
    253    H    3.017    20.862    -12.414
    254    O    1.088    21.786    -12.615
    255    P    0.529    21.096    -11.315
    256    O    -0.741    21.751    -10.941
    257    O    1.582    21.075    -10.278
    258    O    0.235    19.631    -11.796
    259    C    -0.646    19.415    -12.928
    260    H    -0.333    20.010    -13.814
    261    H    -1.693    19.713    -12.684
    262    C    -0.625    17.947    -13.351
    263    H    -1.364    17.750    -14.158
    264    O    0.686    17.621    -13.881
    265    C    0.970    16.264    -13.639
    266    H    1.001    15.786    -14.648
    267    N    2.266    16.084    -12.940
    268    C    2.757    17.043    -12.080
    269    H    2.129    17.931    -11.972
    270    C    2.964    14.926    -13.181
    271    O    2.563    14.056    -13.947
    272    N    4.153    14.826    -12.513
    273    H    4.695    13.988    -12.699
    274    C    4.729    15.737    -11.664
    275    O    5.827    15.498    -11.162
    276    C    3.941    16.916    -11.454
    277    H    4.336    17.695    -10.809
    278    C    -0.196    15.687    -12.857
    279    H    0.136    14.982    -12.061
    280    O    -1.091    15.036    -13.735
    281    H    -1.800    14.723    -13.153
    282    C    -0.852    16.930    -12.235
    283    H    -0.271    17.266    -11.349
    284    O    -2.271    16.850    -11.951
    285    P    -2.821    15.996    -10.759
    286    O    -4.299    15.950    -10.824
    287    O    -2.249    16.523    -9.505
    288    O    -2.218    14.592    -11.037
    289    C    -2.834    13.450    -11.638
    290    H    -2.658    13.439    -12.733
    291    H    -3.936    13.431    -11.465
    292    C    -2.222    12.166    -11.078
    293    H    -2.517    11.284    -11.686
    294    O    -0.753    12.217    -11.067
    295    C    -0.295    11.745    -9.808
    296    H    0.484    10.990    -10.035
    297    N    0.328    12.829    -8.995
    298    C    1.585    12.869    -8.413
    299    N    4.609    11.375    -7.671
    300    H    4.408    10.497    -8.088
    301    H    5.062    11.347    -6.768
    302    N    2.525    11.909    -8.457
    303    C    3.613    12.227    -7.768
    304    N    3.786    13.428    -7.132
    305    H    4.631    13.585    -6.605
    306    C    2.853    14.454    -7.097
    307    O    3.072    15.520    -6.510
    308    C    1.669    14.105    -7.795
    309    N    0.506    14.828    -7.972
    310    C    -0.253    14.038    -8.688
    311    H    -1.244    14.303    -9.034
    312    C    -1.501    11.080    -9.127
    313    H    -1.406    11.079    -8.021
    314    O    -1.686    9.755    -9.586
    315    H    -1.998    9.764    -10.496
    316    C    -2.649    11.934    -9.626
    317    H    -2.653    12.919    -9.114
    318    O    -3.952    11.314    -9.627
    319    P    -4.900    11.441    -8.388
    320    O    -6.152    10.710    -8.708
    321    O    -5.044    12.875    -8.061
    322    O    -4.162    10.714    -7.209
    323    C    -4.915    10.081    -6.147
    324    H    -5.812    9.543    -6.538
    325    H    -5.274    10.848    -5.426
    326    C    -4.056    9.091    -5.342
    327    H    -4.359    9.073    -4.276
    328    O    -4.315    7.753    -5.849
    329    C    -3.094    7.061    -6.016
    330    H    -3.223    6.057    -5.539
    331    N    -2.801    6.872    -7.440
    332    C    -2.034    6.074    -9.338
    333    N    -3.039    6.966    -9.679
    334    C    -3.453    7.424    -8.519
    335    H    -4.232    8.176    -8.377
    336    N    -0.433    4.336    -9.442
    337    C    -0.328    4.460    -8.115
    338    H    0.412    3.812    -7.630
    339    N    -1.036    5.235    -7.286
    340    C    -1.883    6.011    -7.965
    341    C    -1.276    5.167    -10.105
    342    N    -1.280    5.159    -11.452
    343    H    -1.714    5.927    -11.925
    344    H    -0.441    4.821    -11.877
    345    C    -2.027    7.844    -5.275
    346    H    -1.015    7.707    -5.713
    347    O    -1.989    7.450    -3.916
    348    H    -2.877    7.229    -3.590
    349    C    -2.522    9.275    -5.436
    350    H    -2.258    9.601    -6.470
    351    O    -2.094    10.226    -4.430
    352    P    -0.637    10.838    -4.433
    353    O    -0.459    11.651    -3.209
    354    O    -0.417    11.538    -5.713
    355    O    0.321    9.628    -4.377
    356    C    1.327    9.248    -3.436
    357    H    0.840    8.853    -2.521
    358    H    1.964    10.110    -3.156
    359    C    2.246    8.139    -3.984
    360    H    2.626    7.482    -3.173
    361    O    1.502    7.291    -4.885
    362    C    2.280    7.002    -6.004
    363    H    2.143    5.918    -6.078
    364    N    1.776    7.614    -7.204
    365    C    1.179    8.090    -9.248
    366    N    0.850    9.153    -8.477
    367    C    1.191    8.836    -7.281
    368    H    1.084    9.487    -6.422
    369    N    1.375    6.632    -11.067
    370    C    2.009    5.817    -10.223
    371    H    2.314    4.870    -10.699
    372    N    2.305    5.980    -8.934
    373    C    1.799    7.129    -8.486
    374    C    0.937    7.810    -10.600
    375    N    0.294    8.629    -11.450
    376    H    -0.031    9.513    -11.117
    377    H    0.363    8.445    -12.427
    378    C    3.691    7.442    -5.718
    379    H    4.273    7.701    -6.632
    380    O    4.338    6.439    -4.979
    381    H    5.307    6.488    -5.092
    382    C    3.444    8.638    -4.821
    383    H    3.084    9.518    -5.394
    384    O    4.548    8.958    -3.960
    385    P    5.767    9.794    -4.447
    386    O    5.231    10.976    -5.151
    387    O    6.701    8.926    -5.191
    388    O    6.435    10.255    -3.091
    389    C    6.644    11.664    -2.794
    390    H    6.151    12.351    -3.522
    391    H    7.734    11.875    -2.837
    392    C    6.122    12.108    -1.402
    393    H    6.065    13.216    -1.349
    394    O    4.777    11.595    -1.132
    395    C    4.723    11.027    0.183
    396    H    3.806    11.440    0.660
    397    N    4.659    9.525    0.165
    398    C    4.582    8.855    -1.029
    399    H    4.507    9.515    -1.882
    400    C    4.602    8.821    1.349
    401    O    4.566    9.361    2.448
    402    N    4.603    7.456    1.208
    403    H    4.547    6.931    2.075
    404    C    4.656    6.727    0.043
    405    O    4.780    5.505    0.089
    406    C    4.592    7.518    -1.140
    407    H    4.604    7.028    -2.113
    408    C    5.958    11.540    0.907
    409    H    6.324    10.845    1.688
    410    O    5.708    12.806    1.493
    411    H    6.568    13.168    1.746
    412    C    6.968    11.626    -0.223
    413    H    7.307    10.604    -0.513
    414    O    8.048    12.552    0.026
    415    P    9.471    12.019    0.405
    416    O    10.445    13.115    0.195
    417    O    9.718    10.752    -0.314
    418    O    9.349    11.703    1.939
    419    C    9.444    12.733    2.948
    420    H    8.583    13.441    2.871
    421    H    10.389    13.315    2.835
    422    C    9.450    12.129    4.364
    423    H    9.526    12.935    5.124
    424    O    8.192    11.433    4.619
    425    C    8.452    10.224    5.331
    426    H    7.813    10.262    6.245
    427    N    8.123    8.993    4.540
    428    C    7.954    9.084    3.178
    429    H    8.005    10.087    2.759
    430    C    7.705    8.010    2.425
    431    H    7.559    8.086    1.348
    432    C    8.040    7.742    5.152
    433    O    8.214    7.664    6.380
    434    N    7.778    6.635    4.411
    435    C    7.622    6.748    3.076
    436    N    7.380    5.658    2.348
    437    H    7.082    4.816    2.793
    438    H    7.236    5.720    1.362
    439    C    9.919    10.252    5.751
    440    H    10.358    9.235    5.771
    441    O    10.079    10.849    7.022
    442    H    11.032    10.925    7.167
    443    C    10.558    11.102    4.656
    444    H    10.678    10.501    3.726
    445    O    11.774    11.787    5.049
    446    P    13.188    11.155    4.768
    447    O    14.211    12.224    4.819
    448    O    13.147    10.348    3.530
    449    O    13.404    10.156    5.949
    450    C    13.876    10.443    7.269
    451    H    13.178    11.126    7.808
    452    H    14.877    10.926    7.219
    453    C    14.014    9.138    8.081
    454    H    14.300    9.360    9.131
    455    O    12.735    8.428    8.124
    456    C    12.963    7.033    7.966
    457    H    12.455    6.521    8.815
    458    N    12.388    6.555    6.700
    459    C    11.504    5.335    5.100
    460    N    11.595    6.617    4.594
    461    C    12.117    7.296    5.575
    462    H    12.291    8.361    5.539
    463    N    11.076    3.027    5.311
    464    C    11.569    3.121    6.552
    465    H    11.599    2.185    7.122
    466    N    12.047    4.197    7.189
    467    C    11.985    5.280    6.399
    468    C    11.025    4.143    4.537
    469    N    10.542    4.081    3.282
    470    H    10.627    4.850    2.640
    471    H    10.242    3.198    2.905
    472    C    14.462    6.792    8.061
    473    H    14.791    5.937    7.430
    474    O    14.827    6.558    9.413
    475    H    15.798    6.547    9.495
    476    C    15.015    8.111    7.521
    477    H    14.949    8.133    6.411
    478    O    16.349    8.425    7.959
    479    H    16.985    7.763    7.630
    480    H    7.754    -4.664    1.603
    481    O    7.767    -4.337    2.521
    482    C    8.301    -5.386    3.342
    483    H    9.147    -5.878    2.815
    484    H    7.498    -6.140    3.480
    485    C    8.779    -4.929    4.736
    486    H    9.016    -5.807    5.376
    487    O    10.021    -4.167    4.603
    488    C    9.974    -3.014    5.437
    489    H    10.917    -3.008    6.035
    490    N    9.865    -1.759    4.632
    491    C    9.366    -1.793    3.346
    492    H    9.283    -2.781    2.911
    493    C    10.253    -0.567    5.197
    494    O    10.695    -0.486    6.339
    495    N    10.125    0.528    4.379
    496    H    10.469    1.405    4.749
    497    C    9.691    0.550    3.069
    498    O    9.776    1.580    2.405
    499    C    9.236    -0.704    2.579
    500    H    8.951    -0.778    1.532
    501    C    8.801    -3.200    6.376
    502    H    8.361    -2.233    6.689
    503    O    9.194    -3.935    7.520
    504    H    8.382    -4.158    7.994
    505    C    7.830    -3.994    5.510
    506    H    7.354    -3.318    4.761
    507    O    6.878    -4.775    6.261
    508    P    5.375    -4.346    6.391
    509    O    4.610    -5.471    6.979
    510    O    4.888    -3.828    5.095
    511    O    5.386    -3.150    7.414
    512    C    5.836    -3.354    8.775
    513    H    6.761    -3.973    8.820
    514    H    5.049    -3.878    9.365
    515    C    6.158    -2.029    9.475
    516    H    6.440    -2.203    10.537
    517    O    7.305    -1.414    8.820
    518    C    7.086    -0.023    8.672
    519    H    7.982    0.487    9.094
    520    N    6.960    0.356    7.247
    521    C    7.221    1.587    6.706
    522    N    7.897    4.953    7.121
    523    H    7.993    5.043    8.109
    524    H    7.881    5.788    6.561
    525    N    7.579    2.686    7.389
    526    C    7.689    3.756    6.607
    527    N    7.546    3.712    5.247
    528    H    7.628    4.579    4.745
    529    C    7.235    2.576    4.506
    530    O    7.124    2.632    3.280
    531    C    7.030    1.445    5.344
    532    N    6.615    0.157    5.030
    533    C    6.580    -0.448    6.193
    534    H    6.315    -1.489    6.334
    535    C    5.877    0.333    9.507
    536    H    5.314    1.180    9.069
    537    O    6.277    0.651    10.832
    538    H    5.465    0.745    11.364
    539    C    5.052    -0.963    9.443
    540    H    4.541    -1.040    8.458
    541    O    4.118    -1.201    10.517
    542    P    3.053    -0.139    10.972
    543    O    3.675    0.640    12.069
    544    O    1.790    -0.847    11.296
    545    O    2.843    0.760    9.697
    546    C    2.051    1.969    9.748
    547    H    1.229    1.910    10.497
    548    H    1.550    2.043    8.758
    549    C    2.820    3.297    9.965
    550    H    2.956    3.527    11.044
    551    O    4.146    3.258    9.367
    552    C    4.363    4.420    8.581
    553    H    5.367    4.819    8.856
    554    N    4.346    4.080    7.157
    555    C    4.434    4.129    4.966
    556    N    4.309    2.796    5.321
    557    C    4.250    2.819    6.623
    558    H    4.155    1.940    7.265
    559    N    4.570    6.121    3.711
    560    C    4.535    6.772    4.877
    561    H    4.558    7.867    4.806
    562    N    4.548    6.272    6.115
    563    C    4.454    4.934    6.088
    564    C    4.550    4.768    3.717
    565    N    4.684    4.108    2.552
    566    H    4.765    3.109    2.523
    567    H    4.701    4.611    1.682
    568    C    3.288    5.410    8.948
    569    H    3.019    6.097    8.117
    570    O    3.674    6.167    10.077
    571    H    2.903    6.714    10.310
    572    C    2.127    4.472    9.255
    573    H    1.714    4.070    8.301
    574    O    1.078    5.006    10.086
    575    P    0.281    6.282    9.625
    576    O    1.085    7.458    10.024
    577    O    -1.091    6.181    10.173
    578    O    0.261    6.147    8.059
    579    C    -0.866    6.515    7.232
    580    H    -1.678    7.023    7.801
    581    H    -1.304    5.575    6.834
    582    C    -0.499    7.415    6.018
    583    H    -0.662    8.486    6.268
    584    O    0.924    7.299    5.667
    585    C    1.040    7.029    4.276
    586    H    1.896    7.624    3.884
    587    N    1.262    5.599    4.035
    588    C    1.489    5.004    2.822
    589    N    1.814    5.199    -0.611
    590    H    1.587    6.149    -0.787
    591    H    2.019    4.600    -1.393
    592    N    1.583    5.633    1.635
    593    C    1.854    4.791    0.642
    594    N    2.139    3.466    0.834
    595    H    2.362    2.921    0.016
    596    C    2.041    2.792    2.049
    597    O    2.284    1.584    2.136
    598    C    1.632    3.659    3.100
    599    N    1.437    3.407    4.457
    600    C    1.242    4.593    4.974
    601    H    1.121    4.817    6.038
    602    C    -0.251    7.469    3.640
    603    H    -0.467    6.943    2.684
    604    O    -0.253    8.865    3.426
    605    H    -1.156    9.116    3.181
    606    C    -1.244    7.063    4.713
    607    H    -1.354    5.952    4.714
    608    O    -2.503    7.765    4.639
    609    P    -3.782    7.012    4.123
    610    O    -4.953    7.895    4.301
    611    O    -3.842    5.691    4.778
    612    O    -3.516    6.793    2.584
    613    C    -3.910    7.804    1.621
    614    H    -3.298    8.727    1.748
    615    H    -4.984    8.080    1.747
    616    C    -3.745    7.329    0.166
    617    H    -3.946    8.155    -0.548
    618    O    -2.380    6.893    -0.069
    619    C    -2.391    5.769    -0.934
    620    H    -1.795    6.039    -1.830
    621    N    -1.775    4.593    -0.313
    622    C    -0.864    2.618    0.020
    623    N    -0.940    3.229    1.263
    624    C    -1.464    4.405    1.008
    625    H    -1.621    5.202    1.740
    626    N    -0.351    1.114    -1.726
    627    C    -0.903    2.008    -2.547
    628    H    -0.926    1.720    -3.600
    629    N    -1.419    3.208    -2.271