!*** FMO 5.3 (Gamess) INPUT generated by Facio 22.1.1.32 ***
 $CONTRL RUNTYP=ENERGY NPRINT=-5 ISPHER=1 MAXIT=200 $END
 $SYSTEM MWORDS=63 MEMDDI=63 $END
 $GDDI NGROUP=1 $END
 $SCF DIRSCF=.TRUE. NPUNCH=0 $END
!*** NumCPU : 2  MemPerNode : 512MB
 $PCM SOLVNT=WATER IEF=-10 ICOMP=2 ICAV=1 IDISP=1 IFMO=-1 $END
 $PCMCAV RADII=SUAHF $END
 $TESCAV NTSALL=60 $END
 $FMOPRP
    NAODIR=200
    NGRFMO(1)=1, 1, 0, 0, 0,   0, 0, 0, 0, 0
    IPIEDA=1
    NPRINT=9
 $END
 $FMO
      SCFTYP(1)=RHF
      MODGRD=10
      MODMUL=0
      MAXCAO=5
      MAXBND=24
      NLAYER=1
      MPLEVL(1)=2
      NFRAG=22
      ICHARG(1)=-1, -1, -1, -1, -1, -1, 0, -1, -1, -1, -1, -1, -1, -1, 0,
-1, -1, -1, -1, -1, -1, 0
      FRGNAM(1)=F1, F2, F3, F4, F5, F6, F7, F8, F9, F10, F11, F12, F13,
F14, F15, F16, F17, F18, F19, F20, F21, F22
      indat(1)=0
               1   -36   0
               37   -67   0
               68   -97   0
               98   -128   0
               129   -161   0
               162   -194   0
               195   -224   0
               225   -258   0
               259   -288   0
               289   -322   0
               323   -355   0
               356   -388   0
               389   -418   0
               419   -449   0
               450   -481   0
               482   -511   0
               512   -545   0
               546   -578   0
               579   -612   0
               613   -645   0
               646   -679   0
               680   -707   0
 $END

 $FMOBND
   -37   36       6-31G*    MINI
   -68   67       6-31G*    MINI
   -98   97       6-31G*    MINI
   -129   128       6-31G*    MINI
   -162   161       6-31G*    MINI
   -195   194       6-31G*    MINI
   -225   224       6-31G*    MINI
   -259   258       6-31G*    MINI
   -289   288       6-31G*    MINI
   -323   322       6-31G*    MINI
   -356   355       6-31G*    MINI
   -389   388       6-31G*    MINI
   -419   418       6-31G*    MINI
   -450   449       6-31G*    MINI
   -482   481       6-31G*    MINI
   -512   511       6-31G*    MINI
   -546   545       6-31G*    MINI
   -579   578       6-31G*    MINI
   -613   612       6-31G*    MINI
   -646   645       6-31G*    MINI
   -680   679       6-31G*    MINI
 $END
 $FMOHYB
 6-31G*      15   5
   1 0  -0.065034   0.288264   0.000000   0.000000   0.604412
         0.290129   0.000000   0.000000   0.319045  -0.017106
        -0.017106   0.057934   0.000000   0.000000   0.000000
   0 1  -0.065040   0.288293   0.569832   0.000000  -0.201456
         0.290147   0.300783   0.000000  -0.106342   0.049598
        -0.017106  -0.008771   0.000000  -0.027223   0.000000
   0 1  -0.065039   0.288293  -0.284916  -0.493490  -0.201455
         0.290145  -0.150392  -0.260486  -0.106340  -0.000427
         0.032923  -0.008771   0.033353   0.013612   0.023576
   0 1  -0.065039   0.288293  -0.284916   0.493490  -0.201455
         0.290145  -0.150392   0.260486  -0.106340  -0.000427
         0.032923  -0.008771  -0.033353   0.013612  -0.023576
   0 1   1.010938  -0.011975   0.000000   0.000000   0.000000
        -0.054085   0.000000   0.000000  -0.000000  -0.003174
        -0.003174  -0.003174   0.000000   0.000000   0.000000
 MINI         5   5
   1 0  -0.104883   0.308874   0.000000   0.000000   0.521806
   0 1  -0.104883   0.308874   0.491961   0.000000  -0.173934
   0 1  -0.104883   0.308876  -0.245980  -0.426050  -0.173933
   0 1  -0.104883   0.308876  -0.245980   0.426050  -0.173933
   0 1   0.988209   0.063992   0.000000   0.000000   0.000000
 $END
 
 $DATA
 FMO calculation
 C1 
 H.1-1    1
      N31 6
   
 O.1-1    8
      N31 6
      d 1
      1 0.800 1.0
   
 C.1-1    6
      N31 6
      d 1
      1 0.800 1.0
   
 N.1-1    7
      N31 6
      d 1
      1 0.800 1.0
   
 P.1-1   15
      N31 6
      d 1
      1 0.550 1.0
   
 $END
 $FMOXYZ
    1    H    3.781    -11.247    5.686
    2    O    3.120    -11.178    4.973
    3    C    3.196    -12.403    4.227
    4    H    2.954    -13.258    4.899
    5    H    4.237    -12.541    3.867
    6    C    2.232    -12.441    3.036
    7    H    2.344    -13.385    2.463
    8    O    0.859    -12.391    3.527
    9    C    0.075    -11.609    2.645
    10    H    -0.778    -12.245    2.318
    11    N    -0.458    -10.414    3.316
    12    C    -1.507    -9.646    2.885
    13    N    -3.984    -8.978    0.563
    14    H    -3.841    -9.683    -0.129
    15    H    -4.714    -8.303    0.428
    16    N    -2.219    -9.843    1.763
    17    C    -3.192    -8.947    1.617
    18    N    -3.448    -7.961    2.534
    19    H    -4.210    -7.328    2.350
    20    C    -2.743    -7.743    3.711
    21    O    -3.050    -6.834    4.489
    22    C    -1.677    -8.672    3.851
    23    N    -0.731    -8.806    4.858
    24    C    -0.028    -9.857    4.501
    25    H    0.812    -10.281    5.058
    26    C    0.936    -11.270    1.449
    27    H    0.675    -10.289    1.008
    28    O    0.808    -12.280    0.470
    29    H    1.389    -12.031    -0.259
    30    C    2.337    -11.263    2.054
    31    H    2.482    -10.349    2.674
    32    O    3.419    -11.487    1.109
    33    P    4.110    -10.227    0.454
    34    O    4.367    -9.223    1.507
    35    O    5.280    -10.653    -0.354
    36    O    3.000    -9.657    -0.502
    37    C    2.583    -10.387    -1.677
    38    H    2.313    -11.441    -1.438
    39    H    3.414    -10.423    -2.419
    40    C    1.372    -9.725    -2.351
    41    H    1.041    -10.324    -3.230
    42    O    0.253    -9.650    -1.424
    43    C    -0.442    -8.427    -1.627
    44    H    -1.493    -8.714    -1.861
    45    N    -0.444    -7.547    -0.425
    46    C    0.506    -7.710    0.557
    47    H    1.231    -8.503    0.388
    48    C    0.509    -6.956    1.664
    49    H    1.226    -7.103    2.472
    50    C    -1.380    -6.524    -0.308
    51    O    -2.195    -6.338    -1.223
    52    N    -1.392    -5.749    0.799
    53    C    -0.494    -5.952    1.779
    54    N    -0.555    -5.204    2.876
    55    H    -1.269    -4.503    2.960
    56    H    0.099    -5.304    3.624
    57    C    0.168    -7.758    -2.842
    58    H    0.135    -6.653    -2.781
    59    O    -0.493    -8.187    -4.014
    60    H    0.005    -7.807    -4.748
    61    C    1.602    -8.277    -2.802
    62    H    2.177    -7.775    -1.990
    63    O    2.297    -8.268    -4.071
    64    P    3.096    -6.986    -4.507
    65    O    3.899    -6.514    -3.359
    66    O    3.814    -7.275    -5.770
    67    O    1.983    -5.917    -4.780
    68    C    1.115    -5.960    -5.929
    69    H    0.567    -6.926    -5.988
    70    H    1.705    -5.860    -6.871
    71    C    0.090    -4.814    -5.885
    72    H    -0.608    -4.873    -6.743
    73    O    -0.715    -4.879    -4.670
    74    C    -0.969    -3.555    -4.203
    75    H    -2.080    -3.459    -4.173
    76    N    -0.412    -3.318    -2.841
    77    C    0.630    -4.081    -2.366
    78    H    1.011    -4.826    -3.060
    79    C    -0.962    -2.321    -2.065
    80    O    -1.871    -1.597    -2.458
    81    N    -0.427    -2.207    -0.808
    82    H    -0.812    -1.463    -0.235
    83    C    0.565    -2.980    -0.244
    84    O    0.914    -2.790    0.919
    85    C    1.117    -3.961    -1.124
    86    H    1.922    -4.596    -0.757
    87    C    -0.417    -2.595    -5.239
    88    H    -0.032    -1.655    -4.790
    89    O    -1.420    -2.295    -6.189
    90    H    -0.994    -1.782    -6.886
    91    C    0.705    -3.411    -5.870
    92    H    1.581    -3.458    -5.183
    93    O    1.061    -3.021    -7.219
    94    P    2.175    -1.919    -7.398
    95    O    3.354    -2.274    -6.577
    96    O    2.412    -1.740    -8.847
    97    O    1.534    -0.616    -6.803
    98    C    0.517    0.133    -7.502
    99    H    -0.400    -0.474    -7.660
    100    H    0.889    0.449    -8.505
    101    C    0.118    1.396    -6.723
    102    H    -0.647    1.983    -7.277
    103    O    -0.465    1.040    -5.435
    104    C    -0.037    1.983    -4.457
    105    H    -0.978    2.449    -4.088
    106    N    0.677    1.338    -3.320
    107    C    1.513    0.274    -3.569
    108    H    1.572    -0.049    -4.608
    109    C    2.171    -0.346    -2.579
    110    H    2.812    -1.208    -2.752
    111    C    0.533    1.812    -2.016
    112    O    -0.213    2.781    -1.798
    113    N    1.208    1.212    -1.009
    114    C    2.000    0.156    -1.257
    115    N    2.610    -0.439    -0.234
    116    H    2.432    -0.117    0.699
    117    H    3.232    -1.210    -0.356
    118    C    0.794    3.060    -5.159
    119    H    1.644    3.409    -4.535
    120    O    -0.018    4.160    -5.516
    121    H    0.474    4.677    -6.171
    122    C    1.290    2.316    -6.398
    123    H    2.132    1.646    -6.119
    124    O    1.594    3.130    -7.555
    125    P    3.004    3.829    -7.620
    126    O    2.768    5.284    -7.549
    127    O    3.899    3.228    -6.607
    128    O    3.536    3.432    -9.055
    129    C    4.827    3.904    -9.524
    130    H    5.637    3.231    -9.163
    131    H    5.052    4.933    -9.151
    132    C    4.897    3.952    -11.064
    133    H    4.718    2.943    -11.498
    134    O    3.858    4.833    -11.568
    135    C    4.352    5.580    -12.666
    136    H    3.651    5.387    -13.512
    137    N    4.358    7.009    -12.359
    138    C    4.505    9.193    -12.503
    139    N    4.036    8.919    -11.223
    140    C    3.968    7.612    -11.187
    141    H    3.632    7.017    -10.332
    142    N    5.227    10.325    -14.460
    143    C    5.351    9.117    -15.008
    144    H    5.712    9.114    -16.042
    145    N    5.142    7.910    -14.475
    146    C    4.700    8.022    -13.213
    147    C    4.785    10.397    -13.182
    148    N    4.657    11.619    -12.660
    149    H    4.268    11.815    -11.749
    150    H    4.951    12.389    -13.220
    151    C    5.727    5.049    -13.010
    152    H    6.416    5.829    -13.401
    153    O    5.608    4.001    -13.954
    154    H    6.477    3.573    -14.031
    155    C    6.198    4.538    -11.657
    156    H    6.468    5.394    -10.996
    157    O    7.232    3.531    -11.738
    158    P    8.744    3.984    -11.679
    159    O    8.877    5.093    -10.711
    160    O    9.585    2.789    -11.448
    161    O    9.062    4.521    -13.129
    162    C    10.277    5.295    -13.364
    163    H    11.045    4.644    -13.842
    164    H    10.726    5.678    -12.415
    165    C    10.062    6.524    -14.275
    166    H    10.092    6.233    -15.345
    167    O    8.747    7.103    -14.037
    168    C    8.829    8.511    -14.070
    169    H    8.067    8.859    -14.804
    170    N    8.520    9.072    -12.753
    171    C    7.938    10.427    -11.125
    172    N    8.078    9.169    -10.554
    173    C    8.418    8.398    -11.557
    174    H    8.610    7.323    -11.491
    175    N    7.544    12.738    -11.440
    176    C    7.862    12.538    -12.721
    177    H    7.831    13.430    -13.356
    178    N    8.231    11.409    -13.336
    179    C    8.221    10.380    -12.479
    180    C    7.568    11.681    -10.591
    181    N    7.267    11.883    -9.295
    182    H    7.304    11.148    -8.611
    183    H    7.047    12.811    -8.980
    184    C    10.210    8.873    -14.564
    185    H    10.568    9.845    -14.169
    186    O    10.206    8.907    -15.978
    187    H    11.120    9.013    -16.268
    188    C    11.033    7.702    -14.042
    189    H    11.158    7.789    -12.936
    190    O    12.281    7.481    -14.745
    191    P    13.618    8.044    -14.123
    192    O    13.608    7.792    -12.667
    193    O    14.785    7.532    -14.876
    194    O    13.513    9.600    -14.349
    195    C    13.539    10.126    -15.699
    196    H    12.738    9.674    -16.325
    197    H    14.514    9.894    -16.188
    198    C    13.351    11.651    -15.733
    199    H    13.444    12.037    -16.772
    200    O    12.017    11.996    -15.262
    201    C    12.090    13.171    -14.459
    202    H    11.380    13.900    -14.918
    203    N    11.678    12.926    -13.045
    204    C    11.675    11.650    -12.536
    205    H    11.990    10.864    -13.220
    206    C    11.294    11.395    -11.279
    207    H    11.268    10.389    -10.869
    208    C    11.316    13.988    -12.222
    209    O    11.353    15.140    -12.674
    210    N    10.936    13.754    -10.945
    211    C    10.915    12.498    -10.467
    212    N    10.536    12.289    -9.208
    213    H    10.244    13.069    -8.649
    214    H    10.479    11.372    -8.810
    215    C    13.503    13.722    -14.580
    216    H    13.841    14.215    -13.640
    217    O    13.583    14.630    -15.669
    218    H    14.518    14.826    -15.842
    219    C    14.305    12.449    -14.836
    220    H    14.445    11.884    -13.889
    221    O    15.563    12.663    -15.501
    222    H    16.154    13.189    -14.930
    223    H    6.736    20.730    -3.113
    224    O    7.071    20.645    -4.026
    225    C    7.362    21.968    -4.498
    226    H    8.161    22.409    -3.861
    227    H    6.454    22.604    -4.396
    228    C    7.828    21.995    -5.959
    229    H    7.997    23.040    -6.298
    230    O    9.102    21.291    -6.077
    231    C    9.118    20.564    -7.298
    232    H    10.031    20.878    -7.852
    233    N    9.170    19.114    -7.073
    234    C    9.556    18.179    -7.994
    235    N    10.604    17.357    -11.186
    236    H    10.644    18.245    -11.642
    237    H    10.834    16.529    -11.705
    238    N    9.940    18.429    -9.260
    239    C    10.242    17.314    -9.920
    240    N    10.225    16.071    -9.345
    241    H    10.487    15.280    -9.914
    242    C    9.855    15.784    -8.039
    243    O    9.874    14.627    -7.608
    244    C    9.474    16.962    -7.343
    245    N    9.009    17.127    -6.045
    246    C    8.835    18.424    -5.928
    247    H    8.488    18.943    -5.030
    248    C    7.894    20.966    -8.085
    249    H    7.512    20.150    -8.734
    250    O    8.186    22.106    -8.871
    251    H    7.351    22.383    -9.268
    252    C    6.908    21.296    -6.973
    253    H    6.548    20.361    -6.484
    254    O    5.833    22.180    -7.363
    255    P    4.479    21.560    -7.876
    256    O    4.071    20.502    -6.931
    257    O    3.516    22.662    -8.101
    258    O    4.854    20.889    -9.249
    259    C    5.186    21.703    -10.399
    260    H    6.026    22.396    -10.179
    261    H    4.314    22.327    -10.701
    262    C    5.588    20.841    -11.606
    263    H    5.846    21.484    -12.477
    264    O    6.769    20.041    -11.298
    265    C    6.651    18.770    -11.935
    266    H    7.546    18.681    -12.594
    267    N    6.625    17.641    -10.968
    268    C    6.289    17.835    -9.648
    269    H    6.036    18.861    -9.378
    270    C    6.952    16.389    -11.439
    271    O    7.262    16.182    -12.607
    272    N    6.923    15.393    -10.500
    273    H    7.150    14.462    -10.835
    274    C    6.624    15.513    -9.160
    275    O    6.667    14.524    -8.433
    276    C    6.300    16.845    -8.743
    277    H    6.078    17.029    -7.696
    278    C    5.405    18.809    -12.796
    279    H    4.892    17.826    -12.846
    280    O    5.722    19.260    -14.101
    281    H    4.887    19.506    -14.526
    282    C    4.542    19.814    -12.053
    283    H    4.129    19.358    -11.123
    284    O    3.541    20.443    -12.878
    285    P    2.041    19.978    -12.793
    286    O    1.515    20.313    -11.453
    287    O    1.342    20.575    -13.954
    288    O    2.113    18.414    -12.944
    289    C    2.305    17.774    -14.228
    290    H    3.271    18.084    -14.688
    291    H    1.481    18.026    -14.941
    292    C    2.341    16.247    -14.086
    293    H    2.506    15.762    -15.075
    294    O    3.442    15.848    -13.227
    295    C    3.041    14.737    -12.448
    296    H    3.786    13.949    -12.667
    297    N    3.080    15.032    -11.024
    298    C    3.311    14.112    -10.050
    299    N    4.059    10.890    -9.073
    300    H    4.003    10.342    -9.911
    301    H    3.931    10.446    -8.182
    302    N    3.553    12.801    -10.249
    303    C    3.781    12.173    -9.105
    304    N    3.809    12.792    -7.886
    305    H    3.815    12.190    -7.078
    306    C    3.557    14.135    -7.657
    307    O    3.607    14.623    -6.526
    308    C    3.297    14.824    -8.865
    309    N    3.052    16.172    -9.096
    310    C    2.924    16.247    -10.400
    311    H    2.734    17.157    -10.971
    312    C    1.671    14.296    -12.910
    313    H    1.032    13.900    -12.088
    314    O    1.823    13.302    -13.914
    315    H    1.822    12.441    -13.459
    316    C    1.113    15.610    -13.440
    317    H    0.844    16.271    -12.583
    318    O    0.062    15.477    -14.411
    319    P    -1.411    15.824    -14.008
    320    O    -1.470    17.186    -13.431
    321    O    -2.282    15.564    -15.174
    322    O    -1.786    14.796    -12.872
    323    C    -2.923    15.155    -12.038
    324    H    -3.750    15.631    -12.625
    325    H    -2.602    15.890    -11.267
    326    C    -3.527    13.943    -11.328
    327    H    -4.319    14.244    -10.608
    328    O    -4.158    13.102    -12.336
    329    C    -3.880    11.741    -12.069
    330    H    -4.873    11.233    -12.004
    331    N    -3.102    11.131    -13.152
    332    C    -2.174    9.667    -14.505
    333    N    -1.924    10.916    -15.059
    334    C    -2.479    11.754    -14.212
    335    H    -2.491    12.842    -14.316
    336    N    -2.256    7.328    -14.141
    337    C    -2.910    7.605    -13.010
    338    H    -3.199    6.738    -12.405
    339    N    -3.294    8.791    -12.524
    340    C    -2.893    9.788    -13.329
    341    C    -1.862    8.359    -14.931
    342    N    -1.202    8.101    -16.073
    343    H    -0.825    8.835    -16.638
    344    H    -0.937    7.160    -16.290
    345    C    -3.186    11.653    -10.726
    346    H    -2.418    10.854    -10.701
    347    O    -4.135    11.438    -9.697
    348    H    -3.679    11.606    -8.861
    349    C    -2.523    13.018    -10.614
    350    H    -1.591    13.021    -11.231
    351    O    -2.312    13.461    -9.252
    352    P    -0.852    13.476    -8.652
    353    O    0.020    14.181    -9.610
    354    O    -0.942    14.042    -7.290
    355    O    -0.462    11.954    -8.570
    356    C    -1.098    11.045    -7.646
    357    H    -2.207    11.149    -7.665
    358    H    -0.752    11.257    -6.609
    359    C    -0.757    9.581    -7.975
    360    H    -1.303    8.883    -7.307
    361    O    -1.170    9.273    -9.334
    362    C    -0.197    8.474    -9.971
    363    H    -0.727    7.553    -10.311
    364    N    0.359    9.167    -11.142
    365    C    1.190    9.603    -13.132
    366    N    0.988    10.829    -12.527
    367    C    0.495    10.523    -11.351
    368    H    0.203    11.252    -10.598
    369    N    1.766    7.931    -14.697
    370    C    1.364    7.045    -13.783
    371    H    1.456    5.994    -14.084
    372    N    0.898    7.257    -12.547
    373    C    0.819    8.570    -12.287
    374    C    1.672    9.250    -14.408
    375    N    2.024    10.140    -15.358
    376    H    1.954    11.128    -15.225
    377    H    2.394    9.809    -16.229
    378    C    0.861    8.097    -8.945
    379    H    1.881    8.073    -9.381
    380    O    0.568    6.835    -8.376
    381    H    1.337    6.561    -7.836
    382    C    0.739    9.230    -7.921
    383    H    1.275    10.132    -8.298
    384    O    1.103    8.869    -6.569
    385    P    2.483    9.288    -5.938
    386    O    3.369    8.111    -5.879
    387    O    3.056    10.462    -6.619
    388    O    2.103    9.728    -4.481
    389    C    1.109    10.757    -4.245
    390    H    0.106    10.437    -4.616
    391    H    1.387    11.699    -4.773
    392    C    0.971    11.075    -2.743
    393    H    0.342    11.976    -2.582
    394    O    0.299    9.964    -2.076
    395    C    0.931    9.698    -0.828
    396    H    0.119    9.732    -0.065
    397    N    1.590    8.354    -0.798
    398    C    1.828    7.661    -1.964
    399    H    1.541    8.171    -2.883
    400    C    1.948    7.812    0.419
    401    O    1.789    8.409    1.478
    402    N    2.486    6.550    0.359
    403    H    2.741    6.123    1.244
    404    C    2.708    5.785    -0.764
    405    O    3.176    4.654    -0.658
    406    C    2.356    6.430    -1.990
    407    H    2.511    5.901    -2.927
    408    C    1.892    10.844    -0.562
    409    H    2.774    10.520    0.023
    410    O    1.234    11.894    0.120
    411    H    1.867    12.622    0.180
    412    C    2.288    11.258    -1.974
    413    H    3.004    10.511    -2.386
    414    O    2.743    12.628    -2.105
    415    P    4.284    12.920    -2.032
    416    O    5.002    11.900    -2.817
    417    O    4.544    14.339    -2.369
    418    O    4.643    12.680    -0.530
    419    C    4.264    13.598    0.512
    420    H    3.165    13.769    0.509
    421    H    4.767    14.586    0.374
    422    C    4.639    13.040    1.890
    423    H    4.298    13.724    2.696
    424    O    3.984    11.753    2.103
    425    C    4.867    10.885    2.806
    426    H    4.307    10.571    3.718
    427    N    5.239    9.658    2.030
    428    C    5.143    9.656    0.658
    429    H    4.785    10.577    0.207
    430    C    5.438    8.571    -0.069
    431    H    5.333    8.552    -1.152
    432    C    5.718    8.519    2.679
    433    O    5.852    8.537    3.913
    434    N    6.025    7.413    1.961
    435    C    5.884    7.412    0.624
    436    N    6.157    6.303    -0.062
    437    H    6.469    5.484    0.425
    438    H    6.081    6.265    -1.056
    439    C    6.071    11.718    3.221
    440    H    6.999    11.117    3.275
    441    O    5.831    12.323    4.477
    442    H    6.583    12.897    4.665
    443    C    6.131    12.757    2.100
    444    H    6.498    12.281    1.162
    445    O    6.819    13.994    2.416
    446    P    8.347    14.126    2.051
    447    O    8.555    13.681    0.658
    448    O    8.795    15.499    2.371
    449    O    9.053    13.111    3.019
    450    C    9.208    13.480    4.408
    451    H    8.219    13.648    4.890
    452    H    9.804    14.418    4.511
    453    C    9.944    12.381    5.173
    454    H    10.075    12.663    6.239
    455    O    9.168    11.145    5.145
    456    C    10.057    10.046    5.010
    457    H    9.845    9.366    5.867
    458    N    9.831    9.323    3.752
    459    C    9.770    7.772    2.192
    460    N    9.136    8.884    1.660
    461    C    9.196    9.773    2.620
    462    H    8.809    10.790    2.553
    463    N    10.706    5.615    2.469
    464    C    11.097    6.024    3.682
    465    H    11.657    5.287    4.267
    466    N    10.902    7.206    4.276
    467    C    10.213    8.035    3.477
    468    C    10.020    6.481    1.679
    469    N    9.620    6.069    0.461
    470    H    9.190    6.692    -0.195
    471    H    9.823    5.135    0.153
    472    C    11.477    10.578    5.123
    473    H    12.189    10.009    4.488
    474    O    11.900    10.536    6.476
    475    H    12.712    11.062    6.564
    476    C    11.316    12.006    4.603
    477    H    11.250    12.015    3.488
    478    O    12.323    12.927    5.068
    479    H    13.174    12.734    4.631
    480    H    12.195    -3.470    -0.257
    481    O    12.168    -2.820    0.468
    482    C    13.133    -3.241    1.442
    483    H    14.124    -3.355    0.949
    484    H    12.834    -4.237    1.839
    485    C    13.272    -2.268    2.622
    486    H    13.963    -2.681    3.391
    487    O    13.847    -0.998    2.170
    488    C    13.212    0.073    2.861
    489    H    14.033    0.666    3.332
    490    N    12.420    0.949    1.947
    491    C    12.029    0.519    0.696
    492    H    12.343    -0.490    0.426
    493    C    12.090    2.213    2.386
    494    O    12.407    2.631    3.495
    495    N    11.397    2.980    1.486
    496    H    11.144    3.907    1.806
    497    C    11.001    2.633    0.213
    498    O    10.411    3.453    -0.491
    499    C    11.351    1.295    -0.165
    500    H    11.089    0.943    -1.161
    501    C    12.362    -0.551    3.951
    502    H    11.469    0.059    4.189
    503    O    13.141    -0.751    5.117
    504    H    12.550    -1.153    5.766
    505    C    11.958    -1.876    3.307
    506    H    11.217    -1.696    2.494
    507    O    11.548    -2.922    4.224
    508    P    10.016    -3.015    4.609
    509    O    9.199    -2.953    3.378
    510    O    9.803    -4.195    5.472
    511    O    9.756    -1.717    5.453
    512    C    10.293    -1.582    6.789
    513    H    11.393    -1.727    6.799
    514    H    9.845    -2.335    7.483
    515    C    9.991    -0.188    7.343
    516    H    10.440    -0.059    8.350
    517    O    10.548    0.841    6.474
    518    C    9.653    1.943    6.430
    519    H    10.239    2.843    6.732
    520    N    9.110    2.159    5.079
    521    C    8.535    3.313    4.614
    522    N    7.407    6.550    5.139
    523    H    7.653    6.719    6.093
    524    H    6.854    7.231    4.648
    525    N    8.358    4.451    5.317
    526    C    7.720    5.381    4.606
    527    N    7.337    5.202    3.303
    528    H    6.878    5.966    2.831
    529    C    7.554    4.060    2.542
    530    O    7.189    3.994    1.365
    531    C    8.193    3.048    3.300
    532    N    8.536    1.749    2.950
    533    C    9.069    1.256    4.040
    534    H    9.450    0.240    4.150
    535    C    8.566    1.678    7.444
    536    H    7.591    2.122    7.153
    537    O    8.970    2.174    8.706
    538    H    8.281    1.916    9.331
    539    C    8.500    0.150    7.437
    540    H    8.020    -0.221    6.499
    541    O    7.945    -0.459    8.626
    542    P    6.388    -0.655    8.734
    543    O    5.939    -1.425    7.554
    544    O    6.086    -1.236    10.059
    545    O    5.794    0.798    8.654
    546    C    5.824    1.661    9.816
    547    H    6.866    1.832    10.167
    548    H    5.265    1.206    10.663
    549    C    5.199    3.027    9.514
    550    H    5.328    3.720    10.375
    551    O    5.865    3.633    8.370
    552    C    4.919    4.355    7.609
    553    H    5.289    5.404    7.557
    554    N    4.803    3.820    6.252
    555    C    4.407    3.599    4.102
    556    N    5.012    2.417    4.509
    557    C    5.221    2.597    5.790
    558    H    5.671    1.865    6.464
    559    N    3.407    5.292    2.788
    560    C    3.340    6.017    3.909
    561    H    2.897    7.014    3.802
    562    N    3.743    5.699    5.144
    563    C    4.269    4.468    5.169
    564    C    3.954    4.051    2.846
    565    N    4.051    3.333    1.712
    566    H    4.568    2.474    1.667
    567    H    3.785    3.764    0.845
    568    C    3.607    4.318    8.360
    569    H    2.733    4.306    7.680
    570    O    3.526    5.431    9.227
    571    H    2.759    5.289    9.797
    572    C    3.711    3.010    9.139
    573    H    3.561    2.130    8.467
    574    O    2.895    2.958    10.336
    575    P    1.448    2.333    10.272
    576    O    1.562    0.942    9.787
    577    O    0.805    2.514    11.590
    578    O    0.687    3.187    9.192
    579    C    0.207    4.520    9.474
    580    H    1.025    5.178    9.846
    581    H    -0.575    4.489    10.263
    582    C    -0.403    5.176    8.224
    583    H    -0.757    6.203    8.447
    584    O    0.609    5.289    7.182
    585    C    0.031    4.997    5.920
    586    H    0.263    5.855    5.249
    587    N    0.601    3.769    5.332
    588    C    0.599    3.414    4.009
    589    N    -0.166    4.114    0.703
    590    H    -0.726    4.938    0.777
    591    H    -0.126    3.631    -0.176
    592    N    0.053    4.121    3.002
    593    C    0.281    3.559    1.815
    594    N    0.956    2.378    1.658
    595    H    1.071    2.016    0.723
    596    C    1.526    1.624    2.677
    597    O    2.134    0.573    2.443
    598    C    1.287    2.214    3.946
    599    N    1.686    1.805    5.210
    600    C    1.249    2.754    5.998
    601    H    1.391    2.784    7.076
    602    C    -1.463    4.903    6.126
    603    H    -1.944    4.202    5.417
    604    O    -2.051    6.181    5.995
    605    H    -2.980    6.072    6.232
    606    C    -1.554    4.402    7.565
    607    H    -1.280    3.322    7.617
    608    O    -2.799    4.706    8.242
    609    P    -3.957    3.641    8.240
    610    O    -3.373    2.305    8.482
    611    O    -5.009    4.088    9.178
    612    O    -4.511    3.689    6.770
    613    C    -5.237    4.823    6.249
    614    H    -4.672    5.771    6.397
    615    H    -6.212    4.940    6.770
    616    C    -5.522    4.654    4.748
    617    H    -6.111    5.517    4.362
    618    O    -4.255    4.611    4.025
    619    C    -4.337    3.650    2.987
    620    H    -4.064    4.180    2.044
    621    N    -3.406    2.535    3.213
    622    C    -2.041    0.841    2.920
    623    N    -2.061    1.077    4.284
    624    C    -2.894    2.080    4.407
    625    H    -3.157    2.549    5.352
    626    N    -1.555    -0.088    0.800
    627    C    -2.389    0.827    0.293