!*** FMO 5.3 (Gamess) INPUT generated by Facio 22.1.1.32 ***
 $CONTRL RUNTYP=ENERGY NPRINT=-5 ISPHER=1 MAXIT=200 $END
 $SYSTEM MWORDS=63 MEMDDI=63 $END
 $GDDI NGROUP=1 $END
 $SCF DIRSCF=.TRUE. NPUNCH=0 $END
!*** NumCPU : 2  MemPerNode : 512MB
 $PCM SOLVNT=WATER IEF=-10 ICOMP=2 ICAV=1 IDISP=1 IFMO=-1 $END
 $PCMCAV RADII=SUAHF $END
 $TESCAV NTSALL=60 $END
 $FMOPRP
    NAODIR=200
    NGRFMO(1)=1, 1, 0, 0, 0,   0, 0, 0, 0, 0
    IPIEDA=1
    NPRINT=9
 $END
 $FMO
      SCFTYP(1)=RHF
      MODGRD=10
      MODMUL=0
      MAXCAO=5
      MAXBND=13
      NLAYER=1
      MPLEVL(1)=2
      NFRAG=11
      ICHARG(1)=-1, -1, -1, -1, 0, -1, -1, -1, -1, -1, 0
      FRGNAM(1)=F1, F2, F3, F4, F5, F6, F7, F8, F9, F10, F11
      indat(1)=0
               1   -35   0
               36   -66   0
               67   -100   0
               101   -134   0
               135   -166   0
               167   -196   0
               197   -227   0
               228   -260   0
               261   -293   0
               294   -327   0
               328   -354   0
 $END

 $FMOBND
   -36   35       6-31G*    MINI
   -67   66       6-31G*    MINI
   -101   100       6-31G*    MINI
   -135   134       6-31G*    MINI
   -167   166       6-31G*    MINI
   -197   196       6-31G*    MINI
   -228   227       6-31G*    MINI
   -261   260       6-31G*    MINI
   -294   293       6-31G*    MINI
   -328   327       6-31G*    MINI
 $END
 $FMOHYB
 6-31G*      15   5
   1 0  -0.065034   0.288264   0.000000   0.000000   0.604412
         0.290129   0.000000   0.000000   0.319045  -0.017106
        -0.017106   0.057934   0.000000   0.000000   0.000000
   0 1  -0.065040   0.288293   0.569832   0.000000  -0.201456
         0.290147   0.300783   0.000000  -0.106342   0.049598
        -0.017106  -0.008771   0.000000  -0.027223   0.000000
   0 1  -0.065039   0.288293  -0.284916  -0.493490  -0.201455
         0.290145  -0.150392  -0.260486  -0.106340  -0.000427
         0.032923  -0.008771   0.033353   0.013612   0.023576
   0 1  -0.065039   0.288293  -0.284916   0.493490  -0.201455
         0.290145  -0.150392   0.260486  -0.106340  -0.000427
         0.032923  -0.008771  -0.033353   0.013612  -0.023576
   0 1   1.010938  -0.011975   0.000000   0.000000   0.000000
        -0.054085   0.000000   0.000000  -0.000000  -0.003174
        -0.003174  -0.003174   0.000000   0.000000   0.000000
 MINI         5   5
   1 0  -0.104883   0.308874   0.000000   0.000000   0.521806
   0 1  -0.104883   0.308874   0.491961   0.000000  -0.173934
   0 1  -0.104883   0.308876  -0.245980  -0.426050  -0.173933
   0 1  -0.104883   0.308876  -0.245980   0.426050  -0.173933
   0 1   0.988209   0.063992   0.000000   0.000000   0.000000
 $END
 
 $DATA
 FMO calculation
 C1 
 H.1-1    1
      N31 6
   
 O.1-1    8
      N31 6
      d 1
      1 0.800 1.0
   
 C.1-1    6
      N31 6
      d 1
      1 0.800 1.0
   
 N.1-1    7
      N31 6
      d 1
      1 0.800 1.0
   
 P.1-1   15
      N31 6
      d 1
      1 0.550 1.0
   
 $END
 $FMOXYZ
    1    H    -2.232    -7.180    0.490
    2    O    -2.593    -6.710    -0.282
    3    C    -2.346    -7.542    -1.428
    4    H    -2.751    -8.559    -1.226
    5    H    -1.245    -7.641    -1.563
    6    C    -2.961    -7.033    -2.748
    7    H    -3.210    -7.885    -3.417
    8    O    -4.195    -6.297    -2.514
    9    C    -4.268    -5.191    -3.393
    10    H    -5.190    -5.349    -3.997
    11    N    -4.414    -3.929    -2.657
    12    C    -4.808    -1.831    -2.121
    13    N    -4.676    -2.516    -0.920
    14    C    -4.453    -3.756    -1.291
    15    H    -4.300    -4.598    -0.610
    16    N    -5.148    -0.128    -3.720
    17    C    -4.937    -1.060    -4.655
    18    H    -4.976    -0.711    -5.694
    19    N    -4.699    -2.365    -4.501
    20    C    -4.651    -2.690    -3.198
    21    C    -5.092    -0.482    -2.414
    22    N    -5.304    0.459    -1.472
    23    H    -5.314    0.230    -0.496
    24    H    -5.518    1.406    -1.722
    25    C    -3.058    -5.228    -4.318
    26    H    -2.639    -4.219    -4.512
    27    O    -3.409    -5.826    -5.551
    28    H    -2.586    -5.939    -6.046
    29    C    -2.058    -6.079    -3.539
    30    H    -1.541    -5.450    -2.776
    31    O    -1.145    -6.840    -4.368
    32    P    0.344    -6.390    -4.571
    33    O    1.036    -7.398    -5.408
    34    O    0.927    -6.154    -3.233
    35    O    0.251    -5.026    -5.348
    36    C    0.203    -5.019    -6.799
    37    H    -0.387    -5.878    -7.200
    38    H    1.235    -5.123    -7.206
    39    C    -0.387    -3.716    -7.388
    40    H    -0.919    -3.923    -8.344
    41    O    -1.353    -3.121    -6.493
    42    C    -1.352    -1.711    -6.646
    43    H    -2.294    -1.506    -7.203
    44    N    -1.427    -0.967    -5.357
    45    C    -1.354    -1.660    -4.166
    46    H    -1.166    -2.734    -4.244
    47    C    -1.492    -1.041    -2.988
    48    H    -1.451    -1.574    -2.039
    49    C    -1.661    0.412    -5.341
    50    O    -1.777    1.034    -6.410
    51    N    -1.754    1.052    -4.155
    52    C    -1.715    0.362    -3.003
    53    N    -1.904    1.009    -1.857
    54    H    -2.099    1.994    -1.874
    55    H    -1.888    0.542    -0.971
    56    C    -0.169    -1.318    -7.525
    57    H    0.457    -0.525    -7.061
    58    O    -0.637    -0.875    -8.786
    59    H    0.143    -0.672    -9.321
    60    C    0.641    -2.618    -7.649
    61    H    1.375    -2.688    -6.815
    62    O    1.264    -2.842    -8.930
    63    P    2.623    -2.191    -9.357
    64    O    2.530    -1.785    -10.783
    65    O    3.702    -3.145    -9.003
    66    O    2.756    -0.914    -8.450
    67    C    3.944    -0.095    -8.452
    68    H    4.672    -0.371    -9.254
    69    H    4.466    -0.233    -7.480
    70    C    3.616    1.394    -8.594
    71    H    3.199    1.600    -9.602
    72    O    2.609    1.800    -7.630
    73    C    2.879    3.119    -7.188
    74    H    1.976    3.725    -7.422
    75    N    3.115    3.148    -5.735
    76    C    3.405    4.247    -4.968
    77    N    4.043    7.634    -4.701
    78    H    4.305    8.296    -4.010
    79    H    3.920    7.938    -5.649
    80    N    3.537    5.508    -5.411
    81    C    3.835    6.356    -4.436
    82    N    3.978    5.982    -3.126
    83    H    4.165    6.692    -2.434
    84    C    3.828    4.697    -2.633
    85    O    3.974    4.450    -1.432
    86    C    3.533    3.775    -3.675
    87    N    3.315    2.405    -3.624
    88    C    3.062    2.075    -4.869
    89    H    2.838    1.065    -5.224
    90    C    4.065    3.641    -7.984
    91    H    4.734    4.294    -7.380
    92    O    3.631    4.350    -9.133
    93    H    4.441    4.594    -9.627
    94    C    4.792    2.344    -8.350
    95    H    5.343    1.950    -7.467
    96    O    5.643    2.385    -9.519
    97    P    6.774    3.473    -9.639
    98    O    6.131    4.702    -10.155
    99    O    7.872    2.900    -10.450
    100    O    7.250    3.697    -8.155
    101    C    8.390    4.536    -7.871
    102    H    9.243    4.321    -8.558
    103    H    8.748    4.286    -6.847
    104    C    8.072    6.041    -7.913
    105    H    7.738    6.360    -8.920
    106    O    6.986    6.340    -6.992
    107    C    7.393    7.327    -6.056
    108    H    6.570    8.073    -6.026
    109    N    7.536    6.758    -4.708
    110    C    7.897    7.414    -3.561
    111    N    8.951    10.298    -1.956
    112    H    8.963    10.973    -2.695
    113    H    9.192    10.595    -1.027
    114    N    8.216    8.717    -3.461
    115    C    8.552    9.067    -2.225
    116    N    8.524    8.195    -1.169
    117    H    8.780    8.548    -0.259
    118    C    8.165    6.852    -1.234
    119    O    8.168    6.124    -0.239
    120    C    7.842    6.464    -2.560
    121    N    7.446    5.229    -3.064
    122    C    7.264    5.459    -4.342
    123    H    6.943    4.718    -5.080
    124    C    8.650    7.995    -6.578
    125    H    9.360    8.274    -5.770
    126    O    8.314    9.150    -7.324
    127    H    9.108    9.407    -7.816
    128    C    9.264    6.907    -7.455
    129    H    9.884    6.245    -6.802
    130    O    9.990    7.413    -8.602
    131    P    11.514    7.114    -8.808
    132    O    11.908    7.580    -10.159
    133    O    11.788    5.699    -8.474
    134    O    12.197    8.012    -7.709
    135    C    12.507    9.390    -8.002
    136    H    11.611    9.938    -8.381
    137    H    13.304    9.445    -8.779
    138    C    13.032    10.122    -6.766
    139    H    13.290    11.175    -7.019
    140    O    12.003    10.166    -5.730
    141    C    12.623    10.028    -4.460
    142    H    12.307    10.904    -3.848
    143    N    12.203    8.789    -3.802
    144    C    11.758    7.248    -2.299
    145    N    11.461    6.683    -3.535
    146    C    11.740    7.636    -4.390
    147    H    11.623    7.564    -5.473
    148    N    12.040    7.586    0.032
    149    C    12.442    8.822    -0.278
    150    H    12.721    9.449    0.575
    151    N    12.583    9.394    -1.479
    152    C    12.215    8.546    -2.453
    153    C    11.684    6.750    -0.979
    154    N    11.286    5.502    -0.674
    155    H    10.996    4.843    -1.371
    156    H    11.184    5.255    0.293
    157    C    14.127    10.070    -4.675
    158    H    14.675    9.452    -3.932
    159    O    14.587    11.411    -4.623
    160    H    15.507    11.439    -4.936
    161    C    14.244    9.479    -6.076
    162    H    14.101    8.373    -6.062
    163    O    15.468    9.823    -6.748
    164    H    16.218    9.384    -6.307
    165    H    12.103    6.522    11.235
    166    O    12.533    6.775    10.397
    167    C    12.106    8.109    10.078
    168    H    12.314    8.785    10.938
    169    H    11.003    8.082    9.939
    170    C    12.737    8.711    8.801
    171    H    13.717    9.177    9.045
    172    O    12.999    7.702    7.787
    173    C    13.103    8.327    6.516
    174    H    14.200    8.437    6.347
    175    N    12.511    7.508    5.404
    176    C    11.869    6.314    5.660
    177    H    11.776    6.039    6.709
    178    C    12.722    7.917    4.097
    179    O    13.353    8.924    3.807
    180    N    12.187    7.094    3.132
    181    H    12.343    7.361    2.173
    182    C    11.609    5.859    3.319
    183    O    11.297    5.170    2.349
    184    C    11.427    5.497    4.692
    185    H    10.974    4.536    4.924
    186    C    12.479    9.719    6.638
    187    H    11.675    9.875    5.889
    188    O    13.461    10.728    6.489
    189    H    12.995    11.570    6.586
    190    C    11.871    9.725    8.052
    191    H    10.854    9.273    8.024
    192    O    11.879    11.002    8.732
    193    P    10.721    12.047    8.495
    194    O    11.090    13.292    9.213
    195    O    9.438    11.417    8.879
    196    O    10.737    12.283    6.927
    197    C    11.302    13.488    6.356
    198    H    12.413    13.436    6.362
    199    H    11.010    14.396    6.936
    200    C    10.853    13.725    4.907
    201    H    11.310    14.659    4.512
    202    O    11.307    12.649    4.045
    203    C    10.389    12.502    2.968
    204    H    10.968    12.809    2.065
    205    N    9.919    11.104    2.793
    206    C    9.802    10.287    3.892
    207    H    10.097    10.732    4.846
    208    C    9.391    9.016    3.773
    209    H    9.340    8.337    4.622
    210    C    9.530    10.641    1.537
    211    O    9.588    11.407    0.560
    212    N    9.117    9.362    1.398
    213    C    9.057    8.548    2.468
    214    N    8.702    7.276    2.295
    215    H    8.495    6.934    1.374
    216    H    8.597    6.646    3.060
    217    C    9.240    13.482    3.172
    218    H    8.255    13.012    2.964
    219    O    9.387    14.630    2.357
    220    H    8.679    15.236    2.653
    221    C    9.345    13.814    4.669
    222    H    8.881    13.003    5.273
    223    O    8.864    15.107    5.096
    224    P    7.412    15.611    4.776
    225    O    7.463    16.231    3.429
    226    O    6.931    16.459    5.887
    227    O    6.562    14.289    4.739
    228    C    5.173    14.337    4.340
    229    H    4.662    15.269    4.674
    230    H    4.658    13.501    4.866
    231    C    4.929    14.147    2.829
    232    H    5.071    15.105    2.285
    233    O    5.877    13.204    2.263
    234    C    5.291    12.557    1.155
    235    H    5.869    12.882    0.260
    236    N    5.372    11.102    1.283
    237    C    5.231    8.949    0.861
    238    N    5.707    9.059    2.163
    239    C    5.778    10.355    2.363
    240    H    6.126    10.838    3.280
    241    N    4.439    8.093    -1.203
    242    C    4.271    9.363    -1.572
    243    H    3.869    9.515    -2.578
    244    N    4.565    10.482    -0.916
    245    C    5.025    10.203    0.313
    246    C    4.922    7.838    0.044
    247    N    5.070    6.558    0.438
    248    H    5.383    6.321    1.362
    249    H    4.769    5.815    -0.164
    250    C    3.851    13.031    1.039
    251    H    3.145    12.214    0.776
    252    O    3.739    14.050    0.068
    253    H    2.790    14.284    0.041
    254    C    3.564    13.548    2.452
    255    H    3.389    12.695    3.147
    256    O    2.527    14.546    2.570
    257    P    1.031    14.187    2.222
    258    O    0.150    15.208    2.826
    259    O    0.764    12.773    2.575
    260    O    1.015    14.371    0.656
    261    C    -0.220    14.539    -0.086
    262    H    -0.453    15.625    -0.153
    263    H    -1.089    14.068    0.433
    264    C    -0.176    13.970    -1.533
    265    H    0.041    14.786    -2.257
    266    O    0.898    12.992    -1.697
    267    C    0.494    11.958    -2.574
    268    H    1.229    11.937    -3.411
    269    N    0.501    10.657    -1.899
    270    C    0.525    8.498    -1.475
    271    N    0.466    9.138    -0.239
    272    C    0.463    10.414    -0.546
    273    H    0.433    11.237    0.175
    274    N    0.633    6.840    -3.163
    275    C    0.627    7.847    -4.038
    276    H    0.681    7.551    -5.092
    277    N    0.622    9.168    -3.823
    278    C    0.546    9.425    -2.504
    279    C    0.574    7.134    -1.841
    280    N    0.576    6.126    -0.953
    281    H    0.516    6.279    0.034
    282    H    0.591    5.186    -1.283
    283    C    -0.876    12.315    -3.109
    284    H    -1.516    11.419    -3.237
    285    O    -0.760    12.996    -4.341
    286    H    -1.667    13.271    -4.582
    287    C    -1.441    13.218    -2.002
    288    H    -1.781    12.594    -1.146
    289    O    -2.471    14.161    -2.388
    290    P    -3.753    13.715    -3.194
    291    O    -3.388    13.669    -4.631
    292    O    -4.910    14.572    -2.831
    293    O    -4.032    12.258    -2.642
    294    C    -5.004    11.394    -3.278
    295    H    -5.954    11.924    -3.510
    296    H    -5.280    10.600    -2.548
    297    C    -4.487    10.679    -4.543
    298    H    -4.355    11.387    -5.386
    299    O    -3.189    10.086    -4.280
    300    C    -3.098    8.824    -4.907
    301    H    -2.182    8.838    -5.538
    302    N    -2.980    7.752    -3.916
    303    C    -2.662    6.445    -4.165
    304    N    -1.881    3.887    -6.378
    305    H    -1.850    4.351    -7.261
    306    H    -1.822    2.883    -6.351
    307    N    -2.395    5.908    -5.372
    308    C    -2.159    4.599    -5.300
    309    N    -2.190    3.900    -4.125
    310    H    -2.043    2.903    -4.168
    311    C    -2.441    4.433    -2.867
    312    O    -2.434    3.737    -1.847
    313    C    -2.694    5.823    -2.932
    314    N    -3.009    6.724    -1.922
    315    C    -3.165    7.859    -2.554
    316    H    -3.404    8.817    -2.084
    317    C    -4.328    8.657    -5.771
    318    H    -4.651    7.597    -5.843
    319    O    -4.105    9.163    -7.073
    320    H    -4.925    9.008    -7.565
    321    C    -5.355    9.498    -5.012
    322    H    -5.692    8.960    -4.095
    323    O    -6.472    9.990    -5.790
    324    P    -7.581    8.975    -6.266
    325    O    -8.734    9.714    -6.825
    326    O    -7.888    8.051    -5.152
    327    O    -6.889    8.157    -7.425
    328    C    -7.546    6.967    -7.942
    329    H    -8.268    7.253    -8.741
    330    H    -8.127    6.428    -7.151
    331    C    -6.554    5.950    -8.544
    332    H    -6.175    6.299    -9.528
    333    O    -5.389    5.797    -7.678
    334    C    -5.190    4.430    -7.374
    335    H    -4.100    4.255    -7.501
    336    N    -5.572    4.105    -5.960
    337    C    -5.917    5.107    -5.067
    338    H    -6.060    6.103    -5.494
    339    C    -5.356    2.818    -5.507
    340    O    -4.919    1.921    -6.213
    341    N    -5.643    2.618    -4.187
    342    H    -5.479    1.662    -3.884
    343    C    -5.928    3.565    -3.232
    344    O    -6.034    3.236    -2.052
    345    C    -6.072    4.891    -3.751
    346    H    -6.300    5.699    -3.060
    347    C    -5.933    3.639    -8.437
    348    H    -6.253    2.636    -8.087
    349    O    -5.116    3.501    -9.590
    350    H    -4.883    4.384    -9.917
    351    C    -7.140    4.531    -8.678
    352    H    -7.879    4.373    -7.860
    353    O    -7.766    4.357    -9.962
    354    H    -7.982    3.417    -10.088
 $END
