!*** FMO 5.3 (Gamess) INPUT generated by Facio 22.1.1.32 ***
 $CONTRL RUNTYP=ENERGY NPRINT=-5 ISPHER=1 MAXIT=200 $END
 $SYSTEM MWORDS=63 MEMDDI=63 $END
 $GDDI NGROUP=1 $END
 $SCF DIRSCF=.TRUE. NPUNCH=0 $END
!*** NumCPU : 2  MemPerNode : 512MB
 $PCM SOLVNT=WATER IEF=-10 ICOMP=2 ICAV=1 IDISP=1 IFMO=-1 $END
 $PCMCAV RADII=SUAHF $END
 $TESCAV NTSALL=60 $END
 $FMOPRP
    NAODIR=200
    NGRFMO(1)=1, 1, 0, 0, 0,   0, 0, 0, 0, 0
    IPIEDA=1
    NPRINT=9
 $END
 $FMO
      SCFTYP(1)=RHF
      MODGRD=10
      MODMUL=0
      MAXCAO=5
      MAXBND=13
      NLAYER=1
      MPLEVL(1)=2
      NFRAG=11
      ICHARG(1)=-1, -1, -1, -1, 0, -1, -1, -1, -1, -1, 0
      FRGNAM(1)=F1, F2, F3, F4, F5, F6, F7, F8, F9, F10, F11
      indat(1)=0
               1   -35   0
               36   -66   0
               67   -100   0
               101   -134   0
               135   -166   0
               167   -196   0
               197   -227   0
               228   -260   0
               261   -293   0
               294   -327   0
               328   -354   0
 $END

 $FMOBND
   -36   35       6-31G*    MINI
   -67   66       6-31G*    MINI
   -101   100       6-31G*    MINI
   -135   134       6-31G*    MINI
   -167   166       6-31G*    MINI
   -197   196       6-31G*    MINI
   -228   227       6-31G*    MINI
   -261   260       6-31G*    MINI
   -294   293       6-31G*    MINI
   -328   327       6-31G*    MINI
 $END
 $FMOHYB
 6-31G*      15   5
   1 0  -0.065034   0.288264   0.000000   0.000000   0.604412
         0.290129   0.000000   0.000000   0.319045  -0.017106
        -0.017106   0.057934   0.000000   0.000000   0.000000
   0 1  -0.065040   0.288293   0.569832   0.000000  -0.201456
         0.290147   0.300783   0.000000  -0.106342   0.049598
        -0.017106  -0.008771   0.000000  -0.027223   0.000000
   0 1  -0.065039   0.288293  -0.284916  -0.493490  -0.201455
         0.290145  -0.150392  -0.260486  -0.106340  -0.000427
         0.032923  -0.008771   0.033353   0.013612   0.023576
   0 1  -0.065039   0.288293  -0.284916   0.493490  -0.201455
         0.290145  -0.150392   0.260486  -0.106340  -0.000427
         0.032923  -0.008771  -0.033353   0.013612  -0.023576
   0 1   1.010938  -0.011975   0.000000   0.000000   0.000000
        -0.054085   0.000000   0.000000  -0.000000  -0.003174
        -0.003174  -0.003174   0.000000   0.000000   0.000000
 MINI         5   5
   1 0  -0.104883   0.308874   0.000000   0.000000   0.521806
   0 1  -0.104883   0.308874   0.491961   0.000000  -0.173934
   0 1  -0.104883   0.308876  -0.245980  -0.426050  -0.173933
   0 1  -0.104883   0.308876  -0.245980   0.426050  -0.173933
   0 1   0.988209   0.063992   0.000000   0.000000   0.000000
 $END
 
 $DATA
 FMO calculation
 C1 
 H.1-1    1
      N31 6
   
 O.1-1    8
      N31 6
      d 1
      1 0.800 1.0
   
 C.1-1    6
      N31 6
      d 1
      1 0.800 1.0
   
 N.1-1    7
      N31 6
      d 1
      1 0.800 1.0
   
 P.1-1   15
      N31 6
      d 1
      1 0.550 1.0
   
 $END
 $FMOXYZ
    1    H    1.970    -5.773    2.785
    2    O    1.583    -5.493    1.934
    3    C    1.261    -6.691    1.213
    4    H    0.631    -7.348    1.854
    5    H    2.199    -7.243    0.980
    6    C    0.514    -6.417    -0.095
    7    H    0.300    -7.363    -0.638
    8    O    -0.765    -5.766    0.186
    9    C    -1.016    -4.789    -0.812
    10    H    -2.010    -5.038    -1.255
    11    N    -1.082    -3.439    -0.238
    12    C    -1.543    -1.314    0.112
    13    N    -0.867    -1.755    1.243
    14    C    -0.614    -3.019    0.987
    15    H    -0.094    -3.707    1.658
    16    N    -2.666    0.050    -1.464
    17    C    -2.690    -1.024    -2.260
    18    H    -3.165    -0.876    -3.237
    19    N    -2.239    -2.261    -2.025
    20    C    -1.671    -2.339    -0.811
    21    C    -2.093    -0.061    -0.238
    22    N    -2.075    1.014    0.575
    23    H    -1.654    0.983    1.490
    24    H    -2.437    1.894    0.256
    25    C    0.057    -4.929    -1.867
    26    H    0.297    -3.967    -2.361
    27    O    -0.349    -5.876    -2.834
    28    H    0.388    -5.964    -3.450
    29    C    1.235    -5.453    -1.049
    30    H    1.658    -4.637    -0.419
    31    O    2.250    -6.168    -1.802
    32    P    3.458    -5.340    -2.396
    33    O    4.052    -4.508    -1.328
    34    O    4.372    -6.270    -3.101
    35    O    2.771    -4.402    -3.454
    36    C    2.279    -4.954    -4.697
    37    H    1.544    -5.771    -4.525
    38    H    3.115    -5.384    -5.295
    39    C    1.598    -3.876    -5.548
    40    H    1.186    -4.329    -6.474
    41    O    0.480    -3.274    -4.829
    42    C    0.418    -1.885    -5.146
    43    H    -0.609    -1.724    -5.551
    44    N    0.614    -0.994    -3.966
    45    C    1.249    -1.460    -2.840
    46    H    1.598    -2.492    -2.882
    47    C    1.400    -0.690    -1.754
    48    H    1.853    -1.055    -0.836
    49    C    0.171    0.327    -4.007
    50    O    -0.387    0.747    -5.032
    51    N    0.340    1.128    -2.931
    52    C    0.909    0.645    -1.814
    53    N    0.987    1.428    -0.740
    54    H    0.641    2.368    -0.787
    55    H    1.411    1.118    0.111
    56    C    1.429    -1.622    -6.244
    57    H    1.867    -0.605    -6.187
    58    O    0.829    -1.810    -7.513
    59    H    1.536    -1.723    -8.163
    60    C    2.478    -2.689    -5.955
    61    H    3.081    -2.418    -5.057
    62    O    3.287    -3.054    -7.088
    63    P    4.691    -2.401    -7.326
    64    O    5.436    -2.398    -6.048
    65    O    5.328    -3.079    -8.477
    66    O    4.356    -0.919    -7.732
    67    C    3.788    -0.629    -9.032
    68    H    2.913    -1.284    -9.250
    69    H    4.545    -0.804    -9.831
    70    C    3.331    0.834    -9.123
    71    H    2.841    1.043    -10.099
    72    O    2.356    1.102    -8.081
    73    C    2.557    2.408    -7.573
    74    H    1.593    2.952    -7.698
    75    N    2.905    2.371    -6.149
    76    C    2.678    3.371    -5.251
    77    N    1.578    6.566    -4.527
    78    H    1.467    7.159    -3.737
    79    H    1.270    6.885    -5.431
    80    N    2.119    4.564    -5.523
    81    C    2.056    5.339    -4.450
    82    N    2.388    4.907    -3.195
    83    H    2.494    5.610    -2.480
    84    C    2.984    3.698    -2.886
    85    O    3.315    3.407    -1.731
    86    C    3.118    2.882    -4.035
    87    N    3.646    1.604    -4.173
    88    C    3.509    1.347    -5.450
    89    H    3.807    0.421    -5.941
    90    C    3.624    3.075    -8.413
    91    H    4.252    3.778    -7.828
    92    O    3.031    3.764    -9.497
    93    H    3.748    4.016    -10.096
    94    C    4.434    1.878    -8.894
    95    H    5.071    1.485    -8.068
    96    O    5.168    2.103    -10.120
    97    P    6.653    2.605    -10.035
    98    O    7.372    1.771    -9.051
    99    O    7.206    2.663    -11.403
    100    O    6.550    4.066    -9.450
    101    C    6.258    5.180    -10.322
    102    H    5.210    5.122    -10.695
    103    H    6.941    5.187    -11.204
    104    C    6.443    6.520    -9.593
    105    H    6.212    7.373    -10.268
    106    O    5.523    6.604    -8.469
    107    C    6.160    7.268    -7.389
    108    H    5.515    8.135    -7.121
    109    N    6.276    6.386    -6.218
    110    C    6.505    6.774    -4.927
    111    N    7.178    9.263    -2.613
    112    H    7.154    10.100    -3.164
    113    H    7.378    9.331    -1.632
    114    N    6.690    8.038    -4.506
    115    C    6.929    8.106    -3.199
    116    N    6.923    7.007    -2.381
    117    H    7.094    7.150    -1.397
    118    C    6.677    5.696    -2.777
    119    O    6.669    4.767    -1.964
    120    C    6.479    5.610    -4.181
    121    N    6.257    4.504    -4.994
    122    C    6.151    5.015    -6.197
    123    H    5.987    4.453    -7.117
    124    C    7.502    7.770    -7.884
    125    H    8.273    7.781    -7.088
    126    O    7.367    9.072    -8.422
    127    H    8.211    9.297    -8.834
    128    C    7.828    6.749    -8.966
    129    H    8.124    5.779    -8.499
    130    O    8.757    7.214    -9.973
    131    P    10.265    6.772    -9.882
    132    O    10.349    5.343    -9.522
    133    O    10.952    7.186    -11.125
    134    O    10.822    7.624    -8.671
    135    C    10.983    9.053    -8.848
    136    H    10.032    9.532    -9.175
    137    H    11.762    9.263    -9.616
    138    C    11.446    9.741    -7.561
    139    H    11.599    10.832    -7.723
    140    O    10.430    9.594    -6.529
    141    C    11.070    9.390    -5.278
    142    H    10.701    10.191    -4.598
    143    N    10.709    8.085    -4.714
    144    C    10.317    6.420    -3.334
    145    N    9.913    5.986    -4.590
    146    C    10.173    7.004    -5.372
    147    H    10.002    7.030    -6.450
    148    N    10.799    6.511    -1.018
    149    C    11.253    7.749    -1.241
    150    H    11.644    8.272    -0.361
    151    N    11.306    8.437    -2.387
    152    C    10.811    7.711    -3.400
    153    C    10.309    5.801    -2.066
    154    N    9.850    4.555    -1.850
    155    H    9.482    3.990    -2.591
    156    H    9.855    4.165    -0.926
    157    C    12.567    9.553    -5.481
    158    H    13.153    8.881    -4.820
    159    O    12.940    10.903    -5.253
    160    H    13.854    11.026    -5.558
    161    C    12.719    9.150    -6.942
    162    H    12.670    8.043    -7.043
    163    O    13.903    9.664    -7.581
    164    H    14.690    9.223    -7.211
    165    H    10.330    3.058    7.914
    166    O    10.398    3.852    7.355
    167    C    11.280    4.764    8.025
    168    H    12.233    4.241    8.260
    169    H    10.815    5.078    8.985
    170    C    11.598    6.024    7.210
    171    H    12.177    6.746    7.823
    172    O    12.425    5.670    6.057
    173    C    12.031    6.450    4.938
    174    H    12.954    6.959    4.575
    175    N    11.445    5.611    3.848
    176    C    10.987    4.332    4.093
    177    H    11.084    3.985    5.123
    178    C    11.386    6.144    2.579
    179    O    11.788    7.272    2.315
    180    N    10.852    5.318    1.625
    181    H    10.830    5.700    0.686
    182    C    10.414    4.022    1.787
    183    O    10.002    3.386    0.818
    184    C    10.489    3.538    3.133
    185    H    10.153    2.526    3.352
    186    C    11.057    7.495    5.455
    187    H    10.317    7.788    4.684
    188    O    11.762    8.643    5.896
    189    H    11.095    9.254    6.231
    190    C    10.388    6.756    6.611
    191    H    9.697    5.975    6.216
    192    O    9.774    7.597    7.618
    193    P    8.240    7.955    7.500
    194    O    7.465    6.727    7.224
    195    O    7.835    8.740    8.685
    196    O    8.177    8.886    6.233
    197    C    8.767    10.206    6.266
    198    H    9.827    10.167    6.600
    199    H    8.224    10.861    6.988
    200    C    8.710    10.878    4.884
    201    H    9.173    11.888    4.914
    202    O    9.443    10.093    3.903
    203    C    8.760    10.146    2.652
    204    H    9.494    10.560    1.922
    205    N    8.300    8.813    2.176
    206    C    8.165    7.775    3.066
    207    H    8.417    7.999    4.103
    208    C    7.772    6.559    2.669
    209    H    7.700    5.720    3.358
    210    C    7.942    8.626    0.842
    211    O    8.010    9.583    0.053
    212    N    7.528    7.408    0.424
    213    C    7.457    6.383    1.292
    214    N    7.094    5.181    0.847
    215    H    6.913    5.056    -0.132
    216    H    6.966    4.399    1.460
    217    C    7.612    11.119    2.801
    218    H    6.726    10.839    2.194
    219    O    8.024    12.427    2.458
    220    H    7.268    12.986    2.660
    221    C    7.307    11.004    4.287
    222    H    6.787    10.041    4.500
    223    O    6.647    12.153    4.856
    224    P    5.085    12.151    4.968
    225    O    4.614    10.817    5.394
    226    O    4.689    13.298    5.819
    227    O    4.595    12.379    3.492
    228    C    4.867    13.600    2.772
    229    H    5.936    13.900    2.839
    230    H    4.260    14.418    3.206
    231    C    4.483    13.484    1.292
    232    H    4.698    14.422    0.732
    233    O    5.247    12.421    0.664
    234    C    4.412    11.725    -0.239
    235    H    4.918    11.758    -1.231
    236    N    4.253    10.330    0.175
    237    C    3.997    8.151    0.117
    238    N    4.164    8.479    1.454
    239    C    4.311    9.782    1.436
    240    H    4.487    10.401    2.314
    241    N    3.703    6.971    -1.898
    242    C    3.750    8.147    -2.523
    243    H    3.645    8.112    -3.615
    244    N    3.911    9.360    -2.006
    245    C    4.043    9.289    -0.674
    246    C    3.820    6.922    -0.548
    247    N    3.751    5.723    0.070
    248    H    3.817    5.637    1.065
    249    H    3.656    4.883    -0.469
    250    C    3.087    12.470    -0.325
    251    H    2.226    11.789    -0.507
    252    O    3.153    13.448    -1.350
    253    H    2.317    13.936    -1.406
    254    C    3.019    13.088    1.069
    255    H    2.799    12.291    1.817
    256    O    2.163    14.251    1.207
    257    P    0.684    13.975    1.681
    258    O    0.098    12.993    0.752
    259    O    0.676    13.581    3.107
    260    O    0.012    15.403    1.467
    261    C    -1.383    15.510    1.058
    262    H    -1.833    16.338    1.653
    263    H    -1.979    14.605    1.320
    264    C    -1.665    15.860    -0.438
    265    H    -2.754    16.061    -0.550
    266    O    -0.947    17.047    -0.876
    267    C    0.125    16.676    -1.739
    268    H    -0.161    17.000    -2.763
    269    N    1.367    17.344    -1.313
    270    C    3.412    18.154    -1.217
    271    N    2.766    18.611    -0.076
    272    C    1.561    18.100    -0.174
    273    H    0.762    18.236    0.562
    274    N    5.063    17.725    -2.862
    275    C    4.133    16.995    -3.488
    276    H    4.453    16.519    -4.419
    277    N    2.853    16.796    -3.163
    278    C    2.562    17.378    -1.989
    279    C    4.722    18.344    -1.704
    280    N    5.632    19.133    -1.104
    281    H    5.438    19.612    -0.243
    282    H    6.531    19.269    -1.527
    283    C    0.213    15.156    -1.701
    284    H    0.854    14.870    -0.855
    285    O    0.715    14.535    -2.865
    286    H    0.049    14.646    -3.564
    287    C    -1.239    14.770    -1.446
    288    H    -1.273    13.779    -0.938
    289    O    -2.044    14.769    -2.650
    290    P    -3.363    13.906    -2.677
    291    O    -4.058    14.051    -1.382
    292    O    -4.140    14.285    -3.879
    293    O    -2.875    12.413    -2.811
    294    C    -3.851    11.338    -2.737
    295    H    -4.915    11.687    -2.735
    296    H    -3.695    10.780    -1.785
    297    C    -3.697    10.348    -3.901
    298    H    -3.940    10.847    -4.867
    299    O    -2.326    9.856    -3.989
    300    C    -2.342    8.484    -4.357
    301    H    -1.705    8.384    -5.265
    302    N    -1.798    7.632    -3.286
    303    C    -1.484    6.303    -3.393
    304    N    -1.248    3.412    -5.291
    305    H    -1.581    3.706    -6.187
    306    H    -0.919    2.470    -5.175
    307    N    -1.626    5.545    -4.494
    308    C    -1.201    4.297    -4.316
    309    N    -0.687    3.849    -3.127
    310    H    -0.375    2.891    -3.071
    311    C    -0.533    4.605    -1.971
    312    O    -0.052    4.115    -0.945
    313    C    -0.988    5.937    -2.157
    314    N    -1.005    7.013    -1.278
    315    C    -1.495    8.001    -1.991
    316    H    -1.651    9.024    -1.638
    317    C    -3.772    8.124    -4.695
    318    H    -4.010    7.063    -4.474
    319    O    -4.032    8.388    -6.061
    320    H    -4.975    8.238    -6.202
    321    C    -4.538    9.069    -3.781
    322    H    -4.454    8.737    -2.719
    323    O    -5.893    9.331    -4.195
    324    P    -7.094    8.585    -3.516
    325    O    -6.820    8.470    -2.070
    326    O    -8.357    9.247    -3.911
    327    O    -7.020    7.147    -4.153
    328    C    -7.252    6.944    -5.566
    329    H    -6.603    7.602    -6.191
    330    H    -8.313    7.177    -5.813
    331    C    -7.010    5.481    -5.976
    332    H    -7.275    5.329    -7.045
    333    O    -5.598    5.133    -5.831
    334    C    -5.488    3.799    -5.342
    335    H    -4.850    3.251    -6.075
    336    N    -4.861    3.754    -3.988
    337    C    -4.838    4.863    -3.170
    338    H    -5.293    5.758    -3.590
    339    C    -4.313    2.563    -3.568
    340    O    -4.325    1.550    -4.259
    341    N    -3.751    2.592    -2.319
    342    H    -3.360    1.713    -1.998
    343    C    -3.702    3.655    -1.445
    344    O    -3.182    3.515    -0.341
    345    C    -4.281    4.863    -1.951
    346    H    -4.256    5.758    -1.335
    347    C    -6.888    3.195    -5.348
    348    H    -7.037    2.479    -4.506
    349    O    -7.151    2.551    -6.586
    350    H    -8.097    2.330    -6.623
    351    C    -7.756    4.433    -5.141
    352    H    -7.723    4.750    -4.078
    353    O    -9.117    4.295    -5.591
    354    H    -9.592    3.653    -5.034
 $END
