!*** FMO 5.3 (Gamess) INPUT generated by Facio 22.1.1.32 ***
 $CONTRL RUNTYP=ENERGY NPRINT=-5 ISPHER=1 MAXIT=200 $END
 $SYSTEM MWORDS=63 MEMDDI=63 $END
 $GDDI NGROUP=1 $END
 $SCF DIRSCF=.TRUE. NPUNCH=0 $END
!*** NumCPU : 2  MemPerNode : 512MB
 $PCM SOLVNT=WATER IEF=-10 ICOMP=2 ICAV=1 IDISP=1 IFMO=-1 $END
 $PCMCAV RADII=SUAHF $END
 $TESCAV NTSALL=60 $END
 $FMOPRP
    NAODIR=200
    NGRFMO(1)=1, 1, 0, 0, 0,   0, 0, 0, 0, 0
    IPIEDA=1
    NPRINT=9
 $END
 $FMO
      SCFTYP(1)=RHF
      MODGRD=10
      MODMUL=0
      MAXCAO=5
      MAXBND=13
      NLAYER=1
      MPLEVL(1)=2
      NFRAG=11
      ICHARG(1)=-1, -1, -1, -1, 0, -1, -1, -1, -1, -1, 0
      FRGNAM(1)=F1, F2, F3, F4, F5, F6, F7, F8, F9, F10, F11
      indat(1)=0
               1   -35   0
               36   -66   0
               67   -100   0
               101   -134   0
               135   -166   0
               167   -196   0
               197   -227   0
               228   -260   0
               261   -293   0
               294   -327   0
               328   -354   0
 $END

 $FMOBND
   -36   35       6-31G*    MINI
   -67   66       6-31G*    MINI
   -101   100       6-31G*    MINI
   -135   134       6-31G*    MINI
   -167   166       6-31G*    MINI
   -197   196       6-31G*    MINI
   -228   227       6-31G*    MINI
   -261   260       6-31G*    MINI
   -294   293       6-31G*    MINI
   -328   327       6-31G*    MINI
 $END
 $FMOHYB
 6-31G*      15   5
   1 0  -0.065034   0.288264   0.000000   0.000000   0.604412
         0.290129   0.000000   0.000000   0.319045  -0.017106
        -0.017106   0.057934   0.000000   0.000000   0.000000
   0 1  -0.065040   0.288293   0.569832   0.000000  -0.201456
         0.290147   0.300783   0.000000  -0.106342   0.049598
        -0.017106  -0.008771   0.000000  -0.027223   0.000000
   0 1  -0.065039   0.288293  -0.284916  -0.493490  -0.201455
         0.290145  -0.150392  -0.260486  -0.106340  -0.000427
         0.032923  -0.008771   0.033353   0.013612   0.023576
   0 1  -0.065039   0.288293  -0.284916   0.493490  -0.201455
         0.290145  -0.150392   0.260486  -0.106340  -0.000427
         0.032923  -0.008771  -0.033353   0.013612  -0.023576
   0 1   1.010938  -0.011975   0.000000   0.000000   0.000000
        -0.054085   0.000000   0.000000  -0.000000  -0.003174
        -0.003174  -0.003174   0.000000   0.000000   0.000000
 MINI         5   5
   1 0  -0.104883   0.308874   0.000000   0.000000   0.521806
   0 1  -0.104883   0.308874   0.491961   0.000000  -0.173934
   0 1  -0.104883   0.308876  -0.245980  -0.426050  -0.173933
   0 1  -0.104883   0.308876  -0.245980   0.426050  -0.173933
   0 1   0.988209   0.063992   0.000000   0.000000   0.000000
 $END
 
 $DATA
 FMO calculation
 C1 
 H.1-1    1
      N31 6
   
 O.1-1    8
      N31 6
      d 1
      1 0.800 1.0
   
 C.1-1    6
      N31 6
      d 1
      1 0.800 1.0
   
 N.1-1    7
      N31 6
      d 1
      1 0.800 1.0
   
 P.1-1   15
      N31 6
      d 1
      1 0.550 1.0
   
 $END
 $FMOXYZ
    1    H    0.310    -3.718    3.067
    2    O    -0.032    -3.524    2.175
    3    C    -0.229    -4.793    1.534
    4    H    -0.966    -5.391    2.117
    5    H    0.736    -5.350    1.536
    6    C    -0.738    -4.669    0.093
    7    H    -0.888    -5.676    -0.358
    8    O    -2.028    -3.986    0.072
    9    C    -2.089    -3.143    -1.069
    10    H    -2.997    -3.439    -1.642
    11    N    -2.205    -1.734    -0.686
    12    C    -2.642    0.422    -0.679
    13    N    -2.193    0.114    0.597
    14    C    -1.937    -1.173    0.540
    15    H    -1.574    -1.782    1.372
    16    N    -3.456    1.593    -2.567
    17    C    -3.367    0.433    -3.227
    18    H    -3.669    0.468    -4.280
    19    N    -3.003    -0.772    -2.774
    20    C    -2.647    -0.706    -1.482
    21    C    -3.088    1.628    -1.261
    22    N    -3.163    2.792    -0.587
    23    H    -2.860    2.871    0.369
    24    H    -3.453    3.631    -1.055
    25    C    -0.862    -3.420    -1.905
    26    H    -0.517    -2.529    -2.464
    27    O    -1.140    -4.477    -2.802
    28    H    -0.314    -4.679    -3.258
    29    C    0.149    -3.836    -0.841
    30    H    0.485    -2.948    -0.259
    31    O    1.248    -4.639    -1.318
    32    P    2.572    -3.954    -1.814
    33    O    3.026    -2.994    -0.787
    34    O    3.527    -5.015    -2.199
    35    O    2.133    -3.165    -3.101
    36    C    1.772    -3.871    -4.312
    37    H    1.005    -4.650    -4.121
    38    H    2.662    -4.386    -4.741
    39    C    1.224    -2.912    -5.378
    40    H    0.900    -3.473    -6.283
    41    O    0.067    -2.187    -4.877
    42    C    0.098    -0.856    -5.382
    43    H    -0.857    -0.739    -5.946
    44    N    0.146    0.186    -4.320
    45    C    0.593    -0.137    -3.062
    46    H    0.915    -1.169    -2.921
    47    C    0.610    0.767    -2.075
    48    H    0.933    0.521    -1.065
    49    C    -0.237    1.496    -4.602
    50    O    -0.604    1.786    -5.751
    51    N    -0.215    2.427    -3.622
    52    C    0.182    2.091    -2.383
    53    N    0.161    3.019    -1.430
    54    H    -0.183    3.936    -1.642
    55    H    0.461    2.821    -0.494
    56    C    1.251    -0.764    -6.356
    57    H    1.725    0.237    -6.358
    58    O    0.812    -1.099    -7.658
    59    H    1.607    -1.155    -8.201
    60    C    2.208    -1.820    -5.816
    61    H    2.705    -1.455    -4.887
    62    O    3.144    -2.353    -6.787
    63    P    4.532    -1.630    -6.978
    64    O    5.178    -1.503    -5.654
    65    O    5.294    -2.338    -8.027
    66    O    4.163    -0.188    -7.483
    67    C    3.712    0.094    -8.824
    68    H    2.823    -0.520    -9.091
    69    H    4.515    -0.135    -9.562
    70    C    3.333    1.578    -8.982
    71    H    2.896    1.765    -9.987
    72    O    2.330    1.956    -8.000
    73    C    2.610    3.253    -7.505
    74    H    1.690    3.859    -7.673
    75    N    2.904    3.227    -6.065
    76    C    2.743    4.267    -5.195
    77    N    1.841    7.544    -4.570
    78    H    1.694    8.144    -3.791
    79    H    1.667    7.884    -5.500
    80    N    2.303    5.498    -5.511
    81    C    2.236    6.289    -4.449
    82    N    2.487    5.858    -3.173
    83    H    2.590    6.564    -2.462
    84    C    3.002    4.620    -2.822
    85    O    3.276    4.340    -1.649
    86    C    3.098    3.771    -3.953
    87    N    3.493    2.447    -4.045
    88    C    3.369    2.167    -5.319
    89    H    3.584    1.200    -5.772
    90    C    3.745    3.826    -8.328
    91    H    4.400    4.500    -7.740
    92    O    3.228    4.530    -9.440
    93    H    3.989    4.774    -9.982
    94    C    4.489    2.565    -8.766
    95    H    5.090    2.161    -7.919
    96    O    5.255    2.696    -9.989
    97    P    6.756    3.156    -9.897
    98    O    7.463    2.322    -8.902
    99    O    7.318    3.197    -11.262
    100    O    6.687    4.621    -9.325
    101    C    6.425    5.743    -10.196
    102    H    5.388    5.692    -10.602
    103    H    7.131    5.750    -11.059
    104    C    6.597    7.072    -9.446
    105    H    6.347    7.935    -10.101
    106    O    5.691    7.124    -8.307
    107    C    6.334    7.781    -7.225
    108    H    5.685    8.644    -6.953
    109    N    6.453    6.898    -6.055
    110    C    6.697    7.293    -4.769
    111    N    7.477    9.780    -2.491
    112    H    7.460    10.615    -3.049
    113    H    7.767    9.842    -1.531
    114    N    6.910    8.559    -4.361
    115    C    7.180    8.627    -3.060
    116    N    7.155    7.537    -2.233
    117    H    7.357    7.676    -1.254
    118    C    6.861    6.232    -2.612
    119    O    6.833    5.313    -1.788
    120    C    6.661    6.137    -4.013
    121    N    6.429    5.027    -4.817
    122    C    6.323    5.528    -6.024
    123    H    6.155    4.958    -6.939
    124    C    7.672    8.297    -7.721
    125    H    8.450    8.283    -6.932
    126    O    7.528    9.617    -8.206
    127    H    8.358    9.858    -8.642
    128    C    7.988    7.314    -8.842
    129    H    8.299    6.338    -8.398
    130    O    8.896    7.813    -9.862
    131    P    10.383    7.283    -9.848
    132    O    10.400    5.840    -9.538
    133    O    11.047    7.705    -11.099
    134    O    11.022    8.074    -8.645
    135    C    11.423    9.449    -8.851
    136    H    10.557    10.081    -9.161
    137    H    12.205    9.518    -9.644
    138    C    12.021    10.043    -7.574
    139    H    12.348    11.090    -7.738
    140    O    11.011    10.069    -6.521
    141    C    11.627    9.765    -5.280
    142    H    11.397    10.611    -4.593
    143    N    11.082    8.526    -4.714
    144    C    10.476    6.928    -3.330
    145    N    10.000    6.558    -4.582
    146    C    10.392    7.532    -5.365
    147    H    10.217    7.586    -6.440
    148    N    11.020    6.929    -1.027
    149    C    11.623    8.102    -1.251
    150    H    12.098    8.553    -0.373
    151    N    11.771    8.772    -2.401
    152    C    11.149    8.135    -3.403
    153    C    10.418    6.302    -2.067
    154    N    9.802    5.128    -1.846
    155    H    9.319    4.636    -2.574
    156    H    9.712    4.771    -0.914
    157    C    13.126    9.694    -5.507
    158    H    13.610    8.936    -4.855
    159    O    13.718    10.966    -5.273
    160    H    14.640    10.948    -5.588
    161    C    13.203    9.269    -6.970
    162    H    12.992    8.182    -7.072
    163    O    14.442    9.612    -7.620
    164    H    15.172    9.092    -7.240
    165    H    10.063    3.592    7.941
    166    O    10.262    4.350    7.358
    167    C    11.279    5.123    8.016
    168    H    12.144    4.462    8.248
    169    H    10.875    5.500    8.982
    170    C    11.780    6.322    7.200
    171    H    12.460    6.952    7.812
    172    O    12.546    5.865    6.041
    173    C    12.242    6.696    4.925
    174    H    13.225    7.068    4.545
    175    N    11.528    5.954    3.844
    176    C    10.880    4.764    4.101
    177    H    10.937    4.410    5.130
    178    C    11.538    6.486    2.573
    179    O    12.096    7.546    2.303
    180    N    10.885    5.742    1.626
    181    H    10.924    6.114    0.684
    182    C    10.288    4.510    1.793
    183    O    9.805    3.924    0.826
    184    C    10.277    4.041    3.147
    185    H    9.810    3.085    3.373
    186    C    11.435    7.864    5.455
    187    H    10.742    8.274    4.695
    188    O    12.302    8.886    5.907
    189    H    11.744    9.574    6.288
    190    C    10.682    7.221    6.613
    191    H    9.883    6.548    6.224
    192    O    10.205    8.136    7.627
    193    P    8.740    8.712    7.538
    194    O    7.797    7.591    7.333
    195    O    8.501    9.585    8.709
    196    O    8.752    9.599    6.240
    197    C    9.459    10.862    6.216
    198    H    10.524    10.727    6.504
    199    H    9.003    11.584    6.935
    200    C    9.425    11.508    4.819
    201    H    9.972    12.478    4.819
    202    O    10.094    10.646    3.855
    203    C    9.397    10.696    2.613
    204    H    10.147    11.032    1.858
    205    N    8.833    9.379    2.195
    206    C    8.613    8.395    3.128
    207    H    8.896    8.639    4.152
    208    C    8.108    7.203    2.784
    209    H    7.969    6.401    3.508
    210    C    8.429    9.172    0.878
    211    O    8.533    10.099    0.062
    212    N    7.925    7.974    0.507
    213    C    7.765    6.998    1.418
    214    N    7.286    5.819    1.027
    215    H    7.093    5.660    0.056
    216    H    7.144    5.063    1.667
    217    C    8.324    11.756    2.738
    218    H    7.417    11.524    2.143
    219    O    8.836    13.009    2.340
    220    H    8.158    13.662    2.556
    221    C    8.027    11.731    4.228
    222    H    7.439    10.820    4.487
    223    O    7.455    12.959    4.744
    224    P    5.889    13.052    4.869
    225    O    5.383    11.743    5.317
    226    O    5.545    14.217    5.717
    227    O    5.383    13.297    3.399
    228    C    5.737    14.468    2.634
    229    H    6.830    14.665    2.682
    230    H    5.213    15.365    3.035
    231    C    5.356    14.321    1.154
    232    H    5.673    15.210    0.568
    233    O    6.050    13.176    0.594
    234    C    5.198    12.508    -0.310
    235    H    5.737    12.470    -1.286
    236    N    4.936    11.146    0.133
    237    C    4.516    8.999    0.094
    238    N    4.838    9.302    1.410
    239    C    5.063    10.593    1.383
    240    H    5.323    11.205    2.246
    241    N    3.937    7.867    -1.892
    242    C    3.998    9.046    -2.511
    243    H    3.783    9.043    -3.588
    244    N    4.291    10.234    -1.997
    245    C    4.561    10.135    -0.690
    246    C    4.190    7.795    -0.560
    247    N    4.128    6.597    0.050
    248    H    4.116    6.526    1.048
    249    H    3.847    5.786    -0.471
    250    C    3.944    13.332    -0.474
    251    H    3.040    12.708    -0.632
    252    O    4.113    14.234    -1.555
    253    H    3.402    14.887    -1.499
    254    C    3.871    14.056    0.864
    255    H    3.517    13.366    1.664
    256    O    3.140    15.301    0.822
    257    P    1.644    15.368    1.303
    258    O    1.557    14.819    2.669
    259    O    1.158    16.749    1.103
    260    O    0.874    14.392    0.351
    261    C    0.691    14.607    -1.063
    262    H    1.658    14.847    -1.552
    263    H    0.013    15.471    -1.245
    264    C    0.118    13.358    -1.778
    265    H    0.199    13.499    -2.879
    266    O    0.832    12.135    -1.409
    267    C    -0.017    11.311    -0.625
    268    H    -0.365    10.502    -1.309
    269    N    0.688    10.751    0.531
    270    C    1.563    9.346    1.977
    271    N    1.777    10.619    2.491
    272    C    1.241    11.415    1.600
    273    H    1.218    12.502    1.682
    274    N    1.466    6.991    1.720
    275    C    0.824    7.223    0.570
    276    H    0.527    6.336    0.002
    277    N    0.513    8.388    0.000
    278    C    0.893    9.418    0.769
    279    C    1.876    8.055    2.457
    280    N    2.566    7.832    3.589
    281    H    3.023    8.583    4.070
    282    H    2.851    6.897    3.813
    283    C    -1.205    12.146    -0.208
    284    H    -0.984    12.755    0.697
    285    O    -2.352    11.356    0.019
    286    H    -2.756    11.199    -0.849
    287    C    -1.352    13.070    -1.417
    288    H    -1.798    14.039    -1.082
    289    O    -2.071    12.492    -2.534
    290    P    -3.568    12.908    -2.797
    291    O    -4.390    12.419    -1.672
    292    O    -3.647    14.348    -3.120
    293    O    -3.932    12.057    -4.061
    294    C    -3.895    12.598    -5.396
    295    H    -3.092    13.365    -5.519
    296    H    -4.874    13.077    -5.627
    297    C    -3.648    11.489    -6.424
    298    H    -3.711    11.878    -7.461
    299    O    -2.301    10.961    -6.241
    300    C    -2.321    9.553    -6.426
    301    H    -1.550    9.318    -7.193
    302    N    -1.993    8.840    -5.180
    303    C    -1.668    7.515    -5.066
    304    N    -1.105    4.426    -6.526
    305    H    -1.295    4.597    -7.490
    306    H    -0.858    3.497    -6.233
    307    N    -1.595    6.634    -6.077
    308    C    -1.216    5.425    -5.671
    309    N    -0.936    5.130    -4.362
    310    H    -0.656    4.186    -4.140
    311    C    -0.995    6.020    -3.294
    312    O    -0.705    5.662    -2.147
    313    C    -1.420    7.307    -3.722
    314    N    -1.609    8.477    -3.000
    315    C    -1.942    9.363    -3.908
    316    H    -2.155    10.417    -3.723
    317    C    -3.690    9.185    -6.955
    318    H    -4.005    8.165    -6.656
    319    O    -3.704    9.291    -8.366
    320    H    -4.615    9.143    -8.650
    321    C    -4.558    10.253    -6.306
    322    H    -4.667    10.040    -5.217
    323    O    -5.818    10.498    -6.972
    324    P    -7.131    9.848    -6.393
    325    O    -7.113    9.930    -4.915
    326    O    -8.309    10.432    -7.074
    327    O    -6.986    8.339    -6.815
    328    C    -6.998    7.973    -8.215
    329    H    -6.236    8.544    -8.797
    330    H    -7.992    8.208    -8.662
    331    C    -6.746    6.469    -8.411
    332    H    -6.829    6.192    -9.486
    333    O    -5.395    6.120    -7.986
    334    C    -5.417    4.859    -7.320
    335    H    -4.690    4.212    -7.864
    336    N    -5.016    4.979    -5.888
    337    C    -5.092    6.183    -5.224
    338    H    -5.442    7.022    -5.821
    339    C    -4.590    3.845    -5.235
    340    O    -4.535    2.748    -5.781
    341    N    -4.232    4.032    -3.925
    342    H    -3.949    3.194    -3.428
    343    C    -4.307    5.195    -3.193
    344    O    -4.007    5.191    -2.002
    345    C    -4.742    6.333    -3.941
    346    H    -4.802    7.295    -3.441
    347    C    -6.821    4.281    -7.481
    348    H    -7.124    3.685    -6.593
    349    O    -6.892    3.475    -8.650
    350    H    -7.825    3.282    -8.842
    351    C    -7.657    5.550    -7.593
    352    H    -7.792    6.005    -6.588
    353    O    -8.929    5.373    -8.244
    354    H    -9.511    4.819    -7.692
 $END
