!*** FMO 5.3 (Gamess) INPUT generated by Facio 22.1.1.32 ***
 $CONTRL RUNTYP=ENERGY NPRINT=-5 ISPHER=1 MAXIT=200 $END
 $SYSTEM MWORDS=63 MEMDDI=63 $END
 $GDDI NGROUP=1 $END
 $SCF DIRSCF=.TRUE. NPUNCH=0 $END
!*** NumCPU : 2  MemPerNode : 512MB
 $PCM SOLVNT=WATER IEF=-10 ICOMP=2 ICAV=1 IDISP=1 IFMO=-1 $END
 $PCMCAV RADII=SUAHF $END
 $TESCAV NTSALL=60 $END
 $FMOPRP
    NAODIR=200
    NGRFMO(1)=1, 1, 0, 0, 0,   0, 0, 0, 0, 0
    IPIEDA=1
    NPRINT=9
 $END
 $FMO
      SCFTYP(1)=RHF
      MODGRD=10
      MODMUL=0
      MAXCAO=5
      MAXBND=18
      NLAYER=1
      MPLEVL(1)=2
      NFRAG=16
      ICHARG(1)=-1, -1, -1, -1, -1, -1, -1, 0, -1, -1, -1, -1, -1, -1,
-1, 0
      FRGNAM(1)=F1, F2, F3, F4, F5, F6, F7, F8, F9, F10, F11, F12, F13,
F14, F15, F16
      indat(1)=0
               1   -35   0
               36   -66   0
               67   -100   0
               101   -133   0
               134   -167   0
               168   -197   0
               198   -231   0
               232   -260   0
               261   -293   0
               294   -324   0
               325   -358   0
               359   -391   0
               392   -425   0
               426   -455   0
               456   -489   0
               490   -516   0
 $END

 $FMOBND
   -36   35       6-31G*    MINI
   -67   66       6-31G*    MINI
   -101   100       6-31G*    MINI
   -134   133       6-31G*    MINI
   -168   167       6-31G*    MINI
   -198   197       6-31G*    MINI
   -232   231       6-31G*    MINI
   -261   260       6-31G*    MINI
   -294   293       6-31G*    MINI
   -325   324       6-31G*    MINI
   -359   358       6-31G*    MINI
   -392   391       6-31G*    MINI
   -426   425       6-31G*    MINI
   -456   455       6-31G*    MINI
   -490   489       6-31G*    MINI
 $END
 $FMOHYB
 6-31G*      15   5
   1 0  -0.065034   0.288264   0.000000   0.000000   0.604412
         0.290129   0.000000   0.000000   0.319045  -0.017106
        -0.017106   0.057934   0.000000   0.000000   0.000000
   0 1  -0.065040   0.288293   0.569832   0.000000  -0.201456
         0.290147   0.300783   0.000000  -0.106342   0.049598
        -0.017106  -0.008771   0.000000  -0.027223   0.000000
   0 1  -0.065039   0.288293  -0.284916  -0.493490  -0.201455
         0.290145  -0.150392  -0.260486  -0.106340  -0.000427
         0.032923  -0.008771   0.033353   0.013612   0.023576
   0 1  -0.065039   0.288293  -0.284916   0.493490  -0.201455
         0.290145  -0.150392   0.260486  -0.106340  -0.000427
         0.032923  -0.008771  -0.033353   0.013612  -0.023576
   0 1   1.010938  -0.011975   0.000000   0.000000   0.000000
        -0.054085   0.000000   0.000000  -0.000000  -0.003174
        -0.003174  -0.003174   0.000000   0.000000   0.000000
 MINI         5   5
   1 0  -0.104883   0.308874   0.000000   0.000000   0.521806
   0 1  -0.104883   0.308874   0.491961   0.000000  -0.173934
   0 1  -0.104883   0.308876  -0.245980  -0.426050  -0.173933
   0 1  -0.104883   0.308876  -0.245980   0.426050  -0.173933
   0 1   0.988209   0.063992   0.000000   0.000000   0.000000
 $END
 
 $DATA
 FMO calculation
 C1 
 H.1-1    1
      N31 6
   
 O.1-1    8
      N31 6
      d 1
      1 0.800 1.0
   
 C.1-1    6
      N31 6
      d 1
      1 0.800 1.0
   
 N.1-1    7
      N31 6
      d 1
      1 0.800 1.0
   
 P.1-1   15
      N31 6
      d 1
      1 0.550 1.0
   
 $END
 $FMOXYZ
    1    H    9.968    1.417    3.155
    2    O    9.517    2.246    3.402
    3    C    10.490    3.299    3.325
    4    H    10.926    3.319    2.300
    5    H    11.318    3.087    4.039
    6    C    9.897    4.676    3.633
    7    H    10.685    5.459    3.604
    8    O    8.903    5.025    2.628
    9    C    7.839    5.729    3.243
    10    H    7.748    6.702    2.708
    11    N    6.580    4.995    3.115
    12    C    4.450    4.472    2.977
    13    N    5.153    3.309    2.684
    14    C    6.411    3.676    2.764
    15    H    7.271    3.024    2.586
    16    N    2.702    6.032    3.329
    17    C    3.659    6.921    3.617
    18    H    3.302    7.922    3.887
    19    N    4.988    6.772    3.592
    20    C    5.319    5.514    3.253
    21    C    3.070    4.766    3.005
    22    N    2.113    3.866    2.713
    23    H    2.340    2.917    2.477
    24    H    1.144    4.096    2.841
    25    C    8.230    5.979    4.682
    26    H    7.359    5.997    5.370
    27    O    8.937    7.201    4.771
    28    H    9.246    7.265    5.681
    29    C    9.147    4.793    4.970
    30    H    8.550    3.856    5.088
    31    O    10.092    5.008    6.049
    32    P    9.678    4.550    7.502
    33    O    9.259    3.134    7.449
    34    O    10.781    4.862    8.438
    35    O    8.433    5.455    7.834
    36    C    8.634    6.856    8.149
    37    H    9.133    7.397    7.313
    38    H    9.281    6.967    9.050
    39    C    7.307    7.568    8.450
    40    H    7.478    8.644    8.665
    41    O    6.422    7.497    7.301
    42    C    5.081    7.362    7.753
    43    H    4.545    8.248    7.340
    44    N    4.421    6.125    7.249
    45    C    5.183    5.049    6.856
    46    H    6.263    5.170    6.954
    47    C    4.619    3.937    6.363
    48    H    5.206    3.090    6.016
    49    C    3.032    6.047    7.178
    50    O    2.349    7.017    7.538
    51    N    2.447    4.926    6.707
    52    C    3.197    3.898    6.283
    53    N    2.585    2.833    5.777
    54    H    1.582    2.839    5.728
    55    H    3.081    2.039    5.429
    56    C    5.091    7.459    9.272
    57    H    4.318    6.819    9.747
    58    O    4.911    8.796    9.696
    59    H    4.952    8.762    10.666
    60    C    6.498    6.967    9.606
    61    H    6.558    5.861    9.501
    62    O    7.042    7.425    10.862
    63    P    6.608    6.767    12.225
    64    O    6.560    5.298    12.036
    65    O    7.514    7.246    13.282
    66    O    5.158    7.337    12.490
    67    C    4.295    6.638    13.435
    68    H    4.720    6.670    14.464
    69    H    4.194    5.559    13.169
    70    C    2.870    7.239    13.482
    71    H    2.888    8.219    13.999
    72    O    2.370    7.495    12.130
    73    C    1.019    7.074    12.031
    74    H    0.473    7.933    11.577
    75    N    0.844    5.884    11.161
    76    C    1.778    4.968    10.702
    77    N    5.031    3.814    10.515
    78    H    5.469    2.925    10.380
    79    H    5.517    4.499    11.075
    80    N    3.091    4.934    10.991
    81    C    3.734    3.948    10.397
    82    N    3.117    3.005    9.641
    83    H    3.666    2.254    9.260
    84    C    1.769    2.972    9.365
    85    O    1.311    2.064    8.674
    86    C    1.071    4.067    9.939
    87    N    -0.271    4.400    9.898
    88    C    -0.365    5.474    10.643
    89    H    -1.295    6.011    10.845
    90    C    0.519    6.850    13.439
    91    H    -0.288    6.085    13.498
    92    O    0.062    8.083    13.981
    93    H    0.009    7.972    14.941
    94    C    1.784    6.357    14.137
    95    H    2.004    5.306    13.838
    96    O    1.785    6.543    15.569
    97    P    1.272    5.411    16.537
    98    O    2.104    4.210    16.309
    99    O    1.239    5.952    17.915
    100    O    -0.194    5.094    16.063
    101    C    -1.305    5.972    16.366
    102    H    -1.363    6.795    15.621
    103    H    -1.214    6.439    17.380
    104    C    -2.642    5.218    16.303
    105    H    -3.490    5.895    16.543
    106    O    -2.864    4.695    14.965
    107    C    -3.501    3.432    15.055
    108    H    -4.466    3.527    14.506
    109    N    -2.690    2.389    14.430
    110    C    -2.058    0.591    13.336
    111    N    -0.889    1.265    13.685
    112    C    -1.321    2.331    14.321
    113    H    -0.693    3.129    14.725
    114    N    -3.589    -0.975    12.446
    115    C    -4.553    -0.224    12.978
    116    H    -5.575    -0.598    12.824
    117    N    -4.459    0.900    13.692
    118    C    -3.170    1.269    13.808
    119    C    -2.299    -0.590    12.596
    120    N    -1.312    -1.329    12.048
    121    H    -0.345    -1.083    12.141
    122    H    -1.535    -2.117    11.457
    123    C    -3.779    3.145    16.517
    124    H    -3.642    2.074    16.774
    125    O    -5.082    3.559    16.875
    126    H    -5.097    3.524    17.843
    127    C    -2.726    3.992    17.213
    128    H    -1.734    3.490    17.152
    129    O    -3.066    4.405    18.552
    130    P    -2.770    3.432    19.752
    131    O    -1.610    2.582    19.406
    132    O    -2.653    4.275    20.962
    133    O    -4.100    2.592    19.843
    134    C    -5.383    3.183    20.160
    135    H    -6.091    2.898    19.350
    136    H    -5.365    4.302    20.180
    137    C    -6.015    2.677    21.483
    138    H    -6.951    3.246    21.672
    139    O    -6.369    1.265    21.365
    140    C    -5.568    0.481    22.238
    141    H    -6.220    0.199    23.096
    142    N    -5.084    -0.741    21.538
    143    C    -3.814    -1.096    21.132
    144    N    -0.481    -0.292    20.911
    145    H    0.395    -0.681    20.613
    146    H    -0.489    0.594    21.365
    147    N    -2.693    -0.395    21.327
    148    C    -1.627    -0.931    20.807
    149    N    -1.644    -2.151    20.195
    150    H    -0.768    -2.547    19.878
    151    C    -2.772    -2.935    19.987
    152    O    -2.721    -4.034    19.419
    153    C    -3.941    -2.319    20.510
    154    N    -5.262    -2.742    20.509
    155    C    -5.903    -1.781    21.139
    156    H    -6.980    -1.764    21.320
    157    C    -4.466    1.397    22.759
    158    H    -3.642    1.524    22.035
    159    O    -3.948    1.006    24.023
    160    H    -3.412    0.207    23.894
    161    C    -5.131    2.754    22.739
    162    H    -4.341    3.514    22.520
    163    O    -5.884    3.043    23.928
    164    P    -5.467    4.294    24.767
    165    O    -3.996    4.371    24.901
    166    O    -6.159    5.471    24.200
    167    O    -6.090    4.051    26.188
    168    C    -5.604    3.065    27.118
    169    H    -5.248    3.606    28.025
    170    H    -4.730    2.481    26.736
    171    C    -6.700    2.082    27.584
    172    H    -6.347    1.585    28.514
    173    O    -7.965    2.743    27.892
    174    C    -8.946    2.349    26.947
    175    H    -9.557    1.579    27.475
    176    N    -9.756    3.526    26.532
    177    C    -9.198    4.506    25.742
    178    H    -8.179    4.342    25.417
    179    C    -11.029    3.671    27.031
    180    O    -11.545    2.845    27.783
    181    N    -11.687    4.809    26.633
    182    H    -12.610    4.941    27.011
    183    C    -11.177    5.843    25.873
    184    O    -11.853    6.848    25.658
    185    C    -9.843    5.630    25.407
    186    H    -9.355    6.415    24.836
    187    C    -8.233    1.660    25.797
    188    H    -7.873    2.397    25.057
    189    O    -9.046    0.692    25.161
    190    H    -9.130    -0.049    25.782
    191    C    -7.046    1.019    26.514
    192    H    -6.196    0.942    25.793
    193    O    -7.368    -0.268    27.088
    194    P    -6.206    -1.196    27.616
    195    O    -4.982    -0.417    27.913
    196    O    -6.819    -1.934    28.749
    197    O    -5.924    -2.177    26.419
    198    C    -6.772    -3.323    26.167
    199    H    -7.612    -3.032    25.495
    200    H    -7.214    -3.743    27.104
    201    C    -5.988    -4.459    25.493
    202    H    -6.655    -5.317    25.252
    203    O    -5.421    -3.993    24.234
    204    C    -4.118    -4.537    24.074
    205    H    -4.097    -5.044    23.083
    206    N    -3.098    -3.482    24.095
    207    C    -1.782    -3.617    23.747
    208    N    0.852    -5.558    22.589
    209    H    0.437    -6.459    22.464
    210    H    1.828    -5.438    22.384
    211    N    -1.188    -4.753    23.333
    212    C    0.095    -4.564    23.017
    213    N    0.724    -3.353    23.134
    214    H    1.695    -3.305    22.866
    215    C    0.140    -2.168    23.565
    216    O    0.792    -1.121    23.627
    217    C    -1.226    -2.361    23.911
    218    N    -2.175    -1.456    24.380
    219    C    -3.275    -2.169    24.469
    220    H    -4.252    -1.798    24.791
    221    C    -3.907    -5.553    25.177
    222    H    -2.846    -5.626    25.498
    223    O    -4.360    -6.826    24.758
    224    H    -4.385    -7.393    25.541
    225    C    -4.778    -4.978    26.284
    226    H    -4.284    -4.078    26.731
    227    O    -5.208    -5.953    27.258
    228    P    -4.581    -5.937    28.696
    229    O    -4.283    -4.550    29.106
    230    O    -5.433    -6.742    29.600
    231    O    -3.208    -6.664    28.488
    232    C    -3.140    -8.074    28.207
    233    H    -3.731    -8.336    27.298
    234    H    -3.545    -8.662    29.064
    235    C    -1.689    -8.510    27.970
    236    H    -1.630    -9.607    27.794
    237    O    -1.155    -7.860    26.778
    238    C    0.208    -7.519    26.998
    239    H    0.783    -8.015    26.184
    240    N    0.421    -6.042    26.942
    241    C    -0.633    -5.165    27.092
    242    H    -1.609    -5.629    27.226
    243    C    1.695    -5.572    26.724
    244    O    2.665    -6.318    26.602
    245    N    1.809    -4.210    26.655
    246    H    2.746    -3.859    26.487
    247    C    0.805    -3.276    26.797
    248    O    1.064    -2.080    26.705
    249    C    -0.492    -3.834    27.030
    250    H    -1.341    -3.160    27.123
    251    C    0.622    -8.129    28.334
    252    H    1.372    -7.500    28.859
    253    O    1.137    -9.439    28.135
    254    H    1.216    -9.878    29.000
    255    C    -0.704    -8.135    29.086
    256    H    -0.947    -7.109    29.440
    257    O    -0.771    -9.082    30.168
    258    H    -0.110    -8.857    30.849
    259    H    11.219    1.741    24.146
    260    O    10.825    0.848    24.155
    261    C    11.895    -0.083    24.371
    262    H    12.442    0.201    25.298
    263    H    12.610    -0.021    23.522
    264    C    11.420    -1.535    24.502
    265    H    12.287    -2.225    24.580
    266    O    10.630    -1.691    25.716
    267    C    9.578    -2.611    25.474
    268    H    9.677    -3.422    26.230
    269    N    8.270    -1.965    25.617
    270    C    6.126    -1.578    25.919
    271    N    6.728    -0.333    25.772
    272    C    7.997    -0.617    25.602
    273    H    8.795    0.118    25.461
    274    N    4.523    -3.294    26.224
    275    C    5.535    -4.158    26.079
    276    H    5.266    -5.218    26.156
    277    N    6.837    -3.912    25.893
    278    C    7.065    -2.590    25.818
    279    C    4.789    -1.964    26.157
    280    N    3.780    -1.086    26.320
    281    H    3.933    -0.093    26.308
    282    H    2.839    -1.409    26.443
    283    C    9.788    -3.187    24.091
    284    H    8.837    -3.452    23.582
    285    O    10.621    -4.325    24.180
    286    H    10.920    -4.523    23.283
    287    C    10.498    -2.037    23.382
    288    H    9.782    -1.211    23.157
    289    O    11.289    -2.425    22.237
    290    P    10.626    -2.432    20.808
    291    O    10.024    -1.107    20.551
    292    O    11.628    -2.908    19.833
    293    O    9.473    -3.500    20.910
    294    C    9.796    -4.914    20.925
    295    H    10.395    -5.180    21.822
    296    H    10.397    -5.198    20.031
    297    C    8.532    -5.788    20.933
    298    H    8.802    -6.865    20.951
    299    O    7.753    -5.527    22.130
    300    C    6.371    -5.619    21.817
    301    H    5.979    -6.430    22.469
    302    N    5.622    -4.366    22.107
    303    C    6.300    -3.174    22.197
    304    H    7.380    -3.228    22.039
    305    C    5.666    -2.028    22.475
    306    H    6.193    -1.081    22.565
    307    C    4.239    -4.390    22.276
    308    O    3.633    -5.470    22.187
    309    N    3.579    -3.240    22.549
    310    C    4.255    -2.080    22.661
    311    N    3.592    -0.960    22.944
    312    H    2.603    -1.004    23.106
    313    H    4.055    -0.081    23.065
    314    C    6.251    -6.057    20.362
    315    H    5.376    -5.600    19.850
    316    O    6.168    -7.465    20.282
    317    H    6.134    -7.675    19.339
    318    C    7.564    -5.554    19.765
    319    H    7.517    -4.454    19.606
    320    O    8.046    -6.257    18.595
    321    P    7.442    -6.033    17.162
    322    O    7.295    -4.568    16.945
    323    O    8.250    -6.758    16.178
    324    O    6.021    -6.706    17.238
    325    C    5.038    -6.393    16.208
    326    H    5.406    -6.678    15.195
    327    H    4.845    -5.296    16.182
    328    C    3.670    -7.092    16.438
    329    H    3.740    -8.162    16.150
    330    O    3.296    -7.068    17.848
    331    C    1.934    -6.700    17.974
    332    H    1.494    -7.461    18.659
    333    N    1.748    -5.355    18.571
    334    C    2.608    -4.270    18.682
    335    N    5.713    -2.820    18.209
    336    H    6.257    -2.112    18.657
    337    H    6.192    -3.533    17.680
    338    N    3.870    -4.183    18.227
    339    C    4.453    -3.033    18.518
    340    N    3.825    -2.022    19.180
    341    H    4.314    -1.153    19.311
    342    C    2.513    -2.056    19.616
    343    O    2.006    -1.088    20.187
    344    C    1.891    -3.299    19.343
    345    N    0.618    -3.742    19.638
    346    C    0.569    -4.955    19.153
    347    H    -0.311    -5.600    19.188
    348    C    1.297    -6.819    16.612
    349    H    0.442    -6.122    16.466
    350    O    0.869    -8.150    16.391
    351    H    0.740    -8.245    15.438
    352    C    2.464    -6.455    15.706
    353    H    2.626    -5.352    15.729
    354    O    2.353    -6.989    14.367
    355    P    1.780    -6.100    13.207
    356    O    2.516    -4.821    13.194
    357    O    1.825    -6.903    11.969
    358    O    0.276    -5.838    13.610
    359    C    -0.732    -6.849    13.349
    360    H    -0.629    -7.697    14.066
    361    H    -0.644    -7.266    12.318
    362    C    -2.155    -6.285    13.484
    363    H    -2.912    -7.068    13.246
    364    O    -2.383    -5.883    14.869
    365    C    -3.181    -4.710    14.898
    366    H    -4.080    -4.952    15.511
    367    N    -2.461    -3.596    15.520
    368    C    -1.964    -1.735    16.582
    369    N    -0.751    -2.325    16.240
    370    C    -1.102    -3.429    15.624
    371    H    -0.413    -4.178    15.227
    372    N    -3.595    -0.285    17.480
    373    C    -4.509    -1.108    16.964
    374    H    -5.558    -0.818    17.123
    375    N    -4.332    -2.246    16.283
    376    C    -3.023    -2.507    16.135
    377    C    -2.279    -0.558    17.293
    378    N    -1.328    0.274    17.780
    379    H    -0.351    0.071    17.707
    380    H    -1.609    1.016    18.412
    381    C    -3.604    -4.404    13.473
    382    H    -3.664    -3.316    13.269
    383    O    -4.854    -5.014    13.211
    384    H    -5.032    -4.912    12.261
    385    C    -2.483    -5.030    12.651
    386    H    -1.576    -4.386    12.698
    387    O    -2.863    -5.388    11.298
    388    P    -2.391    -4.543    10.051
    389    O    -1.241    -3.677    10.418
    390    O    -2.149    -5.467    8.918
    391    O    -3.644    -3.672    9.651
    392    C    -3.690    -3.036    8.339
    393    H    -3.103    -3.588    7.566
    394    H    -3.238    -2.024    8.424
    395    C    -5.148    -2.914    7.825
    396    H    -5.620    -3.918    7.837
    397    O    -5.895    -2.022    8.699
    398    C    -6.013    -0.752    8.088
    399    H    -7.089    -0.640    7.836
    400    N    -5.591    0.339    8.994
    401    C    -4.350    0.906    9.181
    402    N    -1.148    1.260    8.033
    403    H    -0.296    1.760    8.211
    404    H    -1.153    0.562    7.320
    405    N    -3.216    0.563    8.557
    406    C    -2.246    1.415    8.737
    407    N    -2.307    2.431    9.649
    408    H    -1.519    3.059    9.726
    409    C    -3.427    2.757    10.411
    410    O    -3.418    3.684    11.230
    411    C    -4.531    1.910    10.108
    412    N    -5.855    1.955    10.536
    413    C    -6.438    0.993    9.856
    414    H    -7.489    0.702    9.954
    415    C    -5.231    -0.798    6.782
    416    H    -4.151    -0.639    6.908
    417    O    -5.685    0.149    5.839
    418    H    -5.539    -0.225    4.953
    419    C    -5.309    -2.287    6.404
    420    H    -4.398    -2.562    5.821
    421    O    -6.486    -2.769    5.709
    422    P    -6.860    -2.247    4.262
    423    O    -5.674    -1.633    3.632
    424    O    -7.567    -3.312    3.519
    425    O    -7.882    -1.115    4.608
    426    C    -8.735    -0.431    3.684
    427    H    -9.043    -1.097    2.844
    428    H    -8.187    0.435    3.248
    429    C    -10.027    0.091    4.358
    430    H    -10.582    0.705    3.620
    431    O    -10.883    -1.029    4.747
    432    C    -10.971    -1.093    6.160
    433    H    -11.965    -0.649    6.400
    434    N    -10.867    -2.498    6.631
    435    C    -9.745    -3.217    6.321
    436    H    -9.042    -2.687    5.698
    437    C    -11.899    -3.080    7.328
    438    O    -12.934    -2.476    7.609
    439    N    -11.699    -4.392    7.675
    440    H    -12.478    -4.836    8.135
    441    C    -10.616    -5.188    7.355
    442    O    -10.605    -6.380    7.664
    443    C    -9.579    -4.505    6.646
    444    H    -8.701    -5.061    6.326
    445    C    -9.897    -0.176    6.727
    446    H    -8.921    -0.702    6.779
    447    O    -10.241    0.339    7.997
    448    H    -10.975    0.961    7.857
    449    C    -9.836    0.920    5.659
    450    H    -8.807    1.350    5.660
    451    O    -10.857    1.947    5.827
    452    P    -10.678    3.368    5.162
    453    O    -10.438    3.194    3.711
    454    O    -11.844    4.211    5.533
    455    O    -9.384    3.975    5.832
    456    C    -8.454    4.733    5.010
    457    H    -8.980    5.356    4.249
    458    H    -7.776    4.036    4.463
    459    C    -7.596    5.690    5.857
    460    H    -8.243    6.372    6.447
    461    O    -6.779    4.943    6.800
    462    C    -5.527    5.600    6.972
    463    H    -5.419    5.819    8.059
    464    N    -4.412    4.736    6.536
    465    C    -3.071    5.012    6.639
    466    N    -0.487    7.106    7.624
    467    H    -0.965    7.903    7.984
    468    H    0.517    7.083    7.631
    469    N    -2.528    6.128    7.157
    470    C    -1.195    6.094    7.159
    471    N    -0.475    5.050    6.644
    472    H    0.531    5.081    6.711
    473    C    -1.007    3.889    6.098
    474    O    -0.283    2.990    5.659
    475    C    -2.426    3.914    6.105
    476    N    -3.340    2.963    5.675
    477    C    -4.508    3.484    5.962
    478    H    -5.475    3.002    5.801
    479    C    -5.584    6.905    6.194
    480    H    -4.603    7.193    5.760
    481    O    -6.056    7.954    7.020
    482    H    -6.224    8.717    6.449
    483    C    -6.583    6.557    5.100
    484    H    -6.100    5.875    4.361
    485    O    -7.240    7.702    4.508
    486    P    -6.872    8.110    3.035
    487    O    -6.593    6.888    2.253
    488    O    -7.922    9.006    2.501
    489    O    -5.528    8.913    3.186
    490    C    -5.518    10.194    3.853
    491    H    -5.963    10.126    4.874
    492    H    -6.110    10.935    3.264
    493    C    -4.089    10.741    3.986
    494    H    -4.093    11.769    4.409
    495    O    -3.315    9.900    4.895
    496    C    -1.984    9.773    4.408
    497    H    -1.318    10.122    5.231
    498    N    -1.655    8.361    4.044
    499    C    -2.651    7.441    3.787
    500    H    -3.667    7.804    3.933
    501    C    -0.329    8.003    3.937
    502    O    0.590    8.799    4.122
    503    N    -0.107    6.699    3.586
    504    H    0.868    6.432    3.504
    505    C    -1.046    5.732    3.299
    506    O    -0.685    4.606    2.968
    507    C    -2.402    6.171    3.437
    508    H    -3.204    5.459    3.258
    509    C    -1.848    10.720    3.220
    510    H    -1.153    10.317    2.450
    511    O    -1.391    12.000    3.639
    512    H    -1.478    12.625    2.897
    513    C    -3.277    10.755    2.685
    514    H    -3.496    9.823    2.119
    515    O    -3.589    11.919    1.895
    516    H    -3.097    11.894    1.056
 $END
