!*** FMO 5.3 (Gamess) INPUT generated by Facio 22.1.1.32 ***
 $CONTRL RUNTYP=ENERGY NPRINT=-5 ISPHER=1 MAXIT=200 $END
 $SYSTEM MWORDS=63 MEMDDI=63 $END
 $GDDI NGROUP=1 $END
 $SCF DIRSCF=.TRUE. NPUNCH=0 $END
!*** NumCPU : 2  MemPerNode : 512MB
 $PCM SOLVNT=WATER IEF=-10 ICOMP=2 ICAV=1 IDISP=1 IFMO=-1 $END
 $PCMCAV RADII=SUAHF $END
 $TESCAV NTSALL=60 $END
 $FMOPRP
    NAODIR=200
    NGRFMO(1)=1, 1, 0, 0, 0,   0, 0, 0, 0, 0
    IPIEDA=1
    NPRINT=9
 $END
 $FMO
      SCFTYP(1)=RHF
      MODGRD=10
      MODMUL=0
      MAXCAO=5
      MAXBND=18
      NLAYER=1
      MPLEVL(1)=2
      NFRAG=16
      ICHARG(1)=-1, -1, -1, -1, -1, -1, -1, 0, -1, -1, -1, -1, -1, -1,
-1, 0
      FRGNAM(1)=F1, F2, F3, F4, F5, F6, F7, F8, F9, F10, F11, F12, F13,
F14, F15, F16
      indat(1)=0
               1   -35   0
               36   -66   0
               67   -100   0
               101   -133   0
               134   -167   0
               168   -197   0
               198   -231   0
               232   -260   0
               261   -293   0
               294   -324   0
               325   -358   0
               359   -391   0
               392   -425   0
               426   -455   0
               456   -489   0
               490   -516   0
 $END

 $FMOBND
   -36   35       6-31G*    MINI
   -67   66       6-31G*    MINI
   -101   100       6-31G*    MINI
   -134   133       6-31G*    MINI
   -168   167       6-31G*    MINI
   -198   197       6-31G*    MINI
   -232   231       6-31G*    MINI
   -261   260       6-31G*    MINI
   -294   293       6-31G*    MINI
   -325   324       6-31G*    MINI
   -359   358       6-31G*    MINI
   -392   391       6-31G*    MINI
   -426   425       6-31G*    MINI
   -456   455       6-31G*    MINI
   -490   489       6-31G*    MINI
 $END
 $FMOHYB
 6-31G*      15   5
   1 0  -0.065034   0.288264   0.000000   0.000000   0.604412
         0.290129   0.000000   0.000000   0.319045  -0.017106
        -0.017106   0.057934   0.000000   0.000000   0.000000
   0 1  -0.065040   0.288293   0.569832   0.000000  -0.201456
         0.290147   0.300783   0.000000  -0.106342   0.049598
        -0.017106  -0.008771   0.000000  -0.027223   0.000000
   0 1  -0.065039   0.288293  -0.284916  -0.493490  -0.201455
         0.290145  -0.150392  -0.260486  -0.106340  -0.000427
         0.032923  -0.008771   0.033353   0.013612   0.023576
   0 1  -0.065039   0.288293  -0.284916   0.493490  -0.201455
         0.290145  -0.150392   0.260486  -0.106340  -0.000427
         0.032923  -0.008771  -0.033353   0.013612  -0.023576
   0 1   1.010938  -0.011975   0.000000   0.000000   0.000000
        -0.054085   0.000000   0.000000  -0.000000  -0.003174
        -0.003174  -0.003174   0.000000   0.000000   0.000000
 MINI         5   5
   1 0  -0.104883   0.308874   0.000000   0.000000   0.521806
   0 1  -0.104883   0.308874   0.491961   0.000000  -0.173934
   0 1  -0.104883   0.308876  -0.245980  -0.426050  -0.173933
   0 1  -0.104883   0.308876  -0.245980   0.426050  -0.173933
   0 1   0.988209   0.063992   0.000000   0.000000   0.000000
 $END
 
 $DATA
 FMO calculation
 C1 
 H.1-1    1
      N31 6
   
 O.1-1    8
      N31 6
      d 1
      1 0.800 1.0
   
 C.1-1    6
      N31 6
      d 1
      1 0.800 1.0
   
 N.1-1    7
      N31 6
      d 1
      1 0.800 1.0
   
 P.1-1   15
      N31 6
      d 1
      1 0.550 1.0
   
 $END
 $FMOXYZ
    1    H    9.066    8.561    6.729
    2    O    8.128    8.830    6.762
    3    C    8.113    10.238    7.042
    4    H    8.635    10.781    6.223
    5    H    8.663    10.430    7.989
    6    C    6.695    10.803    7.178
    7    H    6.720    11.888    7.423
    8    O    5.974    10.640    5.917
    9    C    4.622    10.301    6.191
    10    H    3.987    11.055    5.674
    11    N    4.289    8.968    5.678
    12    C    3.196    7.216    4.915
    13    N    4.545    6.889    4.853
    14    C    5.153    7.961    5.309
    15    H    6.235    8.082    5.398
    16    N    0.835    7.126    4.750
    17    C    0.828    8.349    5.291
    18    H    -0.163    8.790    5.440
    19    N    1.861    9.119    5.651
    20    C    3.026    8.488    5.435
    21    C    2.029    6.514    4.542
    22    N    2.046    5.288    3.987
    23    H    2.908    4.823    3.769
    24    H    1.189    4.808    3.779
    25    C    4.421    10.415    7.684
    26    H    3.661    9.705    8.075
    27    O    4.051    11.742    8.005
    28    H    4.043    11.798    8.967
    29    C    5.813    10.084    8.209
    30    H    6.017    8.992    8.106
    31    O    6.099    10.586    9.531
    32    P    5.830    9.674    10.785
    33    O    6.415    8.341    10.542
    34    O    6.291    10.394    11.991
    35    O    4.266    9.532    10.821
    36    C    3.431    10.668    11.131
    37    H    3.640    11.533    10.467
    38    H    3.610    11.011    12.174
    39    C    1.948    10.304    11.003
    40    H    1.313    11.184    11.238
    41    O    1.626    9.914    9.636
    42    C    0.645    8.883    9.674
    43    H    -0.215    9.272    9.080
    44    N    1.108    7.610    9.055
    45    C    2.454    7.341    8.969
    46    H    3.117    8.097    9.392
    47    C    2.906    6.233    8.370
    48    H    3.970    6.022    8.263
    49    C    0.184    6.678    8.584
    50    O    -1.030    6.907    8.709
    51    N    0.625    5.550    7.979
    52    C    1.943    5.329    7.835
    53    N    2.356    4.245    7.184
    54    H    1.674    3.603    6.828
    55    H    3.322    3.996    7.114
    56    C    0.209    8.723    11.117
    57    H    -0.092    7.683    11.377
    58    O    -0.846    9.629    11.384
    59    H    -0.899    9.677    12.347
    60    C    1.465    9.138    11.871
    61    H    2.241    8.342    11.820
    62    O    1.231    9.607    13.212
    63    P    1.234    8.617    14.431
    64    O    2.476    7.817    14.377
    65    O    1.008    9.422    15.648
    66    O    -0.003    7.683    14.197
    67    C    -1.366    8.122    14.321
    68    H    -1.654    8.765    13.471
    69    H    -1.514    8.707    15.256
    70    C    -2.348    6.938    14.320
    71    H    -3.380    7.325    14.445
    72    O    -2.311    6.211    13.050
    73    C    -2.084    4.838    13.307
    74    H    -3.092    4.372    13.413
    75    N    -1.319    4.193    12.222
    76    C    0.004    4.376    11.888
    77    N    3.096    5.752    12.604
    78    H    4.050    5.612    12.352
    79    H    2.851    6.435    13.306
    80    N    0.881    5.192    12.498
    81    C    2.116    5.057    12.068
    82    N    2.462    4.198    11.064
    83    H    3.430    4.119    10.802
    84    C    1.582    3.359    10.402
    85    O    1.992    2.611    9.521
    86    C    0.244    3.510    10.848
    87    N    -0.917    2.848    10.471
    88    C    -1.821    3.285    11.318
    89    H    -2.871    2.985    11.322
    90    C    -1.378    4.778    14.642
    91    H    -0.311    5.071    14.556
    92    O    -1.482    3.518    15.275
    93    H    -1.425    3.695    16.229
    94    C    -2.080    5.885    15.409
    95    H    -1.352    6.349    16.118
    96    O    -3.294    5.461    16.059
    97    P    -3.347    5.268    17.617
    98    O    -3.424    6.604    18.247
    99    O    -4.432    4.318    17.931
    100    O    -1.947    4.599    17.960
    101    C    -1.553    4.627    19.359
    102    H    -2.151    3.887    19.939
    103    H    -1.697    5.641    19.811
    104    C    -0.068    4.312    19.576
    105    H    0.168    4.496    20.644
    106    O    0.218    2.916    19.332
    107    C    1.194    2.808    18.327
    108    H    2.179    2.752    18.849
    109    N    0.960    1.603    17.538
    110    C    1.251    -0.263    16.425
    111    N    -0.122    -0.089    16.531
    112    C    -0.246    1.033    17.198
    113    H    -1.196    1.500    17.479
    114    N    3.389    -1.122    15.857
    115    C    3.895    -0.052    16.475
    116    H    4.989    0.003    16.488
    117    N    3.259    0.933    17.123
    118    C    1.926    0.768    17.047
    119    C    2.043    -1.252    15.806
    120    N    1.536    -2.294    15.152
    121    H    0.556    -2.519    15.202
    122    H    2.128    -2.900    14.613
    123    C    1.153    4.095    17.539
    124    H    0.281    4.108    16.859
    125    O    2.344    4.341    16.809
    126    H    2.606    3.530    16.353
    127    C    0.906    5.101    18.670
    128    H    0.371    5.983    18.244
    129    O    2.109    5.474    19.379
    130    P    2.141    6.814    20.205
    131    O    3.541    7.146    20.545
    132    O    1.362    7.859    19.515
    133    O    1.385    6.476    21.539
    134    C    1.863    5.504    22.485
    135    H    2.935    5.679    22.734
    136    H    1.771    4.487    22.050
    137    C    1.031    5.568    23.782
    138    H    1.079    6.596    24.209
    139    O    -0.361    5.209    23.516
    140    C    -0.643    3.930    24.064
    141    H    -1.262    4.120    24.967
    142    N    -1.405    3.080    23.113
    143    C    -1.007    2.024    22.314
    144    N    1.482    -0.083    21.257
    145    H    1.649    -0.891    20.690
    146    H    2.215    0.231    21.860
    147    N    0.230    1.506    22.222
    148    C    0.313    0.487    21.417
    149    N    -0.753    -0.008    20.721
    150    H    -0.604    -0.810    20.128
    151    C    -2.044    0.503    20.760
    152    O    -2.955    0.002    20.092
    153    C    -2.141    1.614    21.643
    154    N    -3.231    2.402    21.982
    155    C    -2.747    3.260    22.852
    156    H    -3.321    4.055    23.335
    157    C    0.679    3.334    24.521
    158    H    1.245    2.837    23.717
    159    O    0.558    2.468    25.631
    160    H    0.217    3.015    26.351
    161    C    1.505    4.553    24.838
    162    H    2.561    4.311    24.566
    163    O    1.343    5.011    26.203
    164    P    2.629    5.141    27.104
    165    O    3.732    4.340    26.524
    166    O    2.887    6.578    27.332
    167    O    2.201    4.485    28.467
    168    C    2.106    3.060    28.667
    169    H    2.981    2.709    29.257
    170    H    2.116    2.506    27.704
    171    C    0.815    2.644    29.403
    172    H    0.704    1.537    29.346
    173    O    0.873    3.016    30.812
    174    C    -0.085    4.027    31.089
    175    H    -0.935    3.498    31.580
    176    N    0.506    5.078    31.945
    177    C    1.734    5.608    31.621
    178    H    2.210    5.179    30.737
    179    C    -0.203    5.537    33.030
    180    O    -1.324    5.126    33.314
    181    N    0.444    6.486    33.779
    182    H    -0.044    6.800    34.604
    183    C    1.698    7.019    33.555
    184    O    2.166    7.852    34.331
    185    C    2.351    6.521    32.382
    186    H    3.342    6.893    32.138
    187    C    -0.554    4.576    29.766
    188    H    0.165    5.336    29.389
    189    O    -1.834    5.178    29.841
    190    H    -2.517    4.480    29.819
    191    C    -0.464    3.322    28.877
    192    H    -0.248    3.634    27.833
    193    O    -1.582    2.406    28.929
    194    P    -2.885    2.799    28.141
    195    O    -3.795    3.411    29.138
    196    O    -2.495    3.612    26.974
    197    O    -3.456    1.415    27.651
    198    C    -4.877    1.376    27.341
    199    H    -5.227    2.305    26.826
    200    H    -5.466    1.250    28.278
    201    C    -5.230    0.227    26.400
    202    H    -6.325    0.195    26.187
    203    O    -4.547    0.426    25.131
    204    C    -4.110    -0.827    24.630
    205    H    -4.542    -0.933    23.609
    206    N    -2.645    -0.890    24.541
    207    C    -1.906    -1.823    23.858
    208    N    -1.689    -4.636    21.852
    209    H    -2.642    -4.907    21.730
    210    H    -0.961    -5.232    21.499
    211    N    -2.394    -2.854    23.141
    212    C    -1.418    -3.573    22.579
    213    N    -0.090    -3.282    22.717
    214    H    0.579    -3.890    22.267
    215    C    0.441    -2.238    23.451
    216    O    1.663    -2.076    23.513
    217    C    -0.586    -1.472    24.065
    218    N    -0.502    -0.353    24.865
    219    C    -1.743    -0.024    25.113
    220    H    -2.063    0.842    25.699
    221    C    -4.674    -1.901    25.544
    222    H    -4.006    -2.782    25.628
    223    O    -5.944    -2.313    25.082
    224    H    -6.334    -2.856    25.779
    225    C    -4.778    -1.157    26.867
    226    H    -3.759    -1.017    27.293
    227    O    -5.738    -1.702    27.806
    228    P    -5.192    -2.499    29.058
    229    O    -3.963    -1.864    29.580
    230    O    -6.278    -2.709    30.040
    231    O    -4.800    -3.898    28.443
    232    C    -5.857    -4.750    27.930
    233    H    -6.471    -4.224    27.164
    234    H    -6.539    -5.064    28.757
    235    C    -5.281    -6.020    27.287
    236    H    -6.095    -6.710    26.976
    237    O    -4.532    -5.671    26.087
    238    C    -3.375    -6.491    25.998
    239    H    -3.430    -6.993    25.004
    240    N    -2.126    -5.679    26.086
    241    C    -2.133    -4.409    26.622
    242    H    -3.103    -4.047    26.954
    243    C    -0.957    -6.232    25.618
    244    O    -0.898    -7.371    25.171
    245    N    0.143    -5.418    25.696
    246    H    1.008    -5.823    25.355
    247    C    0.209    -4.147    26.221
    248    O    1.283    -3.552    26.248
    249    C    -1.041    -3.636    26.690
    250    H    -1.081    -2.623    27.084
    251    C    -3.479    -7.547    27.096
    252    H    -2.479    -7.830    27.492
    253    O    -4.153    -8.698    26.606
    254    H    -4.334    -9.303    27.346
    255    C    -4.287    -6.801    28.153
    256    H    -3.639    -6.073    28.687
    257    O    -4.989    -7.643    29.085
    258    H    -4.356    -8.149    29.628
    259    H    10.555    -7.597    21.697
    260    O    9.637    -7.921    21.773
    261    C    9.671    -9.338    21.543
    262    H    10.326    -9.822    22.304
    263    H    10.117    -9.530    20.544
    264    C    8.285    -9.991    21.594
    265    H    8.348    -11.074    21.347
    266    O    7.730    -9.879    22.941
    267    C    6.335    -9.628    22.850
    268    H    5.831    -10.423    23.450
    269    N    5.989    -8.311    23.395
    270    C    4.900    -6.614    24.278
    271    N    6.220    -6.201    24.147
    272    C    6.824    -7.239    23.614
    273    H    7.890    -7.294    23.374
    274    N    2.583    -6.669    24.762
    275    C    2.582    -7.902    24.244
    276    H    1.612    -8.411    24.242
    277    N    3.604    -8.614    23.756
    278    C    4.745    -7.908    23.808
    279    C    3.750    -5.977    24.793
    280    N    3.760    -4.737    25.319
    281    H    4.593    -4.170    25.324
    282    H    2.905    -4.315    25.631
    283    C    5.941    -9.767    21.398
    284    H    5.098    -9.103    21.113
    285    O    5.606    -11.113    21.126
    286    H    5.466    -11.176    20.172
    287    C    7.224    -9.352    20.688
    288    H    7.367    -8.249    20.758
    289    O    7.364    -9.854    19.341
    290    P    6.884    -8.974    18.127
    291    O    7.437    -7.614    18.289
    292    O    7.187    -9.680    16.863
    293    O    5.327    -8.908    18.329
    294    C    4.492    -10.064    18.085
    295    H    4.819    -10.939    18.688
    296    H    4.552    -10.360    17.016
    297    C    3.012    -9.809    18.425
    298    H    2.420    -10.739    18.267
    299    O    2.861    -9.454    19.833
    300    C    1.844    -8.459    19.949
    301    H    1.104    -8.888    20.663
    302    N    2.324    -7.167    20.495
    303    C    3.652    -6.829    20.402
    304    H    4.293    -7.558    19.904
    305    C    4.116    -5.685    20.921
    306    H    5.170    -5.416    20.888
    307    C    1.418    -6.269    21.058
    308    O    0.210    -6.552    21.079
    309    N    1.870    -5.111    21.587
    310    C    3.180    -4.818    21.557
    311    N    3.604    -3.692    22.122
    312    H    2.932    -3.076    22.540
    313    H    4.537    -3.358    21.990
    314    C    1.181    -8.317    18.599
    315    H    0.804    -7.290    18.390
    316    O    0.123    -9.257    18.499
    317    H    -0.097    -9.303    17.560
    318    C    2.324    -8.670    17.662
    319    H    3.063    -7.839    17.599
    320    O    1.891    -9.139    16.378
    321    P    1.761    -8.174    15.149
    322    O    2.988    -7.348    15.082
    323    O    1.449    -9.024    13.981
    324    O    0.519    -7.272    15.475
    325    C    -0.831    -7.755    15.569
    326    H    -0.952    -8.381    16.475
    327    H    -1.079    -8.381    14.680
    328    C    -1.876    -6.627    15.670
    329    H    -2.895    -7.076    15.643
    330    O    -1.751    -5.904    16.937
    331    C    -1.581    -4.528    16.661
    332    H    -2.606    -4.080    16.625
    333    N    -0.731    -3.845    17.651
    334    C    0.622    -3.988    17.868
    335    N    3.669    -5.251    16.861
    336    H    4.636    -5.018    16.943
    337    H    3.366    -5.924    16.176
    338    N    1.458    -4.809    17.215
    339    C    2.726    -4.563    17.459
    340    N    3.146    -3.628    18.360
    341    H    4.132    -3.474    18.473
    342    C    2.310    -2.795    19.080
    343    O    2.776    -1.970    19.861
    344    C    0.939    -3.052    18.824
    345    N    -0.196    -2.397    19.273
    346    C    -1.164    -2.892    18.541
    347    H    -2.216    -2.600    18.609
    348    C    -0.995    -4.453    15.279
    349    H    0.075    -4.755    15.268
    350    O    -1.130    -3.159    14.725
    351    H    -1.169    -3.258    13.759
    352    C    -1.774    -5.556    14.563
    353    H    -1.138    -6.000    13.761
    354    O    -3.074    -5.185    14.061
    355    P    -3.245    -4.358    12.733
    356    O    -4.088    -5.172    11.840
    357    O    -3.753    -3.016    13.089
    358    O    -1.780    -4.197    12.143
    359    C    -1.590    -4.211    10.711
    360    H    -2.260    -3.473    10.213
    361    H    -1.824    -5.230    10.303
    362    C    -0.145    -3.898    10.272
    363    H    -0.067    -4.145    9.195
    364    O    0.182    -2.489    10.382
    365    C    1.178    -2.303    11.372
    366    H    2.142    -2.176    10.827
    367    N    0.896    -1.110    12.159
    368    C    1.074    0.775    13.256
    369    N    -0.279    0.483    13.207
    370    C    -0.337    -0.647    12.553
    371    H    -1.252    -1.194    12.309
    372    N    3.138    1.842    13.731
    373    C    3.710    0.840    13.053
    374    H    4.802    0.885    12.994
    375    N    3.144    -0.191    12.411
    376    C    1.811    -0.186    12.599
    377    C    1.791    1.830    13.848
    378    N    1.203    2.824    14.510
    379    H    0.195    2.878    14.543
    380    H    1.686    3.693    14.576
    381    C    1.256    -3.581    12.170
    382    H    0.462    -3.618    12.938
    383    O    2.515    -3.776    12.782
    384    H    3.168    -3.934    12.077
    385    C    0.963    -4.609    11.079
    386    H    0.541    -5.521    11.567
    387    O    2.118    -4.907    10.257
    388    P    2.118    -6.246    9.414
    389    O    3.492    -6.492    8.927
    390    O    1.477    -7.334    10.185
    391    O    1.201    -5.955    8.177
    392    C    1.510    -4.959    7.186
    393    H    2.574    -5.046    6.856
    394    H    1.381    -3.947    7.623
    395    C    0.533    -5.109    5.996
    396    H    0.612    -6.138    5.579
    397    O    -0.838    -4.871    6.449
    398    C    -1.330    -3.655    5.910
    399    H    -2.025    -3.953    5.094
    400    N    -2.074    -2.862    6.932
    401    C    -1.717    -1.743    7.663
    402    N    0.551    0.724    8.310
    403    H    0.721    1.523    8.888
    404    H    1.250    0.456    7.650
    405    N    -0.554    -1.081    7.595
    406    C    -0.514    -0.027    8.355
    407    N    -1.517    0.339    9.203
    408    H    -1.381    1.175    9.749
    409    C    -2.720    -0.334    9.352
    410    O    -3.568    0.060    10.160
    411    C    -2.801    -1.454    8.472
    412    N    -3.827    -2.362    8.261
    413    C    -3.353    -3.176    7.342
    414    H    -3.888    -4.039    6.936
    415    C    -0.144    -2.934    5.290
    416    H    0.454    -2.370    6.024
    417    O    -0.525    -2.107    4.212
    418    H    -0.980    -2.670    3.576
    419    C    0.756    -4.078    4.868
    420    H    1.811    -3.728    4.977
    421    O    0.460    -4.589    3.548
    422    P    1.585    -4.639    2.446
    423    O    2.748    -3.799    2.830
    424    O    1.886    -6.053    2.133
    425    O    0.884    -4.007    1.186
    426    C    0.616    -2.597    1.025
    427    H    1.362    -2.157    0.326
    428    H    0.727    -2.050    1.983
    429    C    -0.795    -2.287    0.469
    430    H    -0.988    -1.194    0.566
    431    O    -0.881    -2.617    -0.955
    432    C    -1.790    -3.694    -1.136
    433    H    -2.742    -3.223    -1.478
    434    N    -1.251    -4.675    -2.108
    435    C    0.004    -5.201    -1.913
    436    H    0.530    -4.839    -1.027
    437    C    -2.016    -5.049    -3.187
    438    O    -3.141    -4.601    -3.388
    439    N    -1.427    -5.963    -4.025
    440    H    -1.964    -6.226    -4.836
    441    C    -0.161    -6.502    -3.918
    442    O    0.255    -7.288    -4.770
    443    C    0.563    -6.079    -2.759
    444    H    1.562    -6.475    -2.586
    445    C    -2.019    -4.308    0.228
    446    H    -1.182    -4.987    0.490
    447    O    -3.227    -5.036    0.324
    448    H    -3.961    -4.420    0.511
    449    C    -1.946    -3.068    1.127
    450    H    -1.589    -3.365    2.137
    451    O    -3.142    -2.252    1.204
    452    P    -4.279    -2.661    2.207
    453    O    -5.195    -3.576    1.485
    454    O    -3.657    -3.199    3.434
    455    O    -5.028    -1.317    2.554
    456    C    -6.373    -1.399    3.105
    457    H    -6.570    -2.361    3.641
    458    H    -7.120    -1.307    2.284
    459    C    -6.652    -0.277    4.110
    460    H    -7.706    -0.313    4.463
    461    O    -5.809    -0.446    5.281
    462    C    -5.398    0.829    5.755
    463    H    -5.688    0.890    6.828
    464    N    -3.945    0.999    5.629
    465    C    -3.195    2.016    6.166
    466    N    -2.939    4.902    8.069
    467    H    -3.887    5.114    8.299
    468    H    -2.218    5.553    8.319
    469    N    -3.658    3.030    6.921
    470    C    -2.681    3.842    7.328
    471    N    -1.366    3.658    6.994
    472    H    -0.685    4.307    7.359
    473    C    -0.863    2.633    6.208
    474    O    0.346    2.551    5.970
    475    C    -1.898    1.767    5.768
    476    N    -1.835    0.629    4.986
    477    C    -3.067    0.188    4.941
    478    H    -3.397    -0.735    4.451
    479    C    -6.148    1.875    4.950
    480    H    -5.561    2.805    4.800
    481    O    -7.378    2.191    5.571
    482    H    -7.870    2.745    4.951
    483    C    -6.355    1.145    3.631
    484    H    -5.388    1.091    3.077
    485    O    -7.458    1.636    2.838
    486    P    -7.173    2.442    1.518
    487    O    -5.958    1.919    0.857
    488    O    -8.407    2.464    0.699
    489    O    -6.849    3.889    2.059
    490    C    -7.832    4.659    2.788
    491    H    -8.262    4.081    3.638
    492    H    -8.673    4.934    2.115
    493    C    -7.244    5.968    3.337
    494    H    -8.044    6.616    3.752
    495    O    -6.316    5.679    4.426
    496    C    -5.203    6.563    4.336
    497    H    -5.139    7.073    5.328
    498    N    -3.936    5.826    4.054
    499    C    -3.938    4.578    3.467
    500    H    -4.924    4.145    3.301
    501    C    -2.752    6.448    4.373
    502    O    -2.708    7.573    4.857
    503    N    -1.623    5.722    4.105
    504    H    -0.748    6.183    4.329
    505    C    -1.546    4.479    3.520
    506    O    -0.447    3.966    3.320
    507    C    -2.815    3.892    3.208
    508    H    -2.842    2.885    2.795
    509    C    -5.524    7.603    3.268
    510    H    -4.609    7.938    2.734
    511    O    -6.180    8.721    3.853
    512    H    -6.541    9.296    3.152
    513    C    -6.428    6.802    2.338
    514    H    -5.821    6.107    1.722
    515    O    -7.291    7.599    1.505
    516    H    -6.759    8.135    0.886
 $END
