!*** FMO 5.3 (Gamess) INPUT generated by Facio 22.1.1.32 ***
 $CONTRL RUNTYP=ENERGY NPRINT=-5 ISPHER=1 MAXIT=200 $END
 $SYSTEM MWORDS=63 MEMDDI=63 $END
 $GDDI NGROUP=1 $END
 $SCF DIRSCF=.TRUE. NPUNCH=0 $END
!*** NumCPU : 2  MemPerNode : 512MB
 $PCM SOLVNT=WATER IEF=-10 ICOMP=2 ICAV=1 IDISP=1 IFMO=-1 $END
 $PCMCAV RADII=SUAHF $END
 $TESCAV NTSALL=60 $END
 $FMOPRP
    NAODIR=200
    NGRFMO(1)=1, 1, 0, 0, 0,   0, 0, 0, 0, 0
    IPIEDA=1
    NPRINT=9
 $END
 $FMO
      SCFTYP(1)=RHF
      MODGRD=10
      MODMUL=0
      MAXCAO=5
      MAXBND=18
      NLAYER=1
      MPLEVL(1)=2
      NFRAG=16
      ICHARG(1)=-1, -1, -1, -1, -1, -1, -1, 0, -1, -1, -1, -1, -1, -1,
-1, 0
      FRGNAM(1)=F1, F2, F3, F4, F5, F6, F7, F8, F9, F10, F11, F12, F13,
F14, F15, F16
      indat(1)=0
               1   -35   0
               36   -66   0
               67   -100   0
               101   -133   0
               134   -167   0
               168   -197   0
               198   -231   0
               232   -260   0
               261   -293   0
               294   -324   0
               325   -358   0
               359   -391   0
               392   -425   0
               426   -455   0
               456   -489   0
               490   -516   0
 $END

 $FMOBND
   -36   35       6-31G*    MINI
   -67   66       6-31G*    MINI
   -101   100       6-31G*    MINI
   -134   133       6-31G*    MINI
   -168   167       6-31G*    MINI
   -198   197       6-31G*    MINI
   -232   231       6-31G*    MINI
   -261   260       6-31G*    MINI
   -294   293       6-31G*    MINI
   -325   324       6-31G*    MINI
   -359   358       6-31G*    MINI
   -392   391       6-31G*    MINI
   -426   425       6-31G*    MINI
   -456   455       6-31G*    MINI
   -490   489       6-31G*    MINI
 $END
 $FMOHYB
 6-31G*      15   5
   1 0  -0.065034   0.288264   0.000000   0.000000   0.604412
         0.290129   0.000000   0.000000   0.319045  -0.017106
        -0.017106   0.057934   0.000000   0.000000   0.000000
   0 1  -0.065040   0.288293   0.569832   0.000000  -0.201456
         0.290147   0.300783   0.000000  -0.106342   0.049598
        -0.017106  -0.008771   0.000000  -0.027223   0.000000
   0 1  -0.065039   0.288293  -0.284916  -0.493490  -0.201455
         0.290145  -0.150392  -0.260486  -0.106340  -0.000427
         0.032923  -0.008771   0.033353   0.013612   0.023576
   0 1  -0.065039   0.288293  -0.284916   0.493490  -0.201455
         0.290145  -0.150392   0.260486  -0.106340  -0.000427
         0.032923  -0.008771  -0.033353   0.013612  -0.023576
   0 1   1.010938  -0.011975   0.000000   0.000000   0.000000
        -0.054085   0.000000   0.000000  -0.000000  -0.003174
        -0.003174  -0.003174   0.000000   0.000000   0.000000
 MINI         5   5
   1 0  -0.104883   0.308874   0.000000   0.000000   0.521806
   0 1  -0.104883   0.308874   0.491961   0.000000  -0.173934
   0 1  -0.104883   0.308876  -0.245980  -0.426050  -0.173933
   0 1  -0.104883   0.308876  -0.245980   0.426050  -0.173933
   0 1   0.988209   0.063992   0.000000   0.000000   0.000000
 $END
 
 $DATA
 FMO calculation
 C1 
 H.1-1    1
      N31 6
   
 O.1-1    8
      N31 6
      d 1
      1 0.800 1.0
   
 C.1-1    6
      N31 6
      d 1
      1 0.800 1.0
   
 N.1-1    7
      N31 6
      d 1
      1 0.800 1.0
   
 P.1-1   15
      N31 6
      d 1
      1 0.550 1.0
   
 $END
 $FMOXYZ
    1    H    9.149    1.303    2.393
    2    O    8.714    2.142    2.632
    3    C    9.649    3.193    2.354
    4    H    10.004    3.108    1.302
    5    H    10.536    3.076    3.019
    6    C    9.045    4.585    2.566
    7    H    9.809    5.378    2.401
    8    O    7.974    4.812    1.601
    9    C    6.929    5.539    2.228
    10    H    6.762    6.454    1.617
    11    N    5.687    4.763    2.258
    12    C    3.569    4.174    2.330
    13    N    4.289    3.006    2.100
    14    C    5.538    3.409    2.066
    15    H    6.405    2.765    1.895
    16    N    1.805    5.710    2.707
    17    C    2.751    6.650    2.810
    18    H    2.386    7.660    3.020
    19    N    4.077    6.538    2.675
    20    C    4.421    5.262    2.435
    21    C    2.186    4.431    2.458
    22    N    1.239    3.481    2.341
    23    H    1.477    2.529    2.128
    24    H    0.275    3.698    2.515
    25    C    7.414    5.936    3.605
    26    H    6.593    6.003    4.349
    27    O    8.085    7.178    3.520
    28    H    8.475    7.346    4.386
    29    C    8.384    4.801    3.933
    30    H    7.816    3.868    4.170
    31    O    9.398    5.113    4.922
    32    P    9.053    4.845    6.438
    33    O    8.585    3.450    6.592
    34    O    10.221    5.225    7.272
    35    O    7.853    5.804    6.747
    36    C    8.068    7.225    6.908
    37    H    8.460    7.682    5.975
    38    H    8.804    7.431    7.725
    39    C    6.745    7.925    7.263
    40    H    6.888    9.021    7.359
    41    O    5.760    7.716    6.212
    42    C    4.467    7.601    6.799
    43    H    3.867    8.432    6.361
    44    N    3.800    6.307    6.479
    45    C    4.557    5.217    6.118
    46    H    5.638    5.374    6.101
    47    C    3.990    4.052    5.787
    48    H    4.574    3.188    5.473
    49    C    2.412    6.186    6.554
    50    O    1.735    7.166    6.899
    51    N    1.823    5.011    6.236
    52    C    2.570    3.964    5.845
    53    N    1.967    2.826    5.514
    54    H    0.965    2.777    5.558
    55    H    2.471    2.013    5.223
    56    C    4.616    7.841    8.296
    57    H    3.912    7.232    8.900
    58    O    4.441    9.213    8.600
    59    H    4.546    9.279    9.559
    60    C    6.062    7.410    8.538
    61    H    6.142    6.299    8.529
    62    O    6.704    7.994    9.689
    63    P    6.415    7.468    11.140
    64    O    6.380    5.992    11.115
    65    O    7.422    8.062    12.040
    66    O    4.998    8.059    11.512
    67    C    4.272    7.502    12.644
    68    H    4.832    7.654    13.594
    69    H    4.147    6.402    12.520
    70    C    2.855    8.109    12.800
    71    H    2.924    9.135    13.219
    72    O    2.211    8.240    11.491
    73    C    0.865    7.810    11.568
    74    H    0.267    8.627    11.103
    75    N    0.612    6.553    10.820
    76    C    1.489    5.574    10.376
    77    N    4.698    4.347    9.950
    78    H    5.173    3.672    9.397
    79    H    5.250    5.024    10.471
    80    N    2.821    5.526    10.548
    81    C    3.397    4.503    9.955
    82    N    2.705    3.548    9.274
    83    H    3.203    2.760    8.920
    84    C    1.333    3.526    9.119
    85    O    0.806    2.609    8.501
    86    C    0.706    4.653    9.716
    87    N    -0.626    5.018    9.754
    88    C    -0.641    6.146    10.426
    89    H    -1.542    6.722    10.656
    90    C    0.511    7.696    13.032
    91    H    -0.271    6.931    13.235
    92    O    0.091    8.957    13.522
    93    H    0.149    8.918    14.486
    94    C    1.846    7.287    13.637
    95    H    2.047    6.222    13.404
    96    O    1.975    7.588    15.046
    97    P    1.582    6.500    16.116
    98    O    2.350    5.268    15.842
    99    O    1.779    7.128    17.444
    100    O    0.047    6.222    15.907
    101    C    -0.964    7.182    16.310
    102    H    -0.948    8.071    15.644
    103    H    -0.804    7.547    17.355
    104    C    -2.371    6.570    16.234
    105    H    -3.150    7.322    16.493
    106    O    -2.639    6.112    14.876
    107    C    -3.339    4.876    14.919
    108    H    -4.278    5.027    14.335
    109    N    -2.567    3.802    14.290
    110    C    -1.945    1.910    13.353
    111    N    -0.834    2.746    13.319
    112    C    -1.255    3.854    13.881
    113    H    -0.650    4.749    14.049
    114    N    -3.380    0.047    13.098
    115    C    -4.324    0.791    13.672
    116    H    -5.294    0.302    13.801
    117    N    -4.252    2.041    14.136
    118    C    -3.023    2.551    13.943
    119    C    -2.150    0.585    12.904
    120    N    -1.171    -0.149    12.337
    121    H    -0.266    0.233    12.142
    122    H    -1.403    -1.039    11.914
    123    C    -3.680    4.589    16.372
    124    H    -3.662    3.512    16.624
    125    O    -4.961    5.115    16.661
    126    H    -5.083    5.080    17.623
    127    C    -2.579    5.330    17.117
    128    H    -1.632    4.752    17.043
    129    O    -2.912    5.716    18.477
    130    P    -2.383    4.852    19.686
    131    O    -1.157    4.129    19.294
    132    O    -2.307    5.727    20.882
    133    O    -3.548    3.821    19.960
    134    C    -3.464    2.955    21.128
    135    H    -2.838    3.393    21.941
    136    H    -2.993    1.987    20.846
    137    C    -4.864    2.684    21.712
    138    H    -5.455    3.629    21.711
    139    O    -5.543    1.674    20.920
    140    C    -5.615    0.464    21.652
    141    H    -6.681    0.370    21.961
    142    N    -5.233    -0.693    20.819
    143    C    -3.982    -1.198    20.552
    144    N    -0.626    -1.207    21.283
    145    H    -0.586    -0.457    21.944
    146    H    0.229    -1.650    21.007
    147    N    -2.817    -0.725    21.011
    148    C    -1.797    -1.506    20.765
    149    N    -1.892    -2.641    20.002
    150    H    -1.062    -3.181    19.827
    151    C    -3.069    -3.120    19.425
    152    O    -3.092    -4.143    18.739
    153    C    -4.185    -2.295    19.744
    154    N    -5.533    -2.442    19.438
    155    C    -6.115    -1.464    20.098
    156    H    -7.188    -1.257    20.086
    157    C    -4.768    0.618    22.911
    158    H    -3.698    0.404    22.777
    159    O    -5.249    -0.192    23.965
    160    H    -6.091    0.185    24.264
    161    C    -4.852    2.126    23.158
    162    H    -3.900    2.484    23.614
    163    O    -5.998    2.564    23.918
    164    P    -5.939    2.535    25.495
    165    O    -4.544    2.404    25.961
    166    O    -6.736    3.672    26.007
    167    O    -6.716    1.201    25.807
    168    C    -7.157    0.854    27.135
    169    H    -7.326    1.758    27.774
    170    H    -6.374    0.234    27.638
    171    C    -8.463    0.033    27.111
    172    H    -8.673    -0.348    28.133
    173    O    -9.578    0.872    26.697
    174    C    -10.101    0.411    25.463
    175    H    -11.003    -0.185    25.729
    176    N    -10.419    1.556    24.581
    177    C    -9.441    2.478    24.305
    178    H    -8.508    2.309    24.827
    179    C    -11.680    1.694    24.061
    180    O    -12.576    0.873    24.274
    181    N    -11.873    2.813    23.294
    182    H    -12.808    2.963    22.951
    183    C    -10.953    3.805    23.015
    184    O    -11.283    4.787    22.352
    185    C    -9.653    3.572    23.562
    186    H    -8.878    4.320    23.410
    187    C    -9.070    -0.527    24.863
    188    H    -8.285    0.037    24.316
    189    O    -9.646    -1.497    24.013
    190    H    -10.157    -2.099    24.578
    191    C    -8.481    -1.153    26.122
    192    H    -7.422    -1.428    25.911
    193    O    -9.267    -2.272    26.617
    194    P    -8.537    -3.487    27.308
    195    O    -7.331    -2.965    27.983
    196    O    -9.515    -4.186    28.170
    197    O    -8.130    -4.450    26.128
    198    C    -7.244    -4.001    25.088
    199    H    -6.454    -3.318    25.474
    200    H    -7.827    -3.451    24.314
    201    C    -6.542    -5.178    24.421
    202    H    -7.269    -5.907    24.006
    203    O    -5.773    -4.639    23.313
    204    C    -4.523    -5.310    23.225
    205    H    -4.442    -5.702    22.186
    206    N    -3.396    -4.396    23.478
    207    C    -2.064    -4.673    23.290
    208    N    0.458    -6.843    22.308
    209    H    -0.032    -7.683    22.082
    210    H    1.460    -6.824    22.238
    211    N    -1.553    -5.834    22.847
    212    C    -0.225    -5.792    22.724
    213    N    0.519    -4.689    23.050
    214    H    1.518    -4.734    22.906
    215    C    0.022    -3.478    23.514
    216    O    0.766    -2.528    23.777
    217    C    -1.394    -3.519    23.645
    218    N    -2.284    -2.537    24.054
    219    C    -3.463    -3.094    23.928
    220    H    -4.417    -2.601    24.121
    221    C    -4.565    -6.464    24.205
    222    H    -3.570    -6.709    24.628
    223    O    -5.100    -7.606    23.570
    224    H    -5.289    -8.246    24.268
    225    C    -5.510    -5.926    25.274
    226    H    -4.994    -5.148    25.883
    227    O    -6.161    -6.946    26.065
    228    P    -5.690    -7.214    27.537
    229    O    -5.360    -5.942    28.212
    230    O    -6.645    -8.119    28.225
    231    O    -4.352    -8.006    27.310
    232    C    -4.413    -9.355    26.792
    233    H    -4.935    -9.389    25.807
    234    H    -4.967    -10.019    27.499
    235    C    -3.009    -9.941    26.610
    236    H    -3.060    -11.000    26.280
    237    O    -2.286    -9.200    25.583
    238    C    -0.924    -9.059    25.974
    239    H    -0.322    -9.491    25.140
    240    N    -0.551    -7.625    26.179
    241    C    -1.514    -6.658    26.377
    242    H    -2.540    -7.016    26.378
    243    C    0.785    -7.286    26.163
    244    O    1.678    -8.116    26.020
    245    N    1.047    -5.951    26.317
    246    H    2.031    -5.701    26.308
    247    C    0.140    -4.937    26.535
    248    O    0.534    -3.784    26.694
    249    C    -1.226    -5.360    26.549
    250    H    -2.003    -4.614    26.695
    251    C    -0.723    -9.905    27.228
    252    H    0.031    -9.458    27.911
    253    O    -0.322    -11.221    26.872
    254    H    -0.379    -11.786    27.660
    255    C    -2.115    -9.864    27.853
    256    H    -2.282    -8.885    28.352
    257    O    -2.395    -10.953    28.750
    258    H    -1.856    -10.872    29.558
    259    H    11.201    -0.879    25.529
    260    O    10.710    -1.724    25.489
    261    C    11.675    -2.782    25.591
    262    H    12.178    -2.720    26.582
    263    H    12.452    -2.649    24.806
    264    C    11.052    -4.174    25.442
    265    H    11.836    -4.961    25.477
    266    O    10.135    -4.425    26.549
    267    C    9.008    -5.142    26.069
    268    H    8.926    -6.062    26.690
    269    N    7.780    -4.361    26.208
    270    C    5.672    -3.769    26.394
    271    N    6.415    -2.602    26.536
    272    C    7.659    -3.007    26.420
    273    H    8.541    -2.365    26.481
    274    N    3.877    -5.311    26.290
    275    C    4.798    -6.251    26.054
    276    H    4.410    -7.267    25.922
    277    N    6.130    -6.136    26.004
    278    C    6.503    -4.857    26.186
    279    C    4.286    -4.027    26.459
    280    N    3.368    -3.070    26.689
    281    H    3.634    -2.122    26.889
    282    H    2.389    -3.292    26.672
    283    C    9.292    -5.528    24.636
    284    H    8.375    -5.589    24.013
    285    O    9.973    -6.767    24.610
    286    H    10.221    -6.919    23.690
    287    C    10.201    -4.391    24.179
    288    H    9.613    -3.456    24.027
    289    O    11.055    -4.716    23.053
    290    P    10.525    -4.397    21.598
    291    O    10.028    -3.005    21.554
    292    O    11.588    -4.717    20.619
    293    O    9.307    -5.377    21.400
    294    C    9.513    -6.803    21.260
    295    H    10.054    -7.217    22.135
    296    H    10.130    -7.031    20.363
    297    C    8.178    -7.558    21.124
    298    H    8.352    -8.652    21.030
    299    O    7.370    -7.348    22.316
    300    C    5.995    -7.273    21.947
    301    H    5.497    -8.096    22.513
    302    N    5.359    -5.977    22.311
    303    C    6.141    -4.860    22.494
    304    H    7.214    -5.005    22.362
    305    C    5.609    -3.682    22.837
    306    H    6.218    -2.796    23.007
    307    C    3.973    -5.876    22.435
    308    O    3.272    -6.885    22.258
    309    N    3.417    -4.685    22.761
    310    C    4.193    -3.609    22.976
    311    N    3.620    -2.454    23.311
    312    H    2.627    -2.431    23.450
    313    H    4.147    -1.630    23.518
    314    C    5.902    -7.564    20.459
    315    H    5.088    -6.996    19.960
    316    O    5.714    -8.949    20.243
    317    H    5.698    -9.050    19.282
    318    C    7.273    -7.106    19.965
    319    H    7.322    -5.995    19.942
    320    O    7.726    -7.704    18.729
    321    P    7.214    -7.147    17.344
    322    O    7.036    -5.687    17.448
    323    O    8.153    -7.621    16.301
    324    O    5.832    -7.877    17.131
    325    C    4.761    -7.232    16.400
    326    H    4.977    -7.245    15.307
    327    H    4.642    -6.162    16.691
    328    C    3.415    -7.945    16.638
    329    H    3.480    -9.012    16.338
    330    O    3.057    -7.918    18.056
    331    C    1.689    -7.539    18.191
    332    H    1.243    -8.297    18.875
    333    N    1.490    -6.192    18.784
    334    C    2.394    -5.179    19.048
    335    N    5.597    -3.908    18.882
    336    H    6.034    -3.014    18.847
    337    H    6.053    -4.681    18.414
    338    N    3.715    -5.187    18.809
    339    C    4.312    -4.057    19.104
    340    N    3.658    -2.977    19.635
    341    H    4.174    -2.145    19.844
    342    C    2.305    -2.947    19.935
    343    O    1.793    -1.950    20.431
    344    C    1.650    -4.154    19.591
    345    N    0.313    -4.501    19.680
    346    C    0.259    -5.714    19.182
    347    H    -0.656    -6.306    19.090
    348    C    1.048    -7.648    16.831
    349    H    0.210    -6.932    16.691
    350    O    0.585    -8.968    16.615
    351    H    0.497    -9.092    15.655
    352    C    2.213    -7.305    15.915
    353    H    2.388    -6.203    15.940
    354    O    2.072    -7.845    14.581
    355    P    1.845    -6.912    13.342
    356    O    3.094    -6.165    13.083
    357    O    1.322    -7.738    12.231
    358    O    0.726    -5.905    13.799
    359    C    -0.640    -6.352    13.979
    360    H    -0.692    -7.205    14.693
    361    H    -1.076    -6.695    13.011
    362    C    -1.528    -5.231    14.534
    363    H    -2.557    -5.594    14.744
    364    O    -0.976    -4.738    15.792
    365    C    -1.136    -3.329    15.862
    366    H    -1.726    -3.123    16.783
    367    N    0.163    -2.658    15.962
    368    C    1.835    -1.350    16.533
    369    N    2.342    -2.240    15.598
    370    C    1.316    -2.995    15.292
    371    H    1.346    -3.826    14.586
    372    N    1.664    0.388    18.132
    373    C    0.366    0.070    18.220
    374    H    -0.221    0.681    18.913
    375    N    -0.315    -0.901    17.597
    376    C    0.489    -1.585    16.761
    377    C    2.449    -0.323    17.278
    378    N    3.764    -0.044    17.164
    379    H    4.344    -0.499    16.482
    380    H    4.147    0.750    17.639
    381    C    -1.926    -2.883    14.646
    382    H    -1.591    -1.898    14.256
    383    O    -3.304    -2.821    14.955
    384    H    -3.767    -2.641    14.125
    385    C    -1.628    -3.987    13.642
    386    H    -0.603    -3.837    13.231
    387    O    -2.649    -4.160    12.622
    388    P    -2.260    -3.873    11.125
    389    O    -1.426    -2.651    11.067
    390    O    -1.690    -5.100    10.527
    391    O    -3.652    -3.601    10.430
    392    C    -4.283    -2.315    10.528
    393    H    -3.688    -1.541    9.992
    394    H    -4.339    -2.005    11.600
    395    C    -5.725    -2.391    9.986
    396    H    -6.217    -3.328    10.331
    397    O    -6.451    -1.261    10.530
    398    C    -6.542    -0.246    9.553
    399    H    -7.625    -0.172    9.317
    400    N    -6.074    1.056    10.069
    401    C    -4.836    1.653    9.994
    402    N    -1.728    1.747    8.565
    403    H    -0.888    2.295    8.540
    404    H    -1.728    0.857    8.105
    405    N    -3.737    1.158    9.401
    406    C    -2.779    2.039    9.284
    407    N    -2.824    3.273    9.863
    408    H    -2.015    3.870    9.773
    409    C    -3.890    3.788    10.590
    410    O    -3.853    4.908    11.104
    411    C    -4.979    2.878    10.618
    412    N    -6.262    3.033    11.120
    413    C    -6.875    1.925    10.776
    414    H    -7.906    1.673    11.035
    415    C    -5.816    -0.718    8.300
    416    H    -4.741    -0.494    8.264
    417    O    -6.412    -0.194    7.136
    418    H    -7.191    -0.735    6.939
    419    C    -5.870    -2.238    8.445
    420    H    -4.943    -2.680    8.002
    421    O    -7.064    -2.869    7.926
    422    P    -7.117    -3.388    6.429
    423    O    -5.762    -3.773    5.978
    424    O    -8.168    -4.426    6.366
    425    O    -7.592    -2.103    5.661
    426    C    -7.974    -2.066    4.270
    427    H    -8.249    -3.075    3.887
    428    H    -7.119    -1.701    3.655
    429    C    -9.156    -1.111    4.019
    430    H    -9.433    -1.116    2.943
    431    O    -10.317    -1.581    4.759
    432    C    -11.076    -0.478    5.221
    433    H    -12.088    -0.607    4.774
    434    N    -11.155    -0.453    6.708
    435    C    -10.109    -0.909    7.476
    436    H    -9.264    -1.297    6.917
    437    C    -12.295    0.039    7.300
    438    O    -13.247    0.461    6.648
    439    N    -12.293    0.019    8.671
    440    H    -13.143    0.332    9.109
    441    C    -11.307    -0.475    9.502
    442    O    -11.474    -0.496    10.721
    443    C    -10.143    -0.944    8.815
    444    H    -9.329    -1.372    9.395
    445    C    -10.448    0.786    4.657
    446    H    -10.507    1.634    5.374
    447    O    -11.078    1.155    3.439
    448    H    -10.513    1.855    3.047
    449    C    -8.988    0.361    4.452
    450    H    -8.448    0.360    5.423
    451    O    -8.236    1.085    3.459
    452    P    -8.172    2.656    3.411
    453    O    -6.851    3.053    2.895
    454    O    -9.380    3.074    2.655
    455    O    -8.306    3.109    4.914
    456    C    -9.076    4.278    5.297
    457    H    -9.873    3.954    6.004
    458    H    -9.596    4.765    4.438
    459    C    -8.237    5.368    5.991
    460    H    -8.897    6.095    6.516
    461    O    -7.351    4.792    6.994
    462    C    -6.096    5.457    6.951
    463    H    -5.880    5.807    7.987
    464    N    -5.017    4.552    6.515
    465    C    -3.678    4.843    6.528
    466    N    -1.094    7.075    7.130
    467    H    -1.567    7.882    7.474
    468    H    -0.090    7.078    7.081
    469    N    -3.128    6.002    6.926
    470    C    -1.800    6.002    6.822
    471    N    -1.092    4.931    6.349
    472    H    -0.084    4.993    6.343
    473    C    -1.629    3.722    5.927
    474    O    -0.901    2.817    5.509
    475    C    -3.047    3.716    6.038
    476    N    -3.970    2.724    5.730
    477    C    -5.131    3.265    6.030
    478    H    -6.103    2.776    5.921
    479    C    -6.247    6.654    6.030
    480    H    -5.308    6.914    5.498
    481    O    -6.699    7.776    6.765
    482    H    -6.942    8.460    6.125
    483    C    -7.309    6.166    5.062
    484    H    -6.875    5.427    4.348
    485    O    -8.042    7.230    4.422
    486    P    -7.851    7.537    2.895
    487    O    -7.610    6.281    2.168
    488    O    -9.010    8.355    2.465
    489    O    -6.531    8.388    2.864
    490    C    -6.503    9.714    3.429
    491    H    -6.848    9.716    4.489
    492    H    -7.172    10.390    2.846
    493    C    -5.082    10.295    3.385
    494    H    -5.083    11.360    3.709
    495    O    -4.219    9.557    4.302
    496    C    -2.926    9.419    3.725
    497    H    -2.213    9.857    4.464
    498    N    -2.582    7.987    3.471
    499    C    -3.559    7.017    3.388
    500    H    -4.576    7.364    3.562
    501    C    -1.254    7.661    3.316
    502    O    -0.358    8.497    3.366
    503    N    -1.005    6.332    3.100
    504    H    -0.028    6.090    2.966
    505    C    -1.925    5.315    2.976
    506    O    -1.545    4.173    2.728
    507    C    -3.285    5.722    3.169
    508    H    -4.072    4.971    3.128
    509    C    -2.904    10.259    2.453
    510    H    -2.246    9.814    1.673
    511    O    -2.475    11.581    2.745
    512    H    -2.619    12.131    1.955
    513    C    -4.368    10.201    2.027
    514    H    -4.595    9.211    1.575
    515    O    -4.782    11.268    1.154
    516    H    -4.316    11.197    0.303
 $END
