!*** FMO 5.3 (Gamess) INPUT generated by Facio 22.1.1.32 ***
 $CONTRL RUNTYP=ENERGY NPRINT=-5 ISPHER=1 MAXIT=200 $END
 $SYSTEM MWORDS=63 MEMDDI=63 $END
 $GDDI NGROUP=1 $END
 $SCF DIRSCF=.TRUE. NPUNCH=0 $END
!*** NumCPU : 2  MemPerNode : 512MB
 $PCM SOLVNT=WATER IEF=-10 ICOMP=2 ICAV=1 IDISP=1 IFMO=-1 $END
 $PCMCAV RADII=SUAHF $END
 $TESCAV NTSALL=60 $END
 $FMOPRP
    NAODIR=200
    NGRFMO(1)=1, 1, 0, 0, 0,   0, 0, 0, 0, 0
    IPIEDA=1
    NPRINT=9
 $END
 $FMO
      SCFTYP(1)=RHF
      MODGRD=10
      MODMUL=0
      MAXCAO=5
      MAXBND=10
      NLAYER=1
      MPLEVL(1)=2
      NFRAG=8
      ICHARG(1)=-1, -1, -1, -1, -1, -1, -1, 0
      FRGNAM(1)=F1, F2, F3, F4, F5, F6, F7, F8
      indat(1)=0
               1   -36   0
               37   -67   0
               68   -97   0
               98   -128   0
               129   -161   0
               162   -192   0
               193   -226   0
               227   -254   0
 $END

 $FMOBND
   -37   36       6-31G*    MINI
   -68   67       6-31G*    MINI
   -98   97       6-31G*    MINI
   -129   128       6-31G*    MINI
   -162   161       6-31G*    MINI
   -193   192       6-31G*    MINI
   -227   226       6-31G*    MINI
 $END
 $FMOHYB
 6-31G*      15   5
   1 0  -0.065034   0.288264   0.000000   0.000000   0.604412
         0.290129   0.000000   0.000000   0.319045  -0.017106
        -0.017106   0.057934   0.000000   0.000000   0.000000
   0 1  -0.065040   0.288293   0.569832   0.000000  -0.201456
         0.290147   0.300783   0.000000  -0.106342   0.049598
        -0.017106  -0.008771   0.000000  -0.027223   0.000000
   0 1  -0.065039   0.288293  -0.284916  -0.493490  -0.201455
         0.290145  -0.150392  -0.260486  -0.106340  -0.000427
         0.032923  -0.008771   0.033353   0.013612   0.023576
   0 1  -0.065039   0.288293  -0.284916   0.493490  -0.201455
         0.290145  -0.150392   0.260486  -0.106340  -0.000427
         0.032923  -0.008771  -0.033353   0.013612  -0.023576
   0 1   1.010938  -0.011975   0.000000   0.000000   0.000000
        -0.054085   0.000000   0.000000  -0.000000  -0.003174
        -0.003174  -0.003174   0.000000   0.000000   0.000000
 MINI         5   5
   1 0  -0.104883   0.308874   0.000000   0.000000   0.521806
   0 1  -0.104883   0.308874   0.491961   0.000000  -0.173934
   0 1  -0.104883   0.308876  -0.245980  -0.426050  -0.173933
   0 1  -0.104883   0.308876  -0.245980   0.426050  -0.173933
   0 1   0.988209   0.063992   0.000000   0.000000   0.000000
 $END
 
 $DATA
 FMO calculation
 C1 
 H.1-1    1
      N31 6
   
 O.1-1    8
      N31 6
      d 1
      1 0.800 1.0
   
 C.1-1    6
      N31 6
      d 1
      1 0.800 1.0
   
 N.1-1    7
      N31 6
      d 1
      1 0.800 1.0
   
 P.1-1   15
      N31 6
      d 1
      1 0.550 1.0
   
 $END
 $FMOXYZ
    1    H    -5.738    -7.194    9.001
    2    O    -6.069    -6.327    9.298
    3    C    -5.950    -6.308    10.729
    4    H    -4.896    -6.520    11.015
    5    H    -6.588    -7.110    11.161
    6    C    -6.366    -4.966    11.340
    7    H    -6.324    -5.002    12.451
    8    O    -5.446    -3.919    10.900
    9    C    -6.180    -2.725    10.672
    10    H    -5.714    -1.930    11.302
    11    N    -6.119    -2.306    9.264
    12    C    -6.397    -1.055    8.777
    13    N    -7.355    2.225    9.306
    14    H    -7.520    2.247    10.288
    15    H    -7.523    3.053    8.763
    16    N    -6.795    0.005    9.503
    17    C    -6.962    1.094    8.758
    18    N    -6.731    1.123    7.408
    19    H    -6.879    1.993    6.921
    20    C    -6.309    0.052    6.631
    21    O    -6.118    0.170    5.415
    22    C    -6.157    -1.125    7.416
    23    N    -5.760    -2.405    7.050
    24    C    -5.746    -3.073    8.182
    25    H    -5.475    -4.125    8.300
    26    C    -7.593    -2.966    11.149
    27    H    -8.340    -2.376    10.583
    28    O    -7.678    -2.653    12.525
    29    H    -8.577    -2.865    12.801
    30    C    -7.755    -4.460    10.917
    31    H    -7.863    -4.679    9.830
    32    O    -8.778    -5.088    11.720
    33    P    -10.254    -5.195    11.179
    34    O    -10.212    -5.754    9.810
    35    O    -11.062    -5.941    12.169
    36    O    -10.766    -3.701    11.101
    37    C    -11.016    -2.943    12.311
    38    H    -10.137    -2.952    12.985
    39    H    -11.874    -3.371    12.872
    40    C    -11.370    -1.478    12.013
    41    H    -11.559    -0.919    12.956
    42    O    -10.261    -0.812    11.343
    43    C    -10.783    0.093    10.378
    44    H    -10.369    1.092    10.650
    45    N    -10.372    -0.236    8.981
    46    C    -9.977    -1.513    8.660
    47    H    -9.994    -2.236    9.476
    48    C    -9.567    -1.829    7.425
    49    H    -9.217    -2.824    7.167
    50    C    -10.420    0.739    7.986
    51    O    -10.821    1.878    8.270
    52    N    -10.010    0.435    6.732
    53    C    -9.578    -0.801    6.441
    54    N    -9.153    -1.056    5.207
    55    H    -9.147    -0.317    4.529
    56    H    -8.780    -1.945    4.938
    57    C    -12.290    0.123    10.554
    58    H    -12.816    0.289    9.595
    59    O    -12.662    1.122    11.490
    60    H    -13.615    1.023    11.649
    61    C    -12.569    -1.275    11.082
    62    H    -12.476    -2.030    10.269
    63    O    -13.796    -1.418    11.826
    64    P    -15.158    -1.654    11.076
    65    O    -14.984    -2.812    10.167
    66    O    -16.209    -1.737    12.111
    67    O    -15.390    -0.340    10.253
    68    C    -16.277    -0.336    9.106
    69    H    -17.319    -0.113    9.426
    70    H    -16.286    -1.321    8.582
    71    C    -15.859    0.714    8.065
    72    H    -16.137    1.735    8.402
    73    O    -14.411    0.705    7.896
    74    C    -14.078    0.799    6.537
    75    H    -13.339    1.630    6.467
    76    N    -13.462    -0.462    6.026
    77    C    -13.409    -1.603    6.807
    78    H    -13.905    -1.540    7.780
    79    C    -12.838    -0.420    4.798
    80    O    -12.784    0.598    4.115
    81    N    -12.262    -1.603    4.403
    82    H    -11.806    -1.590    3.496
    83    C    -12.152    -2.769    5.132
    84    O    -11.540    -3.730    4.673
    85    C    -12.788    -2.724    6.413
    86    H    -12.749    -3.610    7.044
    87    C    -15.358    1.186    5.823
    88    H    -15.376    0.844    4.774
    89    O    -15.540    2.590    5.888
    90    H    -14.808    3.011    5.434
    91    C    -16.409    0.477    6.654
    92    H    -16.383    -0.621    6.477
    93    O    -17.728    1.041    6.528
    94    P    -18.838    0.382    5.642
    95    O    -19.274    -0.840    6.352
    96    O    -19.888    1.387    5.358
    97    O    -18.147    -0.065    4.296
    98    C    -17.757    0.885    3.275
    99    H    -17.152    1.717    3.704
    100    H    -18.654    1.342    2.801
    101    C    -16.924    0.214    2.158
    102    H    -16.670    0.948    1.365
    103    O    -15.668    -0.277    2.716
    104    C    -15.354    -1.553    2.174
    105    H    -14.331    -1.449    1.737
    106    N    -15.330    -2.638    3.195
    107    C    -15.953    -2.461    4.405
    108    H    -16.434    -1.496    4.550
    109    C    -15.930    -3.408    5.350
    110    H    -16.398    -3.271    6.324
    111    C    -14.695    -3.846    2.916
    112    O    -14.164    -4.005    1.806
    113    N    -14.674    -4.824    3.851
    114    C    -15.250    -4.622    5.050
    115    N    -15.177    -5.575    5.974
    116    H    -14.726    -6.437    5.736
    117    H    -15.614    -5.491    6.870
    118    C    -16.336    -1.832    1.064
    119    H    -16.582    -2.913    0.985
    120    O    -15.812    -1.377    -0.170
    121    H    -16.554    -1.344    -0.780
    122    C    -17.563    -1.025    1.499
    123    H    -18.109    -1.567    2.304
    124    O    -18.439    -0.626    0.417
    125    P    -19.390    -1.717    -0.212
    126    O    -18.778    -3.053    -0.071
    127    O    -20.741    -1.563    0.369
    128    O    -19.469    -1.366    -1.738
    129    C    -18.360    -0.955    -2.565
    130    H    -18.089    -1.783    -3.258
    131    H    -17.451    -0.731    -1.968
    132    C    -18.653    0.302    -3.414
    133    H    -18.949    0.012    -4.445
    134    O    -19.767    1.076    -2.869
    135    C    -19.487    2.456    -2.989
    136    H    -20.339    2.900    -3.550
    137    N    -19.389    3.085    -1.669
    138    C    -19.364    4.572    -0.052
    139    N    -19.212    3.335    0.561
    140    C    -19.233    2.487    -0.439
    141    H    -19.154    1.404    -0.351
    142    N    -19.597    6.899    -0.435
    143    C    -19.669    6.596    -1.736
    144    H    -19.797    7.446    -2.417
    145    N    -19.641    5.400    -2.332
    146    C    -19.471    4.427    -1.424
    147    C    -19.448    5.886    0.458
    148    N    -19.434    6.169    1.772
    149    H    -19.341    5.455    2.471
    150    H    -19.486    7.120    2.075
    151    C    -18.216    2.613    -3.802
    152    H    -17.606    3.486    -3.475
    153    O    -18.512    2.731    -5.186
    154    H    -17.639    2.753    -5.626
    155    C    -17.484    1.309    -3.489
    156    H    -17.027    1.364    -2.475
    157    O    -16.522    0.869    -4.468
    158    P    -15.344    1.788    -4.965
    159    O    -14.306    0.905    -5.547
    160    O    -15.922    2.822    -5.853
    161    O    -14.775    2.450    -3.659
    162    C    -13.649    3.370    -3.728
    163    H    -13.179    3.431    -4.739
    164    H    -12.859    2.978    -3.049
    165    C    -13.991    4.806    -3.260
    166    H    -14.382    5.414    -4.103
    167    O    -15.054    4.757    -2.260
    168    C    -14.780    5.670    -1.222
    169    H    -15.688    6.312    -1.152
    170    N    -14.538    4.989    0.072
    171    C    -13.870    3.785    0.103
    172    H    -13.578    3.367    -0.864
    173    C    -13.646    3.146    1.256
    174    H    -13.141    2.183    1.309
    175    C    -14.935    5.599    1.260
    176    O    -15.497    6.704    1.212
    177    N    -14.707    4.974    2.438
    178    C    -14.094    3.778    2.445
    179    N    -13.890    3.204    3.616
    180    H    -13.543    2.265    3.700
    181    H    -14.056    3.802    4.396
    182    C    -13.606    6.523    -1.648
    183    H    -12.995    6.830    -0.787
    184    O    -14.051    7.681    -2.328
    185    H    -13.263    8.105    -2.702
    186    C    -12.836    5.573    -2.563
    187    H    -12.279    4.825    -1.953
    188    O    -11.982    6.223    -3.537
    189    P    -10.524    6.673    -3.133
    190    O    -9.843    5.518    -2.500
    191    O    -9.876    7.245    -4.332
    192    O    -10.707    7.855    -2.098
    193    C    -9.694    8.082    -1.073
    194    H    -9.134    9.018    -1.294
    195    H    -8.928    7.268    -1.018
    196    C    -10.314    8.216    0.325
    197    H    -10.928    9.140    0.404
    198    O    -11.199    7.096    0.565
    199    C    -11.090    6.657    1.895
    200    H    -12.119    6.658    2.325
    201    N    -10.542    5.299    1.935
    202    C    -10.534    4.466    3.018
    203    N    -11.321    3.844    6.332
    204    H    -11.742    4.700    6.628
    205    H    -11.159    3.123    7.013
    206    N    -11.014    4.757    4.238
    207    C    -10.891    3.742    5.088
    208    N    -10.338    2.538    4.740
    209    H    -10.270    1.823    5.447
    210    C    -9.835    2.207    3.488
    211    O    -9.351    1.094    3.254
    212    C    -9.949    3.295    2.581
    213    N    -9.580    3.394    1.244
    214    C    -9.955    4.603    0.896
    215    H    -9.841    5.044    -0.100
    216    C    -10.224    7.658    2.624
    217    H    -9.637    7.197    3.442
    218    O    -11.029    8.696    3.145
    219    H    -10.433    9.382    3.469
    220    C    -9.328    8.159    1.498
    221    H    -8.582    7.371    1.230
    222    O    -8.744    9.465    1.726
    223    P    -7.242    9.543    2.191
    224    O    -6.461    8.528    1.453
    225    O    -6.765    10.939    2.085
    226    O    -7.317    9.123    3.706
    227    C    -8.035    9.937    4.661
    228    H    -9.086    10.113    4.340
    229    H    -7.547    10.936    4.767
    230    C    -8.072    9.273    6.044
    231    H    -8.536    9.950    6.796
    232    O    -8.884    8.064    5.989
    233    C    -8.278    7.059    6.798
    234    H    -9.065    6.748    7.523
    235    N    -7.847    5.871    6.012
    236    C    -7.618    5.979    4.661
    237    H    -7.807    6.957    4.222
    238    C    -7.228    4.928    3.929
    239    H    -7.072    4.994    2.854
    240    C    -7.607    4.661    6.654
    241    O    -7.745    4.591    7.884
    242    N    -7.227    3.582    5.930
    243    C    -7.023    3.693    4.605
    244    N    -6.637    2.621    3.918
    245    H    -6.507    1.748    4.392
    246    H    -6.501    2.648    2.929
    247    C    -7.127    7.703    7.558
    248    H    -6.289    6.992    7.736
    249    O    -7.593    8.215    8.798
    250    H    -6.913    8.803    9.168
    251    C    -6.716    8.807    6.591
    252    H    -6.123    8.382    5.751
    253    O    -6.020    9.902    7.208
    254    H    -5.153    9.599    7.520
 $END
