!*** FMO 5.3 (Gamess) INPUT generated by Facio 22.1.1.32 ***
 $CONTRL RUNTYP=ENERGY NPRINT=-5 ISPHER=1 MAXIT=200 $END
 $SYSTEM MWORDS=63 MEMDDI=63 $END
 $GDDI NGROUP=1 $END
 $SCF DIRSCF=.TRUE. NPUNCH=0 $END
!*** NumCPU : 2  MemPerNode : 512MB
 $PCM SOLVNT=WATER IEF=-10 ICOMP=2 ICAV=1 IDISP=1 IFMO=-1 $END
 $PCMCAV RADII=SUAHF $END
 $TESCAV NTSALL=60 $END
 $FMOPRP
    NAODIR=200
    NGRFMO(1)=1, 1, 0, 0, 0,   0, 0, 0, 0, 0
    IPIEDA=1
    NPRINT=9
 $END
 $FMO
      SCFTYP(1)=RHF
      MODGRD=10
      MODMUL=0
      MAXCAO=5
      MAXBND=10
      NLAYER=1
      MPLEVL(1)=2
      NFRAG=8
      ICHARG(1)=-1, -1, -1, -1, -1, -1, -1, 0
      FRGNAM(1)=F1, F2, F3, F4, F5, F6, F7, F8
      indat(1)=0
               1   -36   0
               37   -67   0
               68   -97   0
               98   -128   0
               129   -161   0
               162   -192   0
               193   -226   0
               227   -254   0
 $END

 $FMOBND
   -37   36       6-31G*    MINI
   -68   67       6-31G*    MINI
   -98   97       6-31G*    MINI
   -129   128       6-31G*    MINI
   -162   161       6-31G*    MINI
   -193   192       6-31G*    MINI
   -227   226       6-31G*    MINI
 $END
 $FMOHYB
 6-31G*      15   5
   1 0  -0.065034   0.288264   0.000000   0.000000   0.604412
         0.290129   0.000000   0.000000   0.319045  -0.017106
        -0.017106   0.057934   0.000000   0.000000   0.000000
   0 1  -0.065040   0.288293   0.569832   0.000000  -0.201456
         0.290147   0.300783   0.000000  -0.106342   0.049598
        -0.017106  -0.008771   0.000000  -0.027223   0.000000
   0 1  -0.065039   0.288293  -0.284916  -0.493490  -0.201455
         0.290145  -0.150392  -0.260486  -0.106340  -0.000427
         0.032923  -0.008771   0.033353   0.013612   0.023576
   0 1  -0.065039   0.288293  -0.284916   0.493490  -0.201455
         0.290145  -0.150392   0.260486  -0.106340  -0.000427
         0.032923  -0.008771  -0.033353   0.013612  -0.023576
   0 1   1.010938  -0.011975   0.000000   0.000000   0.000000
        -0.054085   0.000000   0.000000  -0.000000  -0.003174
        -0.003174  -0.003174   0.000000   0.000000   0.000000
 MINI         5   5
   1 0  -0.104883   0.308874   0.000000   0.000000   0.521806
   0 1  -0.104883   0.308874   0.491961   0.000000  -0.173934
   0 1  -0.104883   0.308876  -0.245980  -0.426050  -0.173933
   0 1  -0.104883   0.308876  -0.245980   0.426050  -0.173933
   0 1   0.988209   0.063992   0.000000   0.000000   0.000000
 $END
 
 $DATA
 FMO calculation
 C1 
 H.1-1    1
      N31 6
   
 O.1-1    8
      N31 6
      d 1
      1 0.800 1.0
   
 C.1-1    6
      N31 6
      d 1
      1 0.800 1.0
   
 N.1-1    7
      N31 6
      d 1
      1 0.800 1.0
   
 P.1-1   15
      N31 6
      d 1
      1 0.550 1.0
   
 $END
 $FMOXYZ
    1    H    -6.020    -7.666    6.779
    2    O    -6.140    -6.783    7.174
    3    C    -5.775    -6.889    8.558
    4    H    -4.717    -7.231    8.624
    5    H    -6.416    -7.652    9.055
    6    C    -5.911    -5.567    9.321
    7    H    -5.632    -5.701    10.389
    8    O    -5.018    -4.558    8.758
    9    C    -5.674    -3.300    8.767
    10    H    -5.003    -2.592    9.305
    11    N    -5.892    -2.789    7.403
    12    C    -6.147    -1.488    7.058
    13    N    -6.688    1.809    7.961
    14    H    -6.639    1.774    8.954
    15    H    -6.873    2.687    7.510
    16    N    -6.268    -0.453    7.910
    17    C    -6.499    0.696    7.281
    18    N    -6.551    0.807    5.917
    19    H    -6.731    1.716    5.522
    20    C    -6.407    -0.235    5.011
    21    O    -6.468    -0.041    3.793
    22    C    -6.215    -1.477    5.675
    23    N    -6.032    -2.755    5.158
    24    C    -5.851    -3.503    6.224
    25    H    -5.674    -4.581    6.226
    26    C    -6.957    -3.466    9.550
    27    H    -7.755    -2.781    9.203
    28    O    -6.701    -3.245    10.925
    29    H    -7.533    -3.386    11.396
    30    C    -7.302    -4.926    9.274
    31    H    -7.668    -5.048    8.229
    32    O    -8.160    -5.551    10.257
    33    P    -9.714    -5.580    10.005
    34    O    -9.964    -6.026    8.619
    35    O    -10.363    -6.365    11.082
    36    O    -10.139    -4.068    10.130
    37    C    -10.111    -3.401    11.416
    38    H    -9.127    -3.516    11.923
    39    H    -10.873    -3.834    12.094
    40    C    -10.410    -1.902    11.310
    41    H    -10.357    -1.416    12.309
    42    O    -9.422    -1.269    10.459
    43    C    -10.043    -0.242    9.706
    44    H    -9.495    0.691    9.981
    45    N    -9.933    -0.459    8.240
    46    C    -9.668    -1.714    7.740
    47    H    -9.581    -2.512    8.477
    48    C    -9.511    -1.924    6.428
    49    H    -9.264    -2.900    6.016
    50    C    -10.114    0.607    7.365
    51    O    -10.385    1.726    7.823
    52    N    -9.975    0.411    6.036
    53    C    -9.665    -0.806    5.561
    54    N    -9.495    -0.961    4.254
    55    H    -9.685    -0.186    3.645
    56    H    -9.271    -1.844    3.842
    57    C    -11.478    -0.127    10.181
    58    H    -12.170    0.160    9.367
    59    O    -11.568    0.813    11.236
    60    H    -12.463    0.747    11.604
    61    C    -11.755    -1.542    10.671
    62    H    -11.895    -2.232    9.807
    63    O    -12.806    -1.646    11.657
    64    P    -14.289    -1.841    11.166
    65    O    -14.322    -2.965    10.207
    66    O    -15.182    -1.919    12.344
    67    O    -14.621    -0.507    10.412
    68    C    -15.712    -0.442    9.457
    69    H    -16.661    -0.224    9.990
    70    H    -15.853    -1.410    8.921
    71    C    -15.474    0.631    8.373
    72    H    -15.707    1.643    8.757
    73    O    -14.064    0.628    7.990
    74    C    -13.931    0.671    6.592
    75    H    -13.182    1.471    6.388
    76    N    -13.430    -0.619    6.038
    77    C    -13.196    -1.722    6.837
    78    H    -13.445    -1.608    7.896
    79    C    -13.062    -0.621    4.713
    80    O    -13.113    0.387    4.018
    81    N    -12.571    -1.815    4.257
    82    H    -12.562    -1.925    3.253
    83    C    -12.340    -2.962    4.974
    84    O    -11.850    -3.948    4.426
    85    C    -12.657    -2.857    6.365
    86    H    -12.445    -3.706    7.007
    87    C    -15.286    1.080    6.052
    88    H    -15.475    0.716    5.017
    89    O    -15.401    2.492    6.124
    90    H    -14.617    2.892    5.730
    91    C    -16.218    0.399    7.046
    92    H    -16.211    -0.698    6.884
    93    O    -17.563    0.915    7.106
    94    P    -18.554    0.847    5.879
    95    O    -19.829    0.312    6.396
    96    O    -18.648    2.164    5.213
    97    O    -17.938    -0.192    4.869
    98    C    -17.973    -1.622    5.075
    99    H    -18.734    -1.928    5.832
    100    H    -16.978    -1.962    5.436
    101    C    -18.258    -2.376    3.770
    102    H    -18.110    -3.471    3.903
    103    O    -19.652    -2.190    3.416
    104    C    -19.768    -2.076    2.005
    105    H    -20.449    -2.911    1.708
    106    N    -20.368    -0.784    1.588
    107    C    -20.344    0.301    2.438
    108    H    -19.853    0.149    3.400
    109    C    -20.919    1.461    2.102
    110    H    -20.940    2.318    2.775
    111    C    -20.940    -0.663    0.324
    112    O    -20.929    -1.642    -0.440
    113    N    -21.506    0.510    -0.039
    114    C    -21.529    1.546    0.818
    115    N    -22.157    2.660    0.455
    116    H    -22.198    3.468    1.050
    117    H    -22.569    2.717    -0.453
    118    C    -18.400    -2.322    1.391
    119    H    -18.217    -1.696    0.492
    120    O    -18.247    -3.691    1.055
    121    H    -17.309    -3.839    0.856
    122    C    -17.471    -1.916    2.527
    123    H    -17.397    -0.805    2.580
    124    O    -16.182    -2.562    2.498
    125    P    -14.975    -1.888    1.747
    126    O    -14.922    -0.457    2.084
    127    O    -13.778    -2.718    2.000
    128    O    -15.286    -2.019    0.211
    129    C    -14.557    -1.175    -0.734
    130    H    -13.727    -1.752    -1.202
    131    H    -14.083    -0.290    -0.244
    132    C    -15.445    -0.613    -1.860
    133    H    -15.468    -1.302    -2.728
    134    O    -16.827    -0.496    -1.392
    135    C    -17.386    0.728    -1.809
    136    H    -18.346    0.463    -2.314
    137    N    -17.662    1.605    -0.670
    138    C    -18.471    3.226    0.568
    139    N    -17.704    2.439    1.412
    140    C    -17.241    1.492    0.637
    141    H    -16.586    0.680    0.961
    142    N    -19.919    4.902    -0.270
    143    C    -19.773    4.318    -1.466
    144    H    -20.322    4.788    -2.289
    145    N    -19.077    3.225    -1.794
    146    C    -18.452    2.722    -0.718
    147    C    -19.258    4.373    0.792
    148    N    -19.393    4.937    2.002
    149    H    -18.899    4.583    2.797
    150    H    -19.938    5.769    2.112
    151    C    -16.439    1.352    -2.807
    152    H    -16.451    2.463    -2.782
    153    O    -16.759    0.896    -4.109
    154    H    -15.995    1.079    -4.681
    155    C    -15.094    0.815    -2.340
    156    H    -14.769    1.389    -1.439
    157    O    -14.105    0.788    -3.397
    158    P    -12.697    1.458    -3.194
    159    O    -12.086    0.868    -1.988
    160    O    -11.929    1.390    -4.458
    161    O    -13.013    2.968    -2.914
    162    C    -13.575    3.846    -3.912
    163    H    -14.445    3.369    -4.422
    164    H    -12.817    4.094    -4.686
    165    C    -14.053    5.166    -3.292
    166    H    -14.458    5.840    -4.079
    167    O    -15.146    4.877    -2.367
    168    C    -15.061    5.743    -1.248
    169    H    -16.033    6.289    -1.217
    170    N    -14.867    4.999    0.027
    171    C    -14.076    3.877    0.030
    172    H    -13.632    3.604    -0.920
    173    C    -13.890    3.149    1.134
    174    H    -13.295    2.237    1.142
    175    C    -15.415    5.457    1.225
    176    O    -16.070    6.511    1.224
    177    N    -15.232    4.739    2.359
    178    C    -14.521    3.597    2.323
    179    N    -14.415    2.874    3.426
    180    H    -14.072    1.930    3.348
    181    H    -15.118    3.047    4.112
    182    C    -13.951    6.738    -1.522
    183    H    -13.438    7.007    -0.594
    184    O    -14.455    7.911    -2.133
    185    H    -13.697    8.417    -2.467
    186    C    -13.028    5.959    -2.451
    187    H    -12.449    5.206    -1.870
    188    O    -12.188    6.796    -3.284
    189    P    -10.632    6.913    -3.009
    190    O    -10.029    5.569    -3.119
    191    O    -10.069    7.956    -3.896
    192    O    -10.514    7.388    -1.518
    193    C    -10.940    8.696    -1.091
    194    H    -11.927    8.972    -1.530
    195    H    -10.197    9.461    -1.412
    196    C    -11.075    8.753    0.442
    197    H    -11.492    9.731    0.764
    198    O    -11.983    7.719    0.906
    199    C    -11.507    7.142    2.099
    200    H    -12.343    7.194    2.834
    201    N    -11.125    5.732    1.902
    202    C    -10.958    4.804    2.894
    203    N    -11.008    3.955    6.251
    204    H    -11.238    4.816    6.698
    205    H    -10.794    3.152    6.816
    206    N    -11.103    5.026    4.211
    207    C    -10.905    3.927    4.935
    208    N    -10.585    2.715    4.383
    209    H    -10.450    1.925    4.996
    210    C    -10.431    2.457    3.028
    211    O    -10.135    1.335    2.611
    212    C    -10.630    3.627    2.250
    213    N    -10.574    3.810    0.875
    214    C    -10.880    5.074    0.714
    215    H    -10.962    5.578    -0.247
    216    C    -10.356    7.999    2.564
    217    H    -9.610    7.423    3.143
    218    O    -10.844    9.066    3.351
    219    H    -10.087    9.622    3.566
    220    C    -9.790    8.500    1.237
    221    H    -9.263    7.673    0.707
    222    O    -9.015    9.722    1.326
    223    P    -7.451    9.593    1.436
    224    O    -6.995    8.541    0.502
    225    O    -6.845    10.935    1.287
    226    O    -7.235    9.081    2.905
    227    C    -7.588    9.905    4.037
    228    H    -8.642    10.263    3.977
    229    H    -6.930    10.808    4.066
    230    C    -7.413    9.128    5.350
    231    H    -7.645    9.772    6.228
    232    O    -8.329    7.992    5.395
    233    C    -7.664    6.883    5.998
    234    H    -8.304    6.584    6.863
    235    N    -7.519    5.720    5.077
    236    C    -7.571    5.904    3.715
    237    H    -7.740    6.923    3.377
    238    C    -7.451    4.880    2.862
    239    H    -7.532    5.005    1.784
    240    C    -7.266    4.450    5.589
    241    O    -7.159    4.300    6.817
    242    N    -7.139    3.403    4.744
    243    C    -7.227    3.588    3.415
    244    N    -7.110    2.537    2.610
    245    H    -6.972    1.624    3.002
    246    H    -7.205    2.617    1.620
    247    C    -6.324    7.377    6.521
    248    H    -5.539    6.592    6.468
    249    O    -6.458    7.839    7.856
    250    H    -5.648    8.321    8.096
    251    C    -6.024    8.506    5.543
    252    H    -5.682    8.084    4.571
    253    O    -5.088    9.483    6.032
    254    H    -4.196    9.089    6.092
 $END
