!*** FMO 5.3 (Gamess) INPUT generated by Facio 22.1.1.32 ***
 $CONTRL RUNTYP=ENERGY NPRINT=-5 ISPHER=1 MAXIT=200 $END
 $SYSTEM MWORDS=63 MEMDDI=63 $END
 $GDDI NGROUP=1 $END
 $SCF DIRSCF=.TRUE. NPUNCH=0 $END
!*** NumCPU : 2  MemPerNode : 512MB
 $PCM SOLVNT=WATER IEF=-10 ICOMP=2 ICAV=1 IDISP=1 IFMO=-1 $END
 $PCMCAV RADII=SUAHF $END
 $TESCAV NTSALL=60 $END
 $FMOPRP
    NAODIR=200
    NGRFMO(1)=1, 1, 0, 0, 0,   0, 0, 0, 0, 0
    IPIEDA=1
    NPRINT=9
 $END
 $FMO
      SCFTYP(1)=RHF
      MODGRD=10
      MODMUL=0
      MAXCAO=5
      MAXBND=10
      NLAYER=1
      MPLEVL(1)=2
      NFRAG=8
      ICHARG(1)=-1, -1, -1, -1, -1, -1, -1, 0
      FRGNAM(1)=F1, F2, F3, F4, F5, F6, F7, F8
      indat(1)=0
               1   -36   0
               37   -67   0
               68   -97   0
               98   -128   0
               129   -161   0
               162   -192   0
               193   -226   0
               227   -254   0
 $END

 $FMOBND
   -37   36       6-31G*    MINI
   -68   67       6-31G*    MINI
   -98   97       6-31G*    MINI
   -129   128       6-31G*    MINI
   -162   161       6-31G*    MINI
   -193   192       6-31G*    MINI
   -227   226       6-31G*    MINI
 $END
 $FMOHYB
 6-31G*      15   5
   1 0  -0.065034   0.288264   0.000000   0.000000   0.604412
         0.290129   0.000000   0.000000   0.319045  -0.017106
        -0.017106   0.057934   0.000000   0.000000   0.000000
   0 1  -0.065040   0.288293   0.569832   0.000000  -0.201456
         0.290147   0.300783   0.000000  -0.106342   0.049598
        -0.017106  -0.008771   0.000000  -0.027223   0.000000
   0 1  -0.065039   0.288293  -0.284916  -0.493490  -0.201455
         0.290145  -0.150392  -0.260486  -0.106340  -0.000427
         0.032923  -0.008771   0.033353   0.013612   0.023576
   0 1  -0.065039   0.288293  -0.284916   0.493490  -0.201455
         0.290145  -0.150392   0.260486  -0.106340  -0.000427
         0.032923  -0.008771  -0.033353   0.013612  -0.023576
   0 1   1.010938  -0.011975   0.000000   0.000000   0.000000
        -0.054085   0.000000   0.000000  -0.000000  -0.003174
        -0.003174  -0.003174   0.000000   0.000000   0.000000
 MINI         5   5
   1 0  -0.104883   0.308874   0.000000   0.000000   0.521806
   0 1  -0.104883   0.308874   0.491961   0.000000  -0.173934
   0 1  -0.104883   0.308876  -0.245980  -0.426050  -0.173933
   0 1  -0.104883   0.308876  -0.245980   0.426050  -0.173933
   0 1   0.988209   0.063992   0.000000   0.000000   0.000000
 $END
 
 $DATA
 FMO calculation
 C1 
 H.1-1    1
      N31 6
   
 O.1-1    8
      N31 6
      d 1
      1 0.800 1.0
   
 C.1-1    6
      N31 6
      d 1
      1 0.800 1.0
   
 N.1-1    7
      N31 6
      d 1
      1 0.800 1.0
   
 P.1-1   15
      N31 6
      d 1
      1 0.550 1.0
   
 $END
 $FMOXYZ
    1    H    -4.608    -5.544    9.754
    2    O    -5.016    -4.688    9.979
    3    C    -5.154    -4.660    11.408
    4    H    -4.147    -4.739    11.877
    5    H    -5.749    -5.542    11.736
    6    C    -5.839    -3.389    11.919
    7    H    -5.917    -3.403    13.026
    8    O    -5.070    -2.206    11.546
    9    C    -5.968    -1.164    11.190
    10    H    -5.716    -0.290    11.835
    11    N    -5.807    -0.768    9.786
    12    C    -6.237    0.402    9.221
    13    N    -7.838    3.456    9.495
    14    H    -8.130    3.471    10.450
    15    H    -8.054    4.241    8.907
    16    N    -6.904    1.385    9.854
    17    C    -7.170    2.411    9.051
    18    N    -6.764    2.467    7.743
    19    H    -7.005    3.286    7.206
    20    C    -6.057    1.480    7.069
    21    O    -5.730    1.617    5.885
    22    C    -5.814    0.356    7.905
    23    N    -5.167    -0.845    7.635
    24    C    -5.183    -1.480    8.786
    25    H    -4.748    -2.465    8.975
    26    C    -7.371    -1.635    11.509
    27    H    -8.127    -1.219    10.814
    28    O    -7.704    -1.283    12.841
    29    H    -8.558    -1.690    13.031
    30    C    -7.236    -3.143    11.333
    31    H    -7.170    -3.397    10.248
    32    O    -8.216    -3.938    12.043
    33    P    -9.532    -4.365    11.286
    34    O    -9.169    -4.921    9.969
    35    O    -10.344    -5.230    12.168
    36    O    -10.283    -3.002    11.066
    37    C    -10.898    -2.327    12.190
    38    H    -10.155    -2.118    12.992
    39    H    -11.699    -2.961    12.637
    40    C    -11.526    -0.990    11.773
    41    H    -11.969    -0.470    12.651
    42    O    -10.501    -0.116    11.224
    43    C    -11.057    0.659    10.168
    44    H    -10.927    1.721    10.478
    45    N    -10.366    0.453    8.867
    46    C    -9.624    -0.685    8.658
    47    H    -9.609    -1.401    9.481
    48    C    -8.954    -0.881    7.516
    49    H    -8.337    -1.760    7.346
    50    C    -10.485    1.397    7.849
    51    O    -11.179    2.407    8.034
    52    N    -9.827    1.207    6.682
    53    C    -9.067    0.114    6.504
    54    N    -8.414    -0.030    5.354
    55    H    -8.516    0.668    4.641
    56    H    -7.819    -0.812    5.175
    57    C    -12.538    0.345    10.100
    58    H    -12.930    0.374    9.062
    59    O    -13.257    1.254    10.913
    60    H    -14.135    0.874    11.068
    61    C    -12.589    -1.068    10.669
    62    H    -12.210    -1.803    9.920
    63    O    -13.869    -1.436    11.234
    64    P    -14.901    -2.215    10.329
    65    O    -14.328    -3.544    10.020
    66    O    -16.206    -2.208    11.031
    67    O    -15.000    -1.388    8.999
    68    C    -15.766    -0.172    8.879
    69    H    -15.347    0.633    9.522
    70    H    -16.825    -0.339    9.181
    71    C    -15.746    0.347    7.436
    72    H    -16.373    1.260    7.338
    73    O    -14.390    0.726    7.061
    74    C    -14.182    0.428    5.694
    75    H    -13.912    1.404    5.236
    76    N    -13.075    -0.546    5.503
    77    C    -12.787    -1.464    6.483
    78    H    -13.410    -1.404    7.373
    79    C    -12.313    -0.473    4.359
    80    O    -12.527    0.355    3.478
    81    N    -11.288    -1.384    4.283
    82    H    -10.730    -1.350    3.440
    83    C    -10.930    -2.315    5.237
    84    O    -9.948    -3.036    5.071
    85    C    -11.760    -2.317    6.402
    86    H    -11.516    -2.993    7.217
    87    C    -15.512    -0.047    5.126
    88    H    -15.403    -0.802    4.318
    89    O    -16.224    1.082    4.660
    90    H    -16.237    1.069    3.681
    91    C    -16.182    -0.644    6.357
    92    H    -15.713    -1.616    6.622
    93    O    -17.623    -0.698    6.296
    94    P    -18.349    -2.047    5.958
    95    O    -17.707    -3.134    6.732
    96    O    -19.803    -1.860    6.154
    97    O    -18.072    -2.317    4.431
    98    C    -18.514    -3.575    3.849
    99    H    -19.157    -4.187    4.544
    100    H    -17.618    -4.197    3.627
    101    C    -19.264    -3.360    2.520
    102    H    -19.599    -4.333    2.099
    103    O    -20.456    -2.547    2.743
    104    C    -20.665    -1.695    1.618
    105    H    -21.685    -1.948    1.241
    106    N    -20.630    -0.245    1.960
    107    C    -20.044    0.175    3.133
    108    H    -19.591    -0.604    3.750
    109    C    -20.044    1.466    3.491
    110    H    -19.604    1.807    4.427
    111    C    -21.206    0.693    1.100
    112    O    -21.747    0.307    0.052
    113    N    -21.202    2.001    1.442
    114    C    -20.668    2.397    2.609
    115    N    -20.738    3.685    2.937
    116    H    -20.328    4.051    3.777
    117    H    -21.140    4.332    2.291
    118    C    -19.644    -2.067    0.567
    119    H    -19.320    -1.193    -0.030
    120    O    -20.165    -3.069    -0.289
    121    H    -19.424    -3.440    -0.791
    122    C    -18.504    -2.598    1.418
    123    H    -17.983    -1.752    1.926
    124    O    -17.621    -3.481    0.692
    125    P    -16.141    -3.046    0.397
    126    O    -15.545    -2.533    1.643
    127    O    -15.438    -4.163    -0.271
    128    O    -16.249    -1.850    -0.617
    129    C    -16.869    -1.943    -1.914
    130    H    -17.824    -2.515    -1.870
    131    H    -16.191    -2.468    -2.624
    132    C    -17.173    -0.547    -2.492
    133    H    -17.596    -0.626    -3.516
    134    O    -18.187    0.106    -1.666
    135    C    -17.853    1.472    -1.487
    136    H    -18.747    2.063    -1.789
    137    N    -17.531    1.772    -0.084
    138    C    -17.268    2.754    1.869
    139    N    -16.787    1.460    2.012
    140    C    -16.983    0.921    0.844
    141    H    -16.759    -0.113    0.614
    142    N    -17.891    4.991    2.305
    143    C    -18.223    5.066    1.014
    144    H    -18.626    6.037    0.699
    145    N    -18.218    4.111    0.075
    146    C    -17.712    2.969    0.572
    147    C    -17.404    3.822    2.783
    148    N    -17.122    3.726    4.097
    149    H    -16.813    2.858    4.503
    150    H    -17.197    4.540    4.683
    151    C    -16.700    1.785    -2.419
    152    H    -16.015    2.549    -1.994
    153    O    -17.186    2.218    -3.676
    154    H    -16.410    2.343    -4.247
    155    C    -15.992    0.437    -2.528
    156    H    -15.392    0.244    -1.611
    157    O    -15.220    0.244    -3.740
    158    P    -13.790    0.906    -3.839
    159    O    -13.168    0.879    -2.497
    160    O    -13.045    0.242    -4.929
    161    O    -14.062    2.395    -4.273
    162    C    -13.038    3.416    -4.093
    163    H    -12.488    3.578    -5.047
    164    H    -12.282    3.130    -3.323
    165    C    -13.626    4.763    -3.628
    166    H    -14.074    5.313    -4.481
    167    O    -14.703    4.508    -2.681
    168    C    -14.635    5.422    -1.611
    169    H    -15.651    5.877    -1.543
    170    N    -14.300    4.758    -0.317
    171    C    -13.678    3.524    -0.294
    172    H    -13.459    3.070    -1.265
    173    C    -13.396    2.910    0.863
    174    H    -12.919    1.931    0.903
    175    C    -14.612    5.400    0.879
    176    O    -15.164    6.510    0.835
    177    N    -14.320    4.800    2.055
    178    C    -13.752    3.582    2.068
    179    N    -13.534    3.004    3.245
    180    H    -13.823    3.500    4.063
    181    H    -13.184    2.067    3.315
    182    C    -13.638    6.491    -2.002
    183    H    -13.151    6.930    -1.120
    184    O    -14.274    7.521    -2.736
    185    H    -13.574    8.098    -3.080
    186    C    -12.661    5.700    -2.867
    187    H    -12.019    5.053    -2.226
    188    O    -11.895    6.497    -3.800
    189    P    -10.519    7.129    -3.354
    190    O    -9.761    6.101    -2.610
    191    O    -9.863    7.700    -4.550
    192    O    -10.901    8.328    -2.400
    193    C    -10.023    8.737    -1.314
    194    H    -9.633    9.759    -1.515
    195    H    -9.133    8.070    -1.200
    196    C    -10.748    8.757    0.042
    197    H    -11.505    9.570    0.077
    198    O    -11.441    7.502    0.236
    199    C    -11.387    7.112    1.587
    200    H    -12.439    6.966    1.926
    201    N    -10.655    5.850    1.728
    202    C    -10.580    5.079    2.855
    203    N    -11.493    4.453    6.134
    204    H    -12.028    5.260    6.375
    205    H    -11.364    3.729    6.819
    206    N    -11.152    5.351    4.039
    207    C    -10.974    4.375    4.923
    208    N    -10.246    3.245    4.657
    209    H    -10.145    2.559    5.389
    210    C    -9.618    2.949    3.454
    211    O    -8.971    1.908    3.296
    212    C    -9.823    3.979    2.499
    213    N    -9.412    4.066    1.177
    214    C    -9.932    5.193    0.752
    215    H    -9.831    5.601    -0.259
    216    C    -10.751    8.246    2.351
    217    H    -10.172    7.895    3.228
    218    O    -11.752    9.147    2.782
    219    H    -11.300    9.881    3.215
    220    C    -9.850    8.861    1.282
    221    H    -8.976    8.196    1.088
    222    O    -9.485    10.239    1.509
    223    P    -8.096    10.573    2.172
    224    O    -7.060    9.706    1.571
    225    O    -7.874    12.034    2.106
    226    O    -8.294    10.146    3.675
    227    C    -9.223    10.860    4.523
    228    H    -10.241    10.867    4.086
    229    H    -8.900    11.919    4.652
    230    C    -9.334    10.218    5.911
    231    H    -10.007    10.800    6.577
    232    O    -9.901    8.882    5.790
    233    C    -9.248    8.013    6.709
    234    H    -10.059    7.578    7.339
    235    N    -8.509    6.910    6.032
    236    C    -8.141    7.031    4.712
    237    H    -8.446    7.949    4.214
    238    C    -7.483    6.056    4.073
    239    H    -7.214    6.129    3.021
    240    C    -8.141    5.773    6.744
    241    O    -8.429    5.694    7.947
    242    N    -7.478    4.774    6.118
    243    C    -7.152    4.888    4.818
    244    N    -6.532    3.875    4.218
    245    H    -6.281    3.064    4.751
    246    H    -6.254    3.919    3.257
    247    C    -8.343    8.867    7.586
    248    H    -7.430    8.319    7.896
    249    O    -9.052    9.313    8.731
    250    H    -8.508    9.969    9.201
    251    C    -7.998    10.008    6.634
    252    H    -7.245    9.674    5.888
    253    O    -7.578    11.223    7.281
    254    H    -6.731    11.081    7.743
 $END
