!*** FMO 5.3 (Gamess) INPUT generated by Facio 22.1.1.32 ***
 $CONTRL RUNTYP=ENERGY NPRINT=-5 ISPHER=1 MAXIT=200 $END
 $SYSTEM MWORDS=63 MEMDDI=63 $END
 $GDDI NGROUP=1 $END
 $SCF DIRSCF=.TRUE. NPUNCH=0 $END
!*** NumCPU : 2  MemPerNode : 512MB
 $PCM SOLVNT=WATER IEF=-10 ICOMP=2 ICAV=1 IDISP=1 IFMO=-1 $END
 $PCMCAV RADII=SUAHF $END
 $TESCAV NTSALL=60 $END
 $FMOPRP
    NAODIR=200
    NGRFMO(1)=1, 1, 0, 0, 0,   0, 0, 0, 0, 0
    IPIEDA=1
    NPRINT=9
 $END
 $FMO
      SCFTYP(1)=RHF
      MODGRD=10
      MODMUL=0
      MAXCAO=5
      MAXBND=10
      NLAYER=1
      MPLEVL(1)=2
      NFRAG=8
      ICHARG(1)=-1, -1, -1, -1, -1, -1, -1, 0
      FRGNAM(1)=F1, F2, F3, F4, F5, F6, F7, F8
      indat(1)=0
               1   -36   0
               37   -67   0
               68   -97   0
               98   -128   0
               129   -161   0
               162   -192   0
               193   -226   0
               227   -254   0
 $END

 $FMOBND
   -37   36       6-31G*    MINI
   -68   67       6-31G*    MINI
   -98   97       6-31G*    MINI
   -129   128       6-31G*    MINI
   -162   161       6-31G*    MINI
   -193   192       6-31G*    MINI
   -227   226       6-31G*    MINI
 $END
 $FMOHYB
 6-31G*      15   5
   1 0  -0.065034   0.288264   0.000000   0.000000   0.604412
         0.290129   0.000000   0.000000   0.319045  -0.017106
        -0.017106   0.057934   0.000000   0.000000   0.000000
   0 1  -0.065040   0.288293   0.569832   0.000000  -0.201456
         0.290147   0.300783   0.000000  -0.106342   0.049598
        -0.017106  -0.008771   0.000000  -0.027223   0.000000
   0 1  -0.065039   0.288293  -0.284916  -0.493490  -0.201455
         0.290145  -0.150392  -0.260486  -0.106340  -0.000427
         0.032923  -0.008771   0.033353   0.013612   0.023576
   0 1  -0.065039   0.288293  -0.284916   0.493490  -0.201455
         0.290145  -0.150392   0.260486  -0.106340  -0.000427
         0.032923  -0.008771  -0.033353   0.013612  -0.023576
   0 1   1.010938  -0.011975   0.000000   0.000000   0.000000
        -0.054085   0.000000   0.000000  -0.000000  -0.003174
        -0.003174  -0.003174   0.000000   0.000000   0.000000
 MINI         5   5
   1 0  -0.104883   0.308874   0.000000   0.000000   0.521806
   0 1  -0.104883   0.308874   0.491961   0.000000  -0.173934
   0 1  -0.104883   0.308876  -0.245980  -0.426050  -0.173933
   0 1  -0.104883   0.308876  -0.245980   0.426050  -0.173933
   0 1   0.988209   0.063992   0.000000   0.000000   0.000000
 $END
 
 $DATA
 FMO calculation
 C1 
 H.1-1    1
      N31 6
   
 O.1-1    8
      N31 6
      d 1
      1 0.800 1.0
   
 C.1-1    6
      N31 6
      d 1
      1 0.800 1.0
   
 N.1-1    7
      N31 6
      d 1
      1 0.800 1.0
   
 P.1-1   15
      N31 6
      d 1
      1 0.550 1.0
   
 $END
 $FMOXYZ
    1    H    -6.066    -7.484    8.436
    2    O    -6.251    -6.534    8.556
    3    C    -5.948    -6.234    9.927
    4    H    -4.885    -6.495    10.129
    5    H    -6.585    -6.865    10.588
    6    C    -6.176    -4.763    10.284
    7    H    -5.976    -4.586    11.363
    8    O    -5.265    -3.913    9.532
    9    C    -5.906    -2.676    9.267
    10    H    -5.285    -1.884    9.743
    11    N    -6.001    -2.423    7.824
    12    C    -6.031    -1.190    7.237
    13    N    -6.018    2.251    7.514
    14    H    -5.937    2.394    8.497
    15    H    -6.070    3.045    6.901
    16    N    -5.985    -0.015    7.882
    17    C    -6.055    1.019    7.050
    18    N    -6.117    0.886    5.686
    19    H    -6.189    1.722    5.126
    20    C    -6.127    -0.313    4.984
    21    O    -6.168    -0.333    3.748
    22    C    -6.108    -1.428    5.876
    23    N    -6.158    -2.795    5.619
    24    C    -6.094    -3.348    6.810
    25    H    -6.092    -4.423    7.014
    26    C    -7.273    -2.710    9.920
    27    H    -8.036    -2.165    9.330
    28    O    -7.211    -2.165    11.223
    29    H    -8.074    -2.322    11.629
    30    C    -7.563    -4.205    9.953
    31    H    -7.814    -4.574    8.932
    32    O    -8.512    -4.619    10.963
    33    P    -10.024    -4.775    10.555
    34    O    -10.079    -5.428    9.229
    35    O    -10.749    -5.439    11.663
    36    O    -10.503    -3.286    10.412
    37    C    -10.716    -2.456    11.574
    38    H    -9.760    -2.251    12.109
    39    H    -11.401    -2.951    12.296
    40    C    -11.361    -1.123    11.188
    41    H    -11.704    -0.569    12.089
    42    O    -10.355    -0.290    10.544
    43    C    -10.969    0.446    9.497
    44    H    -10.767    1.520    9.724
    45    N    -10.421    0.093    8.168
    46    C    -9.962    -1.180    7.918
    47    H    -9.992    -1.864    8.763
    48    C    -9.468    -1.525    6.723
    49    H    -9.079    -2.519    6.512
    50    C    -10.461    1.021    7.142
    51    O    -10.941    2.145    7.362
    52    N    -9.959    0.697    5.939
    53    C    -9.479    -0.533    5.703
    54    N    -9.046    -0.812    4.480
    55    H    -9.112    -0.079    3.799
    56    H    -8.713    -1.714    4.207
    57    C    -12.462    0.206    9.569
    58    H    -12.928    0.212    8.564
    59    O    -13.088    1.165    10.402
    60    H    -13.999    0.866    10.527
    61    C    -12.519    -1.185    10.176
    62    H    -12.241    -1.933    9.396
    63    O    -13.762    -1.491    10.850
    64    P    -14.784    -2.478    10.164
    65    O    -15.869    -2.776    11.125
    66    O    -14.054    -3.630    9.592
    67    O    -15.352    -1.634    8.982
    68    C    -16.124    -0.432    9.126
    69    H    -15.690    0.242    9.899
    70    H    -17.159    -0.696    9.435
    71    C    -16.215    0.351    7.805
    72    H    -16.839    1.260    7.930
    73    O    -14.886    0.794    7.398
    74    C    -14.773    0.740    5.988
    75    H    -14.466    1.764    5.676
    76    N    -13.768    -0.268    5.559
    77    C    -13.614    -1.442    6.247
    78    H    -14.214    -1.529    7.141
    79    C    -13.016    -0.018    4.440
    80    O    -13.108    1.036    3.810
    81    N    -12.156    -1.021    4.062
    82    H    -11.620    -0.855    3.230
    83    C    -11.964    -2.228    4.716
    84    O    -11.124    -3.035    4.320
    85    C    -12.762    -2.405    5.887
    86    H    -12.647    -3.312    6.476
    87    C    -16.169    0.446    5.452
    88    H    -16.147    -0.122    4.495
    89    O    -16.877    1.673    5.291
    90    H    -16.746    1.953    4.364
    91    C    -16.737    -0.409    6.579
    92    H    -16.234    -1.403    6.592
    93    O    -18.179    -0.509    6.600
    94    P    -18.856    -1.897    6.284
    95    O    -18.472    -2.881    7.308
    96    O    -20.309    -1.672    6.089
    97    O    -18.222    -2.322    4.904
    98    C    -18.436    -3.645    4.364
    99    H    -19.339    -4.148    4.791
    100    H    -17.554    -4.278    4.609
    101    C    -18.584    -3.626    2.833
    102    H    -18.483    -4.656    2.421
    103    O    -19.925    -3.155    2.505
    104    C    -19.872    -2.273    1.391
    105    H    -20.566    -2.704    0.635
    106    N    -20.306    -0.887    1.712
    107    C    -20.090    -0.411    2.981
    108    H    -19.637    -1.114    3.672
    109    C    -20.443    0.825    3.338
    110    H    -20.320    1.188    4.357
    111    C    -20.838    -0.037    0.744
    112    O    -20.958    -0.448    -0.429
    113    N    -21.228    1.212    1.090
    114    C    -21.034    1.655    2.349
    115    N    -21.422    2.885    2.668
    116    H    -21.901    3.432    1.980
    117    H    -21.380    3.226    3.610
    118    C    -18.470    -2.313    0.845
    119    H    -18.151    -1.324    0.500
    120    O    -18.370    -3.262    -0.202
    121    H    -18.434    -4.152    0.174
    122    C    -17.639    -2.682    2.066
    123    H    -17.488    -1.773    2.695
    124    O    -16.398    -3.348    1.755
    125    P    -15.074    -2.508    1.572
    126    O    -14.044    -3.401    0.990
    127    O    -14.777    -1.883    2.870
    128    O    -15.397    -1.366    0.533
    129    C    -15.559    -1.666    -0.874
    130    H    -16.216    -2.550    -1.040
    131    H    -14.577    -1.921    -1.328
    132    C    -16.147    -0.478    -1.659
    133    H    -16.446    -0.783    -2.684
    134    O    -17.327    0.065    -0.998
    135    C    -17.314    1.467    -1.030
    136    H    -18.282    1.787    -1.487
    137    N    -17.204    2.045    0.322
    138    C    -17.335    3.403    2.055
    139    N    -16.784    2.227    2.525
    140    C    -16.726    1.453    1.469
    141    H    -16.354    0.430    1.482
    142    N    -18.235    5.584    1.939
    143    C    -18.405    5.354    0.634
    144    H    -18.848    6.184    0.076
    145    N    -18.127    4.260    -0.084
    146    C    -17.597    3.309    0.697
    147    C    -17.679    4.610    2.701
    148    N    -17.503    4.835    4.022
    149    H    -17.115    4.148    4.634
    150    H    -17.668    5.751    4.391
    151    C    -16.180    1.860    -1.934
    152    H    -15.715    2.803    -1.611
    153    O    -16.647    1.948    -3.268
    154    H    -15.867    2.007    -3.834
    155    C    -15.196    0.711    -1.766
    156    H    -14.671    0.787    -0.785
    157    O    -14.294    0.523    -2.879
    158    P    -12.874    1.211    -2.867
    159    O    -12.221    0.968    -4.171
    160    O    -12.142    0.773    -1.661
    161    O    -13.178    2.747    -2.747
    162    C    -13.712    3.518    -3.846
    163    H    -14.595    3.020    -4.307
    164    H    -12.943    3.628    -4.645
    165    C    -14.133    4.928    -3.402
    166    H    -14.591    5.490    -4.244
    167    O    -15.130    4.846    -2.345
    168    C    -14.899    5.842    -1.373
    169    H    -15.850    6.425    -1.320
    170    N    -14.588    5.286    -0.013
    171    C    -13.983    4.059    0.118
    172    H    -13.732    3.564    -0.811
    173    C    -13.755    3.506    1.315
    174    H    -13.313    2.518    1.432
    175    C    -14.886    6.018    1.131
    176    O    -15.412    7.138    1.000
    177    N    -14.650    5.487    2.358
    178    C    -14.143    4.243    2.467
    179    N    -14.016    3.706    3.680
    180    H    -13.717    2.752    3.789
    181    H    -14.301    4.233    4.477
    182    C    -13.817    6.735    -1.923
    183    H    -13.227    7.150    -1.117
    184    O    -14.359    7.811    -2.665
    185    H    -13.621    8.246    -3.117
    186    C    -13.013    5.783    -2.804
    187    H    -12.384    5.105    -2.180
    188    O    -12.273    6.430    -3.858
    189    P    -10.718    6.644    -3.765
    190    O    -10.363    7.733    -4.702
    191    O    -10.046    5.340    -3.971
    192    O    -10.482    7.115    -2.283
    193    C    -10.894    8.436    -1.860
    194    H    -11.910    8.699    -2.229
    195    H    -10.198    9.199    -2.268
    196    C    -10.902    8.553    -0.321
    197    H    -11.377    9.506    -0.008
    198    O    -11.650    7.476    0.304
    199    C    -11.090    7.150    1.549
    200    H    -11.913    7.303    2.293
    201    N    -10.646    5.764    1.593
    202    C    -10.625    4.983    2.710
    203    N    -11.134    4.565    6.104
    204    H    -11.532    5.435    6.391
    205    H    -11.116    3.792    6.744
    206    N    -11.008    5.357    3.942
    207    C    -10.861    4.375    4.829
    208    N    -10.418    3.122    4.491
    209    H    -10.378    2.408    5.204
    210    C    -10.031    2.705    3.225
    211    O    -9.637    1.558    2.993
    212    C    -10.142    3.759    2.286
    213    N    -9.849    3.783    0.930
    214    C    -10.169    4.999    0.557
    215    H    -10.098    5.400    -0.456
    216    C    -9.969    8.125    1.790
    217    H    -9.127    7.683    2.365
    218    O    -10.485    9.262    2.460
    219    H    -9.837    9.974    2.365
    220    C    -9.547    8.461    0.361
    221    H    -9.026    7.595    -0.112
    222    O    -8.844    9.712    0.218
    223    P    -7.279    9.668    0.104
    224    O    -6.776    11.058    0.010
    225    O    -6.897    8.762    -0.999
    226    O    -6.827    9.028    1.468
    227    C    -7.032    9.790    2.688
    228    H    -8.111    9.987    2.862
    229    H    -6.516    10.780    2.637
    230    C    -6.500    9.035    3.909
    231    H    -6.656    9.614    4.845
    232    O    -7.206    7.777    4.049
    233    C    -6.331    6.797    4.568
    234    H    -6.668    6.667    5.622
    235    N    -6.440    5.510    3.848
    236    C    -6.565    5.494    2.478
    237    H    -6.622    6.475    1.994
    238    C    -6.653    4.336    1.808
    239    H    -6.777    4.296    0.726
    240    C    -6.350    4.315    4.547
    241    O    -6.190    4.349    5.780
    242    N    -6.429    3.142    3.894
    243    C    -6.580    3.122    2.556
    244    N    -6.647    1.941    1.948
    245    H    -6.622    1.118    2.519
    246    H    -6.837    1.851    0.970
    247    C    -4.904    7.349    4.589
    248    H    -4.203    6.669    4.059
    249    O    -4.467    7.539    5.923
    250    H    -3.622    8.022    5.916
    251    C    -5.025    8.661    3.803
    252    H    -4.814    8.466    2.735
    253    O    -4.190    9.740    4.265
    254    H    -3.247    9.517    4.141
 $END
