!*** FMO 5.3 (Gamess) INPUT generated by Facio 22.1.1.32 ***
 $CONTRL RUNTYP=ENERGY NPRINT=-5 ISPHER=1 MAXIT=200 $END
 $SYSTEM MWORDS=63 MEMDDI=63 $END
 $GDDI NGROUP=1 $END
 $SCF DIRSCF=.TRUE. NPUNCH=0 $END
!*** NumCPU : 2  MemPerNode : 512MB
 $PCM SOLVNT=WATER IEF=-10 ICOMP=2 ICAV=1 IDISP=1 IFMO=-1 $END
 $PCMCAV RADII=SUAHF $END
 $TESCAV NTSALL=60 $END
 $FMOPRP
    NAODIR=200
    NGRFMO(1)=1, 1, 0, 0, 0,   0, 0, 0, 0, 0
    IPIEDA=1
    NPRINT=9
 $END
 $FMO
      SCFTYP(1)=RHF
      MODGRD=10
      MODMUL=0
      MAXCAO=5
      MAXBND=10
      NLAYER=1
      MPLEVL(1)=2
      NFRAG=8
      ICHARG(1)=-1, -1, -1, -1, -1, -1, -1, 0
      FRGNAM(1)=F1, F2, F3, F4, F5, F6, F7, F8
      indat(1)=0
               1   -36   0
               37   -67   0
               68   -97   0
               98   -127   0
               128   -160   0
               161   -191   0
               192   -225   0
               226   -253   0
 $END

 $FMOBND
   -37   36       6-31G*    MINI
   -68   67       6-31G*    MINI
   -98   97       6-31G*    MINI
   -128   127       6-31G*    MINI
   -161   160       6-31G*    MINI
   -192   191       6-31G*    MINI
   -226   225       6-31G*    MINI
 $END
 $FMOHYB
 6-31G*      15   5
   1 0  -0.065034   0.288264   0.000000   0.000000   0.604412
         0.290129   0.000000   0.000000   0.319045  -0.017106
        -0.017106   0.057934   0.000000   0.000000   0.000000
   0 1  -0.065040   0.288293   0.569832   0.000000  -0.201456
         0.290147   0.300783   0.000000  -0.106342   0.049598
        -0.017106  -0.008771   0.000000  -0.027223   0.000000
   0 1  -0.065039   0.288293  -0.284916  -0.493490  -0.201455
         0.290145  -0.150392  -0.260486  -0.106340  -0.000427
         0.032923  -0.008771   0.033353   0.013612   0.023576
   0 1  -0.065039   0.288293  -0.284916   0.493490  -0.201455
         0.290145  -0.150392   0.260486  -0.106340  -0.000427
         0.032923  -0.008771  -0.033353   0.013612  -0.023576
   0 1   1.010938  -0.011975   0.000000   0.000000   0.000000
        -0.054085   0.000000   0.000000  -0.000000  -0.003174
        -0.003174  -0.003174   0.000000   0.000000   0.000000
 MINI         5   5
   1 0  -0.104883   0.308874   0.000000   0.000000   0.521806
   0 1  -0.104883   0.308874   0.491961   0.000000  -0.173934
   0 1  -0.104883   0.308876  -0.245980  -0.426050  -0.173933
   0 1  -0.104883   0.308876  -0.245980   0.426050  -0.173933
   0 1   0.988209   0.063992   0.000000   0.000000   0.000000
 $END
 
 $DATA
 FMO calculation
 C1 
 H.1-1    1
      N31 6
   
 O.1-1    8
      N31 6
      d 1
      1 0.800 1.0
   
 C.1-1    6
      N31 6
      d 1
      1 0.800 1.0
   
 N.1-1    7
      N31 6
      d 1
      1 0.800 1.0
   
 P.1-1   15
      N31 6
      d 1
      1 0.550 1.0
   
 $END
 $FMOXYZ
    1    H    3.836    -6.857    10.897
    2    O    3.272    -6.152    11.265
    3    C    3.997    -5.568    12.357
    4    H    4.990    -5.219    11.988
    5    H    4.173    -6.349    13.131
    6    C    3.269    -4.384    12.996
    7    H    3.844    -3.994    13.868
    8    O    3.137    -3.299    12.032
    9    C    1.879    -2.669    12.210
    10    H    2.082    -1.587    12.376
    11    N    1.025    -2.819    11.024
    12    C    -0.072    -2.058    10.721
    13    N    -2.263    0.502    11.516
    14    H    -1.909    0.837    12.388
    15    H    -3.077    0.934    11.120
    16    N    -0.566    -1.056    11.469
    17    C    -1.629    -0.484    10.908
    18    N    -2.122    -0.854    9.684
    19    H    -2.929    -0.365    9.330
    20    C    -1.619    -1.868    8.878
    21    O    -2.121    -2.133    7.779
    22    C    -0.517    -2.520    9.496
    23    N    0.271    -3.574    9.047
    24    C    1.175    -3.719    9.989
    25    H    1.979    -4.459    9.985
    26    C    1.250    -3.263    13.452
    27    H    0.144    -3.279    13.398
    28    O    1.655    -2.527    14.589
    29    H    1.264    -2.965    15.354
    30    C    1.836    -4.672    13.456
    31    H    1.355    -5.291    12.662
    32    O    1.870    -5.333    14.742
    33    P    0.635    -6.206    15.183
    34    O    0.287    -7.134    14.089
    35    O    0.941    -6.815    16.494
    36    O    -0.512    -5.144    15.353
    37    C    -0.533    -4.230    16.471
    38    H    0.409    -3.640    16.541
    39    H    -0.637    -4.791    17.428
    40    C    -1.713    -3.257    16.375
    41    H    -1.692    -2.532    17.219
    42    O    -1.646    -2.484    15.142
    43    C    -2.967    -2.271    14.657
    44    H    -3.093    -1.165    14.588
    45    N    -3.192    -2.866    13.301
    46    C    -2.391    -3.898    12.863
    47    H    -1.625    -4.233    13.561
    48    C    -2.531    -4.428    11.640
    49    H    -1.877    -5.213    11.263
    50    C    -4.231    -2.415    12.487
    51    O    -4.994    -1.526    12.901
    52    N    -4.386    -2.937    11.247
    53    C    -3.566    -3.908    10.813
    54    N    -3.736    -4.391    9.584
    55    H    -4.498    -4.055    9.024
    56    H    -3.155    -5.112    9.205
    57    C    -3.923    -2.809    15.710
    58    H    -4.843    -3.200    15.253
    59    O    -4.272    -1.799    16.642
    60    H    -4.750    -2.231    17.368
    61    C    -3.096    -3.911    16.352
    62    H    -3.025    -4.788    15.668
    63    O    -3.492    -4.261    17.698
    64    P    -4.476    -5.471    17.915
    65    O    -4.074    -6.599    17.044
    66    O    -4.539    -5.749    19.364
    67    O    -5.889    -4.929    17.470
    68    C    -6.873    -5.812    16.864
    69    H    -7.703    -6.008    17.582
    70    H    -6.448    -6.802    16.572
    71    C    -7.468    -5.197    15.589
    72    H    -8.092    -4.308    15.827
    73    O    -6.389    -4.753    14.728
    74    C    -6.640    -5.103    13.395
    75    H    -6.496    -4.164    12.811
    76    N    -5.685    -6.138    12.908
    77    C    -4.869    -6.829    13.782
    78    H    -4.994    -6.598    14.843
    79    C    -5.582    -6.335    11.550
    80    O    -6.264    -5.711    10.746
    81    N    -4.641    -7.253    11.162
    82    H    -4.567    -7.420    10.171
    83    C    -3.786    -7.967    11.975
    84    O    -2.982    -8.754    11.482
    85    C    -3.941    -7.702    13.372
    86    H    -3.305    -8.216    14.085
    87    C    -8.091    -5.530    13.337
    88    H    -8.305    -6.265    12.530
    89    O    -8.898    -4.371    13.193
    90    H    -8.450    -3.731    12.628
    91    C    -8.278    -6.163    14.714
    92    H    -7.765    -7.154    14.755
    93    O    -9.643    -6.247    15.192
    94    P    -10.630    -7.198    14.404
    95    O    -9.823    -8.169    13.637
    96    O    -11.600    -7.796    15.351
    97    O    -11.399    -6.261    13.393
    98    C    -12.774    -5.863    13.599
    99    H    -12.813    -4.969    14.262
    100    H    -13.368    -6.665    14.095
    101    C    -13.471    -5.487    12.272
    102    H    -13.102    -4.499    11.927
    103    O    -13.222    -6.463    11.222
    104    C    -14.368    -7.272    11.028
    105    H    -14.790    -6.939    10.050
    106    N    -14.005    -8.711    11.007
    107    C    -12.965    -9.173    11.784
    108    H    -12.453    -8.413    12.380
    109    C    -14.728    -9.567    10.208
    110    O    -15.673    -9.194    9.520
    111    N    -14.297    -10.871    10.219
    112    H    -14.817    -11.510    9.625
    113    C    -13.247    -11.399    10.945
    114    O    -12.961    -12.593    10.846
    115    C    -12.563    -10.451    11.772
    116    H    -11.710    -10.794    12.354
    117    C    -15.351    -6.931    12.133
    118    H    -15.164    -7.546    13.043
    119    O    -16.694    -7.066    11.718
    120    H    -16.849    -6.364    11.065
    121    C    -14.999    -5.469    12.411
    122    H    -15.260    -5.259    13.478
    123    O    -15.607    -4.530    11.490
    124    P    -16.081    -3.124    12.014
    125    O    -17.557    -3.151    12.122
    126    O    -15.346    -2.773    13.248
    127    O    -15.655    -2.122    10.881
    128    C    -16.527    -1.752    9.789
    129    H    -16.692    -0.651    9.813
    130    H    -17.538    -2.235    9.845
    131    C    -15.924    -2.108    8.424
    132    H    -16.474    -1.582    7.623
    133    O    -14.574    -1.619    8.288
    134    C    -13.752    -2.599    7.673
    135    H    -13.317    -2.128    6.762
    136    N    -12.668    -2.984    8.575
    137    C    -10.823    -3.817    9.407
    138    N    -11.407    -3.091    10.435
    139    C    -12.503    -2.624    9.891
    140    H    -13.241    -2.004    10.405
    141    N    -9.325    -5.161    8.158
    142    C    -10.147    -4.982    7.121
    143    H    -9.849    -5.482    6.196
    144    N    -11.318    -4.339    7.078
    145    C    -11.587    -3.756    8.258
    146    C    -9.634    -4.561    9.331
    147    N    -8.808    -4.690    10.367
    148    H    -9.204    -4.670    11.290
    149    H    -7.924    -5.150    10.242
    150    C    -14.615    -3.787    7.268
    151    H    -14.114    -4.757    7.477
    152    O    -14.952    -3.749    5.904
    153    H    -15.421    -2.921    5.702
    154    C    -15.829    -3.625    8.167
    155    H    -15.561    -4.083    9.140
    156    O    -17.059    -4.212    7.709
    157    P    -18.180    -3.579    6.817
    158    O    -18.889    -4.667    6.106
    159    O    -19.006    -2.708    7.677
    160    O    -17.431    -2.665    5.759
    161    C    -18.086    -2.018    4.657
    162    H    -18.381    -0.986    4.943
    163    H    -19.010    -2.562    4.356
    164    C    -17.157    -1.978    3.435
    165    H    -16.649    -2.957    3.301
    166    O    -17.952    -1.678    2.251
    167    C    -17.785    -0.305    1.863
    168    H    -17.202    -0.337    0.916
    169    N    -19.097    0.403    1.618
    170    C    -20.274    -0.322    1.687
    171    H    -20.186    -1.368    1.980
    172    C    -21.464    0.237    1.430
    173    H    -22.396    -0.324    1.498
    174    C    -19.160    1.736    1.179
    175    O    -18.117    2.368    0.971
    176    N    -20.356    2.329    0.970
    177    C    -21.486    1.611    1.065
    178    N    -22.642    2.207    0.790
    179    H    -22.637    3.183    0.568
    180    H    -23.521    1.731    0.860
    181    C    -16.927    0.351    2.945
    182    H    -17.568    0.765    3.754
    183    O    -16.053    1.349    2.444
    184    H    -15.421    0.905    1.859
    185    C    -16.125    -0.837    3.464
    186    H    -15.853    -0.657    4.531
    187    O    -14.973    -1.141    2.644
    188    P    -13.514    -1.145    3.235
    189    O    -13.414    -2.234    4.214
    190    O    -12.554    -1.183    2.111
    191    O    -13.360    0.239    3.976
    192    C    -12.032    0.782    4.216
    193    H    -11.916    1.728    3.636
    194    H    -11.203    0.097    3.903
    195    C    -11.833    1.119    5.697
    196    H    -12.692    1.714    6.073
    197    O    -11.771    -0.098    6.503
    198    C    -10.802    0.057    7.528
    199    H    -11.306    -0.195    8.488
    200    N    -9.656    -0.849    7.326
    201    C    -8.685    -1.156    8.245
    202    N    -7.319    -0.826    11.414
    203    H    -7.909    -0.136    11.833
    204    H    -6.486    -1.107    11.897
    205    N    -8.600    -0.675    9.497
    206    C    -7.563    -1.180    10.165
    207    N    -6.683    -2.078    9.620
    208    H    -5.918    -2.404    10.191
    209    C    -6.747    -2.594    8.333
    210    O    -5.909    -3.398    7.913
    211    C    -7.840    -2.046    7.609
    212    N    -8.254    -2.276    6.304
    213    C    -9.341    -1.550    6.181
    214    H    -9.972    -1.495    5.290
    215    C    -10.383    1.512    7.531
    216    H    -9.335    1.650    7.868
    217    O    -11.246    2.260    8.364
    218    H    -11.021    3.189    8.234
    219    C    -10.551    1.883    6.056
    220    H    -9.740    1.412    5.452
    221    O    -10.721    3.300    5.794
    222    P    -9.487    4.137    5.282
    223    O    -8.750    3.346    4.276
    224    O    -9.928    5.497    4.881
    225    O    -8.596    4.268    6.571
    226    C    -9.072    5.030    7.707
    227    H    -10.055    4.650    8.068
    228    H    -9.205    6.106    7.444
    229    C    -8.081    4.963    8.874
    230    H    -8.409    5.611    9.716
    231    O    -8.014    3.600    9.376
    232    C    -6.672    3.297    9.733
    233    H    -6.708    2.989    10.803
    234    N    -6.105    2.187    8.924
    235    C    -6.651    1.871    7.701
    236    H    -7.519    2.454    7.401
    237    C    -6.160    0.880    6.948
    238    H    -6.600    0.602    5.993
    239    C    -4.991    1.494    9.381
    240    O    -4.480    1.815    10.465
    241    N    -4.478    0.488    8.635
    242    C    -5.030    0.174    7.449
    243    N    -4.517    -0.833    6.749
    244    H    -3.737    -1.344    7.119
    245    H    -4.917    -1.138    5.881
    246    C    -5.859    4.577    9.613
    247    H    -4.810    4.382    9.294
    248    O    -5.873    5.273    10.851
    249    H    -5.509    6.168    10.719
    250    C    -6.627    5.318    8.526
    251    H    -6.388    4.895    7.526
    252    O    -6.436    6.743    8.539
    253    H    -5.519    6.956    8.296
 $END
