!*** FMO 5.3 (Gamess) INPUT generated by Facio 22.1.1.32 ***
 $CONTRL RUNTYP=ENERGY NPRINT=-5 ISPHER=1 MAXIT=200 $END
 $SYSTEM MWORDS=63 MEMDDI=63 $END
 $GDDI NGROUP=1 $END
 $SCF DIRSCF=.TRUE. NPUNCH=0 $END
!*** NumCPU : 2  MemPerNode : 512MB
 $PCM SOLVNT=WATER IEF=-10 ICOMP=2 ICAV=1 IDISP=1 IFMO=-1 $END
 $PCMCAV RADII=SUAHF $END
 $TESCAV NTSALL=60 $END
 $FMOPRP
    NAODIR=200
    NGRFMO(1)=1, 1, 0, 0, 0,   0, 0, 0, 0, 0
    IPIEDA=1
    NPRINT=9
 $END
 $FMO
      SCFTYP(1)=RHF
      MODGRD=10
      MODMUL=0
      MAXCAO=5
      MAXBND=10
      NLAYER=1
      MPLEVL(1)=2
      NFRAG=8
      ICHARG(1)=-1, -1, -1, -1, -1, -1, -1, 0
      FRGNAM(1)=F1, F2, F3, F4, F5, F6, F7, F8
      indat(1)=0
               1   -36   0
               37   -67   0
               68   -97   0
               98   -127   0
               128   -160   0
               161   -191   0
               192   -225   0
               226   -253   0
 $END

 $FMOBND
   -37   36       6-31G*    MINI
   -68   67       6-31G*    MINI
   -98   97       6-31G*    MINI
   -128   127       6-31G*    MINI
   -161   160       6-31G*    MINI
   -192   191       6-31G*    MINI
   -226   225       6-31G*    MINI
 $END
 $FMOHYB
 6-31G*      15   5
   1 0  -0.065034   0.288264   0.000000   0.000000   0.604412
         0.290129   0.000000   0.000000   0.319045  -0.017106
        -0.017106   0.057934   0.000000   0.000000   0.000000
   0 1  -0.065040   0.288293   0.569832   0.000000  -0.201456
         0.290147   0.300783   0.000000  -0.106342   0.049598
        -0.017106  -0.008771   0.000000  -0.027223   0.000000
   0 1  -0.065039   0.288293  -0.284916  -0.493490  -0.201455
         0.290145  -0.150392  -0.260486  -0.106340  -0.000427
         0.032923  -0.008771   0.033353   0.013612   0.023576
   0 1  -0.065039   0.288293  -0.284916   0.493490  -0.201455
         0.290145  -0.150392   0.260486  -0.106340  -0.000427
         0.032923  -0.008771  -0.033353   0.013612  -0.023576
   0 1   1.010938  -0.011975   0.000000   0.000000   0.000000
        -0.054085   0.000000   0.000000  -0.000000  -0.003174
        -0.003174  -0.003174   0.000000   0.000000   0.000000
 MINI         5   5
   1 0  -0.104883   0.308874   0.000000   0.000000   0.521806
   0 1  -0.104883   0.308874   0.491961   0.000000  -0.173934
   0 1  -0.104883   0.308876  -0.245980  -0.426050  -0.173933
   0 1  -0.104883   0.308876  -0.245980   0.426050  -0.173933
   0 1   0.988209   0.063992   0.000000   0.000000   0.000000
 $END
 
 $DATA
 FMO calculation
 C1 
 H.1-1    1
      N31 6
   
 O.1-1    8
      N31 6
      d 1
      1 0.800 1.0
   
 C.1-1    6
      N31 6
      d 1
      1 0.800 1.0
   
 N.1-1    7
      N31 6
      d 1
      1 0.800 1.0
   
 P.1-1   15
      N31 6
      d 1
      1 0.550 1.0
   
 $END
 $FMOXYZ
    1    H    1.584    -8.914    8.692
    2    O    1.287    -8.056    9.040
    3    C    2.185    -7.713    10.106
    4    H    3.224    -7.671    9.704
    5    H    2.147    -8.515    10.878
    6    C    1.851    -6.372    10.765
    7    H    2.566    -6.140    11.585
    8    O    1.941    -5.297    9.787
    9    C    0.915    -4.353    10.036
    10    H    1.415    -3.367    10.173
    11    N    -0.018    -4.264    8.907
    12    C    -0.886    -3.234    8.662
    13    N    -2.273    -0.191    9.557
    14    H    -1.819    0.014    10.422
    15    H    -2.964    0.445    9.205
    16    N    -1.041    -2.133    9.422
    17    C    -1.951    -1.301    8.922
    18    N    -2.607    -1.526    7.739
    19    H    -3.269    -0.835    7.426
    20    C    -2.442    -2.633    6.918
    21    O    -3.071    -2.752    5.860
    22    C    -1.520    -3.559    7.477
    23    N    -1.076    -4.786    6.998
    24    C    -0.177    -5.168    7.875
    25    H    0.414    -6.088    7.822
    26    C    0.225    -4.756    11.321
    27    H    -0.850    -4.485    11.330
    28    O    0.872    -4.157    12.426
    29    H    0.432    -4.500    13.213
    30    C    0.423    -6.268    11.313
    31    H    -0.248    -6.742    10.558
    32    O    0.355    -6.911    12.604
    33    P    -1.026    -7.444    13.136
    34    O    -1.649    -8.281    12.091
    35    O    -0.811    -8.072    14.457
    36    O    -1.875    -6.137    13.318
    37    C    -1.622    -5.272    14.452
    38    H    -0.562    -4.921    14.473
    39    H    -1.803    -5.818    15.408
    40    C    -2.557    -4.056    14.434
    41    H    -2.330    -3.372    15.280
    42    O    -2.372    -3.293    13.207
    43    C    -3.627    -2.767    12.785
    44    H    -3.489    -1.660    12.760
    45    N    -4.031    -3.229    11.429
    46    C    -3.499    -4.389    10.914
    47    H    -2.805    -4.922    11.563
    48    C    -3.807    -4.811    9.680
    49    H    -3.374    -5.709    9.246
    50    C    -4.949    -2.496    10.680
    51    O    -5.429    -1.452    11.151
    52    N    -5.285    -2.920    9.440
    53    C    -4.733    -4.033    8.929
    54    N    -5.068    -4.407    7.698
    55    H    -5.745    -3.867    7.191
    56    H    -4.656    -5.201    7.252
    57    C    -4.650    -3.113    13.847
    58    H    -5.655    -3.310    13.423
    59    O    -4.721    -2.073    14.805
    60    H    -5.188    -2.428    15.576
    61    C    -4.059    -4.380    14.450
    62    H    -4.204    -5.245    13.763
    63    O    -4.499    -4.649    15.796
    64    P    -5.652    -5.686    16.056
    65    O    -5.187    -6.999    15.570
    66    O    -6.038    -5.598    17.486
    67    O    -6.845    -5.189    15.160
    68    C    -7.657    -4.056    15.559
    69    H    -7.027    -3.146    15.692
    70    H    -8.187    -4.267    16.525
    71    C    -8.721    -3.716    14.500
    72    H    -9.337    -2.845    14.818
    73    O    -8.080    -3.349    13.240
    74    C    -8.862    -3.821    12.153
    75    H    -9.099    -2.913    11.554
    76    N    -8.119    -4.798    11.314
    77    C    -7.085    -5.532    11.847
    78    H    -6.878    -5.345    12.899
    79    C    -8.458    -4.917    9.983
    80    O    -9.344    -4.245    9.462
    81    N    -7.709    -5.823    9.276
    82    H    -7.976    -5.949    8.310
    83    C    -6.669    -6.599    9.745
    84    O    -6.058    -7.345    8.983
    85    C    -6.365    -6.406    11.129
    86    H    -5.535    -6.959    11.561
    87    C    -10.145    -4.390    12.739
    88    H    -10.551    -5.245    12.154
    89    O    -11.110    -3.353    12.826
    90    H    -11.673    -3.405    12.031
    91    C    -9.666    -4.853    14.110
    92    H    -9.024    -5.758    13.998
    93    O    -10.711    -5.005    15.096
    94    P    -11.066    -6.432    15.643
    95    O    -9.822    -7.151    16.005
    96    O    -12.077    -6.340    16.726
    97    O    -11.731    -7.158    14.415
    98    C    -11.753    -8.604    14.353
    99    H    -11.927    -9.062    15.357
    100    H    -10.768    -8.970    13.981
    101    C    -12.855    -9.123    13.417
    102    H    -12.788    -10.223    13.292
    103    O    -14.156    -8.850    14.014
    104    C    -15.062    -8.416    13.011
    105    H    -15.937    -9.104    13.072
    106    N    -15.513    -7.010    13.239
    107    C    -14.842    -6.178    14.111
    108    H    -13.982    -6.615    14.617
    109    C    -16.638    -6.569    12.575
    110    O    -17.266    -7.279    11.796
    111    N    -17.008    -5.278    12.854
    112    H    -17.862    -4.967    12.421
    113    C    -16.414    -4.410    13.748
    114    O    -16.887    -3.292    13.936
    115    C    -15.247    -4.932    14.388
    116    H    -14.728    -4.314    15.117
    117    C    -14.376    -8.608    11.666
    118    H    -14.673    -7.824    10.942
    119    O    -14.670    -9.889    11.135
    120    H    -14.109    -9.997    10.352
    121    C    -12.901    -8.466    12.030
    122    H    -12.654    -7.389    12.174
    123    O    -11.977    -9.135    11.137
    124    P    -11.462    -8.387    9.847
    125    O    -11.207    -6.971    10.177
    126    O    -10.349    -9.172    9.268
    127    O    -12.666    -8.486    8.838
    128    C    -12.759    -7.597    7.691
    129    H    -12.497    -8.153    6.762
    130    H    -12.058    -6.730    7.764
    131    C    -14.172    -7.002    7.525
    132    H    -14.865    -7.733    7.058
    133    O    -14.726    -6.699    8.837
    134    C    -15.447    -5.496    8.803
    135    H    -16.468    -5.726    9.189
    136    N    -14.812    -4.499    9.671
    137    C    -14.483    -2.768    10.983
    138    N    -13.278    -3.458    10.944
    139    C    -13.521    -4.481    10.159
    140    H    -12.798    -5.258    9.891
    141    N    -16.178    -1.205    11.510
    142    C    -16.990    -1.932    10.736
    143    H    -18.022    -1.569    10.647
    144    N    -16.716    -3.038    10.034
    145    C    -15.435    -3.405    10.208
    146    C    -14.890    -1.601    11.661
    147    N    -14.071    -0.868    12.440
    148    H    -13.132    -1.150    12.640
    149    H    -14.441    -0.079    12.932
    150    C    -15.534    -5.060    7.356
    151    H    -15.549    -3.958    7.251
    152    O    -16.691    -5.617    6.758
    153    H    -16.604    -5.525    5.797
    154    C    -14.261    -5.658    6.771
    155    H    -13.382    -5.056    7.106
    156    O    -14.318    -5.858    5.334
    157    P    -13.277    -5.140    4.392
    158    O    -11.962    -5.182    5.058
    159    O    -13.358    -5.707    3.028
    160    O    -13.755    -3.645    4.312
    161    C    -15.091    -3.278    3.899
    162    H    -15.856    -4.007    4.255
    163    H    -15.153    -3.257    2.790
    164    C    -15.482    -1.891    4.443
    165    H    -16.494    -1.597    4.083
    166    O    -15.560    -1.970    5.895
    167    C    -15.051    -0.780    6.474
    168    H    -15.873    -0.387    7.121
    169    N    -13.837    -1.023    7.319
    170    C    -13.043    -2.125    7.092
    171    H    -13.385    -2.791    6.310
    172    C    -11.963    -2.388    7.838
    173    H    -11.343    -3.270    7.682
    174    C    -13.484    -0.124    8.323
    175    O    -14.185    0.882    8.504
    176    N    -12.399    -0.374    9.091
    177    C    -11.655    -1.472    8.882
    178    N    -10.615    -1.690    9.681
    179    H    -10.448    -1.042    10.424
    180    H    -10.110    -2.555    9.637
    181    C    -14.808    0.203    5.343
    182    H    -13.957    0.865    5.561
    183    O    -15.959    0.992    5.094
    184    H    -15.785    1.511    4.293
    185    C    -14.500    -0.735    4.174
    186    H    -13.473    -1.156    4.283
    187    O    -14.739    -0.172    2.860
    188    P    -13.570    0.638    2.170
    189    O    -12.338    -0.181    2.193
    190    O    -14.043    1.097    0.843
    191    O    -13.401    1.925    3.055
    192    C    -12.146    2.655    3.080
    193    H    -12.241    3.588    2.482
    194    H    -11.295    2.074    2.645
    195    C    -11.753    3.041    4.517
    196    H    -12.398    3.868    4.892
    197    O    -11.945    1.906    5.404
    198    C    -10.886    1.818    6.324
    199    H    -11.335    1.758    7.343
    200    N    -10.092    0.609    6.072
    201    C    -9.121    0.100    6.886
    202    N    -7.259    0.263    9.801
    203    H    -7.621    1.081    10.241
    204    H    -6.582    -0.299    10.284
    205    N    -8.711    0.629    8.051
    206    C    -7.773    -0.106    8.641
    207    N    -7.287    -1.270    8.108
    208    H    -6.572    -1.767    8.617
    209    C    -7.684    -1.836    6.904
    210    O    -7.187    -2.888    6.491
    211    C    -8.682    -1.052    6.263
    212    N    -9.356    -1.256    5.064
    213    C    -10.193    -0.250    4.993
    214    H    -10.910    -0.076    4.185
    215    C    -10.083    3.091    6.190
    216    H    -9.013    2.947    6.444
    217    O    -10.644    4.096    7.017
    218    H    -10.187    4.920    6.814
    219    C    -10.276    3.407    4.709
    220    H    -9.691    2.690    4.087
    221    O    -10.064    4.786    4.341
    222    P    -8.671    5.226    3.754
    223    O    -8.260    4.232    2.740
    224    O    -8.747    6.640    3.309
    225    O    -7.707    5.119    4.992
    226    C    -7.871    5.994    6.130
    227    H    -8.899    5.942    6.552
    228    H    -7.698    7.053    5.839
    229    C    -6.867    5.659    7.237
    230    H    -6.959    6.371    8.088
    231    O    -7.138    4.327    7.770
    232    C    -5.897    3.676    8.026
    233    H    -5.938    3.372    9.097
    234    N    -5.694    2.460    7.189
    235    C    -6.392    2.299    6.016
    236    H    -7.103    3.086    5.773
    237    C    -6.234    1.214    5.247
    238    H    -6.806    1.062    4.334
    239    C    -4.765    1.497    7.574
    240    O    -4.107    1.670    8.611
    241    N    -4.598    0.388    6.815
    242    C    -5.303    0.230    5.681
    243    N    -5.135    -0.880    4.964
    244    H    -4.473    -1.569    5.268
    245    H    -5.632    -1.039    4.112
    246    C    -4.790    4.703    7.850
    247    H    -3.844    4.247    7.483
    248    O    -4.564    5.383    9.076
    249    H    -3.937    6.110    8.920
    250    C    -5.398    5.616    6.794
    251    H    -5.347    5.141    5.793
    252    O    -4.836    6.941    6.762
    253    H    -3.912    6.905    6.447
 $END
