!*** FMO 5.3 (Gamess) INPUT generated by Facio 22.1.1.32 ***
 $CONTRL RUNTYP=ENERGY NPRINT=-5 ISPHER=1 MAXIT=200 $END
 $SYSTEM MWORDS=63 MEMDDI=63 $END
 $GDDI NGROUP=1 $END
 $SCF DIRSCF=.TRUE. NPUNCH=0 $END
!*** NumCPU : 2  MemPerNode : 512MB
 $PCM SOLVNT=WATER IEF=-10 ICOMP=2 ICAV=1 IDISP=1 IFMO=-1 $END
 $PCMCAV RADII=SUAHF $END
 $TESCAV NTSALL=60 $END
 $FMOPRP
    NAODIR=200
    NGRFMO(1)=1, 1, 0, 0, 0,   0, 0, 0, 0, 0
    IPIEDA=1
    NPRINT=9
 $END
 $FMO
      SCFTYP(1)=RHF
      MODGRD=10
      MODMUL=0
      MAXCAO=5
      MAXBND=10
      NLAYER=1
      MPLEVL(1)=2
      NFRAG=8
      ICHARG(1)=-1, -1, -1, -1, -1, -1, -1, 0
      FRGNAM(1)=F1, F2, F3, F4, F5, F6, F7, F8
      indat(1)=0
               1   -36   0
               37   -67   0
               68   -97   0
               98   -127   0
               128   -160   0
               161   -191   0
               192   -225   0
               226   -253   0
 $END

 $FMOBND
   -37   36       6-31G*    MINI
   -68   67       6-31G*    MINI
   -98   97       6-31G*    MINI
   -128   127       6-31G*    MINI
   -161   160       6-31G*    MINI
   -192   191       6-31G*    MINI
   -226   225       6-31G*    MINI
 $END
 $FMOHYB
 6-31G*      15   5
   1 0  -0.065034   0.288264   0.000000   0.000000   0.604412
         0.290129   0.000000   0.000000   0.319045  -0.017106
        -0.017106   0.057934   0.000000   0.000000   0.000000
   0 1  -0.065040   0.288293   0.569832   0.000000  -0.201456
         0.290147   0.300783   0.000000  -0.106342   0.049598
        -0.017106  -0.008771   0.000000  -0.027223   0.000000
   0 1  -0.065039   0.288293  -0.284916  -0.493490  -0.201455
         0.290145  -0.150392  -0.260486  -0.106340  -0.000427
         0.032923  -0.008771   0.033353   0.013612   0.023576
   0 1  -0.065039   0.288293  -0.284916   0.493490  -0.201455
         0.290145  -0.150392   0.260486  -0.106340  -0.000427
         0.032923  -0.008771  -0.033353   0.013612  -0.023576
   0 1   1.010938  -0.011975   0.000000   0.000000   0.000000
        -0.054085   0.000000   0.000000  -0.000000  -0.003174
        -0.003174  -0.003174   0.000000   0.000000   0.000000
 MINI         5   5
   1 0  -0.104883   0.308874   0.000000   0.000000   0.521806
   0 1  -0.104883   0.308874   0.491961   0.000000  -0.173934
   0 1  -0.104883   0.308876  -0.245980  -0.426050  -0.173933
   0 1  -0.104883   0.308876  -0.245980   0.426050  -0.173933
   0 1   0.988209   0.063992   0.000000   0.000000   0.000000
 $END
 
 $DATA
 FMO calculation
 C1 
 H.1-1    1
      N31 6
   
 O.1-1    8
      N31 6
      d 1
      1 0.800 1.0
   
 C.1-1    6
      N31 6
      d 1
      1 0.800 1.0
   
 N.1-1    7
      N31 6
      d 1
      1 0.800 1.0
   
 P.1-1   15
      N31 6
      d 1
      1 0.550 1.0
   
 $END
 $FMOXYZ
    1    H    1.283    -9.798    8.777
    2    O    1.072    -8.912    9.123
    3    C    2.140    -8.551    10.011
    4    H    3.110    -8.611    9.466
    5    H    2.163    -9.279    10.853
    6    C    1.982    -7.144    10.593
    7    H    2.815    -6.903    11.285
    8    O    2.006    -6.155    9.527
    9    C    1.072    -5.130    9.827
    10    H    1.640    -4.174    9.818
    11    N    0.003    -5.060    8.826
    12    C    -0.829    -3.994    8.609
    13    N    -1.910    -0.806    9.410
    14    H    -1.326    -0.559    10.178
    15    H    -2.610    -0.157    9.100
    16    N    -0.823    -2.832    9.290
    17    C    -1.742    -1.982    8.840
    18    N    -2.566    -2.257    7.779
    19    H    -3.227    -1.550    7.499
    20    C    -2.577    -3.432    7.040
    21    O    -3.353    -3.595    6.092
    22    C    -1.636    -4.367    7.549
    23    N    -1.336    -5.656    7.127
    24    C    -0.354    -6.031    7.915
    25    H    0.167    -6.992    7.868
    26    C    0.546    -5.379    11.224
    27    H    -0.502    -5.041    11.352
    28    O    1.376    -4.729    12.169
    29    H    1.048    -4.972    13.043
    30    C    0.654    -6.897    11.322
    31    H    -0.144    -7.380    10.712
    32    O    0.731    -7.425    12.663
    33    P    -0.592    -7.835    13.409
    34    O    -1.419    -8.674    12.521
    35    O    -0.224    -8.411    14.720
    36    O    -1.328    -6.467    13.638
    37    C    -0.836    -5.536    14.632
    38    H    0.245    -5.304    14.478
    39    H    -0.923    -5.973    15.653
    40    C    -1.644    -4.229    14.610
    41    H    -1.236    -3.498    15.342
    42    O    -1.566    -3.615    13.291
    43    C    -2.809    -2.994    12.988
    44    H    -2.566    -1.921    12.815
    45    N    -3.455    -3.545    11.764
    46    C    -3.156    -4.819    11.342
    47    H    -2.449    -5.370    11.960
    48    C    -3.683    -5.326    10.221
    49    H    -3.423    -6.314    9.848
    50    C    -4.376    -2.782    11.050
    51    O    -4.653    -1.638    11.443
    52    N    -4.934    -3.288    9.926
    53    C    -4.597    -4.512    9.494
    54    N    -5.134    -4.962    8.364
    55    H    -5.807    -4.397    7.879
    56    H    -4.892    -5.850    7.972
    57    C    -3.689    -3.110    14.216
    58    H    -4.756    -3.223    13.953
    59    O    -3.516    -1.985    15.058
    60    H    -4.001    -2.165    15.879
    61    C    -3.153    -4.381    14.867
    62    H    -3.487    -5.281    14.302
    63    O    -3.407    -4.491    16.283
    64    P    -4.775    -5.081    16.794
    65    O    -5.057    -6.326    16.047
    66    O    -4.716    -5.165    18.273
    67    O    -5.853    -4.004    16.402
    68    C    -7.243    -4.383    16.204
    69    H    -7.803    -4.281    17.162
    70    H    -7.353    -5.447    15.872
    71    C    -7.941    -3.502    15.152
    72    H    -8.150    -2.487    15.547
    73    O    -7.069    -3.342    13.997
    74    C    -7.779    -3.549    12.805
    75    H    -7.527    -2.686    12.146
    76    N    -7.379    -4.822    12.132
    77    C    -6.571    -5.748    12.768
    78    H    -6.280    -5.505    13.795
    79    C    -7.777    -5.015    10.826
    80    O    -8.456    -4.199    10.211
    81    N    -7.351    -6.188    10.259
    82    H    -7.606    -6.320    9.290
    83    C    -6.511    -7.131    10.812
    84    O    -6.145    -8.095    10.144
    85    C    -6.137    -6.867    12.170
    86    H    -5.481    -7.572    12.678
    87    C    -9.245    -3.505    13.177
    88    H    -9.860    -4.126    12.507
    89    O    -9.711    -2.164    13.178
    90    H    -9.425    -1.719    12.371
    91    C    -9.235    -4.104    14.578
    92    H    -9.084    -5.206    14.522
    93    O    -10.364    -3.740    15.402
    94    P    -11.633    -4.663    15.515
    95    O    -11.221    -5.910    16.193
    96    O    -12.731    -3.905    16.155
    97    O    -12.060    -5.045    14.049
    98    C    -12.694    -4.108    13.151
    99    H    -12.113    -3.159    13.090
    100    H    -13.708    -3.852    13.527
    101    C    -12.832    -4.669    11.716
    102    H    -13.305    -3.905    11.060
    103    O    -11.516    -4.949    11.168
    104    C    -11.524    -6.115    10.381
    105    H    -11.125    -5.802    9.385
    106    N    -10.651    -7.172    10.945
    107    C    -10.255    -7.136    12.260
    108    H    -10.657    -6.314    12.847
    109    C    -10.202    -8.160    10.102
    110    O    -10.510    -8.203    8.915
    111    N    -9.372    -9.084    10.685
    112    H    -9.033    -9.814    10.080
    113    C    -8.916    -9.096    11.986
    114    O    -8.144    -9.974    12.366
    115    C    -9.414    -8.028    12.795
    116    H    -9.102    -7.962    13.835
    117    C    -12.964    -6.540    10.242
    118    H    -13.094    -7.643    10.171
    119    O    -13.485    -5.905    9.092
    120    H    -13.703    -5.000    9.321
    121    C    -13.586    -5.987    11.536
    122    H    -13.316    -6.635    12.400
    123    O    -15.003    -5.720    11.507
    124    P    -15.988    -6.883    11.113
    125    O    -15.364    -8.195    11.411
    126    O    -17.299    -6.606    11.741
    127    O    -16.136    -6.702    9.569
    128    C    -16.577    -7.742    8.678
    129    H    -17.127    -8.554    9.211
    130    H    -15.693    -8.209    8.193
    131    C    -17.480    -7.159    7.584
    132    H    -17.905    -7.964    6.951
    133    O    -18.601    -6.450    8.202
    134    C    -18.852    -5.258    7.477
    135    H    -19.930    -5.291    7.197
    136    N    -18.611    -4.060    8.288
    137    C    -18.712    -2.010    9.077
    138    N    -17.825    -2.696    9.896
    139    C    -17.798    -3.903    9.385
    140    H    -17.223    -4.732    9.787
    141    N    -20.098    -0.331    8.140
    142    C    -20.461    -1.244    7.233
    143    H    -21.170    -0.899    6.476
    144    N    -20.078    -2.521    7.121
    145    C    -19.197    -2.841    8.083
    146    C    -19.205    -0.687    9.100
    147    N    -18.851    0.229    10.023
    148    H    -18.199    0.018    10.753
    149    H    -19.202    1.167    9.949
    150    C    -18.009    -5.288    6.217
    151    H    -17.689    -4.275    5.890
    152    O    -18.731    -5.932    5.180
    153    H    -18.125    -6.069    4.435
    154    C    -16.807    -6.117    6.663
    155    H    -16.126    -5.509    7.304
    156    O    -16.101    -6.777    5.588
    157    P    -14.922    -6.056    4.822
    158    O    -13.769    -5.864    5.724
    159    O    -14.645    -6.820    3.588
    160    O    -15.485    -4.650    4.382
    161    C    -14.562    -3.572    4.062
    162    H    -14.545    -3.411    2.962
    163    H    -13.511    -3.776    4.381
    164    C    -14.987    -2.258    4.727
    165    H    -15.941    -1.892    4.292
    166    O    -15.230    -2.494    6.144
    167    C    -14.818    -1.370    6.891
    168    H    -15.719    -1.044    7.461
    169    N    -13.708    -1.686    7.830
    170    C    -12.796    -2.673    7.522
    171    H    -12.985    -3.238    6.605
    172    C    -11.770    -2.948    8.339
    173    H    -11.043    -3.728    8.122
    174    C    -13.567    -0.950    9.006
    175    O    -14.393    -0.063    9.262
    176    N    -12.540    -1.215    9.843
    177    C    -11.650    -2.168    9.524
    178    N    -10.651    -2.374    10.364
    179    H    -10.150    -3.241    10.286
    180    H    -10.810    -2.039    11.288
    181    C    -14.435    -0.289    5.901
    182    H    -13.627    0.337    6.295
    183    O    -15.546    0.528    5.581
    184    H    -15.308    1.044    4.797
    185    C    -13.965    -1.103    4.703
    186    H    -12.968    -1.558    4.907
    187    O    -14.014    -0.376    3.452
    188    P    -12.694    0.079    2.722
    189    O    -11.898    -1.128    2.413
    190    O    -13.062    0.926    1.569
    191    O    -11.915    0.963    3.765
    192    C    -12.450    2.229    4.223
    193    H    -13.542    2.161    4.441
    194    H    -12.311    3.012    3.443
    195    C    -11.755    2.696    5.519
    196    H    -12.236    3.617    5.911
    197    O    -11.872    1.672    6.546
    198    C    -10.661    1.553    7.262
    199    H    -10.915    1.613    8.347
    200    N    -9.995    0.265    6.991
    201    C    -8.950    -0.268    7.694
    202    N    -6.650    -0.051    10.268
    203    H    -6.866    0.834    10.675
    204    H    -5.904    -0.601    10.652
    205    N    -8.341    0.297    8.746
    206    C    -7.366    -0.463    9.237
    207    N    -7.037    -1.687    8.720
    208    H    -6.295    -2.209    9.160
    209    C    -7.657    -2.303    7.642
    210    O    -7.295    -3.411    7.233
    211    C    -8.677    -1.483    7.095
    212    N    -9.521    -1.704    6.017
    213    C    -10.292    -0.644    6.000
    214    H    -11.103    -0.471    5.296
    215    C    -9.814    2.732    6.868
    216    H    -8.729    2.524    6.948
    217    O    -10.151    3.840    7.682
    218    H    -9.652    4.594    7.348
    219    C    -10.247    2.946    5.420
    220    H    -9.837    2.141    4.765
    221    O    -10.011    4.271    4.907
    222    P    -8.723    4.567    4.062
    223    O    -8.518    3.480    3.080
    224    O    -8.826    5.938    3.515
    225    O    -7.565    4.514    5.128
    226    C    -7.527    5.487    6.199
    227    H    -8.494    5.545    6.746
    228    H    -7.317    6.497    5.784
    229    C    -6.421    5.160    7.209
    230    H    -6.352    5.935    8.000
    231    O    -6.700    3.891    7.865
    232    C    -5.481    3.179    8.044
    233    H    -5.406    2.974    9.138
    234    N    -5.457    1.888    7.299
    235    C    -6.303    1.684    6.234
    236    H    -6.984    2.500    6.000
    237    C    -6.320    0.528    5.561
    238    H    -7.014    0.341    4.745
    239    C    -4.541    0.900    7.644
    240    O    -3.746    1.111    8.572
    241    N    -4.532    -0.272    6.969
    242    C    -5.392    -0.475    5.955
    243    N    -5.382    -1.647    5.326
    244    H    -4.729    -2.355    5.605
    245    H    -6.016    -1.853    4.581
    246    C    -4.345    4.102    7.633
    247    H    -3.495    3.545    7.183
    248    O    -3.895    4.857    8.748
    249    H    -3.244    5.514    8.440
    250    C    -5.033    4.973    6.589
    251    H    -5.148    4.412    5.638
    252    O    -4.404    6.247    6.362
    253    H    -3.559    6.118    5.891
 $END
