!*** FMO 5.3 (Gamess) INPUT generated by Facio 22.1.1.32 ***
 $CONTRL RUNTYP=ENERGY NPRINT=-5 ISPHER=1 MAXIT=200 $END
 $SYSTEM MWORDS=63 MEMDDI=63 $END
 $GDDI NGROUP=1 $END
 $SCF DIRSCF=.TRUE. NPUNCH=0 $END
!*** NumCPU : 2  MemPerNode : 512MB
 $PCM SOLVNT=WATER IEF=-10 ICOMP=2 ICAV=1 IDISP=1 IFMO=-1 $END
 $PCMCAV RADII=SUAHF $END
 $TESCAV NTSALL=60 $END
 $FMOPRP
    NAODIR=200
    NGRFMO(1)=1, 1, 0, 0, 0,   0, 0, 0, 0, 0
    IPIEDA=1
    NPRINT=9
 $END
 $FMO
      SCFTYP(1)=RHF
      MODGRD=10
      MODMUL=0
      MAXCAO=5
      MAXBND=10
      NLAYER=1
      MPLEVL(1)=2
      NFRAG=8
      ICHARG(1)=-1, -1, -1, -1, -1, -1, -1, 0
      FRGNAM(1)=F1, F2, F3, F4, F5, F6, F7, F8
      indat(1)=0
               1   -36   0
               37   -67   0
               68   -97   0
               98   -131   0
               132   -164   0
               165   -195   0
               196   -229   0
               230   -257   0
 $END

 $FMOBND
   -37   36       6-31G*    MINI
   -68   67       6-31G*    MINI
   -98   97       6-31G*    MINI
   -132   131       6-31G*    MINI
   -165   164       6-31G*    MINI
   -196   195       6-31G*    MINI
   -230   229       6-31G*    MINI
 $END
 $FMOHYB
 6-31G*      15   5
   1 0  -0.065034   0.288264   0.000000   0.000000   0.604412
         0.290129   0.000000   0.000000   0.319045  -0.017106
        -0.017106   0.057934   0.000000   0.000000   0.000000
   0 1  -0.065040   0.288293   0.569832   0.000000  -0.201456
         0.290147   0.300783   0.000000  -0.106342   0.049598
        -0.017106  -0.008771   0.000000  -0.027223   0.000000
   0 1  -0.065039   0.288293  -0.284916  -0.493490  -0.201455
         0.290145  -0.150392  -0.260486  -0.106340  -0.000427
         0.032923  -0.008771   0.033353   0.013612   0.023576
   0 1  -0.065039   0.288293  -0.284916   0.493490  -0.201455
         0.290145  -0.150392   0.260486  -0.106340  -0.000427
         0.032923  -0.008771  -0.033353   0.013612  -0.023576
   0 1   1.010938  -0.011975   0.000000   0.000000   0.000000
        -0.054085   0.000000   0.000000  -0.000000  -0.003174
        -0.003174  -0.003174   0.000000   0.000000   0.000000
 MINI         5   5
   1 0  -0.104883   0.308874   0.000000   0.000000   0.521806
   0 1  -0.104883   0.308874   0.491961   0.000000  -0.173934
   0 1  -0.104883   0.308876  -0.245980  -0.426050  -0.173933
   0 1  -0.104883   0.308876  -0.245980   0.426050  -0.173933
   0 1   0.988209   0.063992   0.000000   0.000000   0.000000
 $END
 
 $DATA
 FMO calculation
 C1 
 H.1-1    1
      N31 6
   
 O.1-1    8
      N31 6
      d 1
      1 0.800 1.0
   
 C.1-1    6
      N31 6
      d 1
      1 0.800 1.0
   
 N.1-1    7
      N31 6
      d 1
      1 0.800 1.0
   
 P.1-1   15
      N31 6
      d 1
      1 0.550 1.0
   
 $END
 $FMOXYZ
    1    H    -15.372    -3.535    0.361
    2    O    -14.662    -4.042    0.806
    3    C    -14.591    -5.319    0.155
    4    H    -14.428    -5.163    -0.935
    5    H    -15.560    -5.853    0.279
    6    C    -13.464    -6.209    0.690
    7    H    -13.473    -7.206    0.198
    8    O    -12.176    -5.592    0.401
    9    C    -11.299    -5.809    1.492
    10    H    -10.387    -6.299    1.078
    11    N    -10.908    -4.545    2.129
    12    C    -9.832    -4.367    2.957
    13    N    -7.064    -5.641    4.599
    14    H    -7.084    -6.607    4.355
    15    H    -6.336    -5.304    5.202
    16    N    -8.969    -5.323    3.343
    17    C    -7.998    -4.844    4.117
    18    N    -7.893    -3.521    4.457
    19    H    -7.126    -3.242    5.048
    20    C    -8.768    -2.512    4.075
    21    O    -8.597    -1.344    4.438
    22    C    -9.823    -3.021    3.268
    23    N    -10.894    -2.367    2.669
    24    C    -11.516    -3.313    2.002
    25    H    -12.413    -3.179    1.391
    26    C    -11.989    -6.752    2.449
    27    H    -11.699    -6.578    3.505
    28    O    -11.706    -8.090    2.087
    29    H    -12.222    -8.641    2.685
    30    C    -13.456    -6.416    2.210
    31    H    -13.710    -5.433    2.668
    32    O    -14.393    -7.458    2.562
    33    P    -14.978    -7.511    4.025
    34    O    -15.464    -6.161    4.382
    35    O    -15.964    -8.612    4.073
    36    O    -13.735    -7.878    4.908
    37    C    -13.126    -9.188    4.862
    38    H    -12.835    -9.483    3.833
    39    H    -13.836    -9.964    5.224
    40    C    -11.878    -9.237    5.754
    41    H    -11.402    -10.237    5.712
    42    O    -10.889    -8.267    5.315
    43    C    -10.222    -7.733    6.453
    44    H    -9.147    -7.986    6.307
    45    N    -10.360    -6.255    6.562
    46    C    -11.449    -5.625    6.005
    47    H    -12.170    -6.270    5.500
    48    C    -11.588    -4.295    6.058
    49    H    -12.422    -3.778    5.588
    50    C    -9.422    -5.507    7.271
    51    O    -8.479    -6.087    7.830
    52    N    -9.544    -4.162    7.333
    53    C    -10.588    -3.552    6.746
    54    N    -10.660    -2.223    6.783
    55    H    -9.983    -1.698    7.303
    56    H    -11.451    -1.736    6.415
    57    C    -10.742    -8.469    7.678
    58    H    -10.790    -7.816    8.568
    59    O    -9.932    -9.595    7.954
    60    H    -10.400    -10.151    8.600
    61    C    -12.136    -8.877    7.218
    62    H    -12.807    -7.989    7.206
    63    O    -12.706    -10.011    7.899
    64    P    -13.587    -9.861    9.185
    65    O    -14.568    -10.967    9.187
    66    O    -12.675    -9.778    10.349
    67    O    -14.352    -8.498    9.001
    68    C    -15.538    -8.224    9.788
    69    H    -15.518    -8.735    10.782
    70    H    -16.431    -8.599    9.244
    71    C    -15.754    -6.723    10.060
    72    H    -16.654    -6.612    10.697
    73    O    -14.646    -6.184    10.814
    74    C    -13.956    -5.217    10.037
    75    H    -14.336    -4.226    10.378
    76    N    -12.498    -5.332    10.239
    77    C    -11.933    -6.546    10.558
    78    H    -12.627    -7.388    10.614
    79    C    -11.741    -4.187    10.175
    80    O    -12.208    -3.082    9.923
    81    N    -10.414    -4.373    10.437
    82    H    -9.891    -3.525    10.561
    83    C    -9.786    -5.537    10.822
    84    O    -8.598    -5.526    11.129
    85    C    -10.632    -6.684    10.845
    86    H    -10.206    -7.638    11.148
    87    C    -14.377    -5.431    8.600
    88    H    -13.812    -6.269    8.141
    89    O    -14.258    -4.269    7.803
    90    H    -14.927    -3.643    8.120
    91    C    -15.840    -5.820    8.798
    92    H    -16.160    -6.448    7.933
    93    O    -16.722    -4.674    8.936
    94    P    -18.250    -4.830    9.279
    95    O    -19.034    -3.941    8.395
    96    O    -18.654    -6.255    9.259
    97    O    -18.338    -4.296    10.755
    98    C    -18.706    -2.932    11.064
    99    H    -19.800    -2.894    11.271
    100    H    -18.510    -2.229    10.220
    101    C    -17.984    -2.377    12.308
    102    H    -18.410    -1.384    12.572
    103    O    -18.125    -3.266    13.455
    104    C    -16.863    -3.850    13.755
    105    H    -16.486    -3.309    14.653
    106    N    -16.994    -5.283    14.049
    107    C    -16.318    -5.978    15.018
    108    N    -13.916    -6.088    17.502
    109    H    -13.591    -6.721    18.207
    110    H    -13.628    -5.128    17.540
    111    N    -15.400    -5.470    15.859
    112    C    -14.880    -6.400    16.656
    113    N    -15.311    -7.703    16.679
    114    H    -14.904    -8.320    17.366
    115    C    -16.286    -8.246    15.848
    116    O    -16.625    -9.435    15.924
    117    C    -16.794    -7.274    14.943
    118    N    -17.734    -7.399    13.926
    119    C    -17.818    -6.189    13.421
    120    H    -18.467    -5.888    12.597
    121    C    -15.940    -3.572    12.596
    122    H    -16.065    -4.339    11.803
    123    O    -14.590    -3.478    12.994
    124    H    -14.507    -2.664    13.512
    125    C    -16.465    -2.229    12.105
    126    H    -16.281    -2.188    11.004
    127    O    -15.921    -1.084    12.825
    128    P    -15.468    0.186    12.002
    129    O    -14.965    -0.256    10.685
    130    O    -16.577    1.167    11.995
    131    O    -14.271    0.782    12.844
    132    C    -13.149    1.374    12.130
    133    H    -13.466    2.285    11.568
    134    H    -12.728    0.654    11.387
    135    C    -12.003    1.748    13.089
    136    H    -12.326    2.528    13.811
    137    O    -11.622    0.574    13.865
    138    C    -10.228    0.588    14.110
    139    H    -10.102    0.598    15.218
    140    N    -9.592    -0.608    13.557
    141    C    -8.216    -2.285    13.213
    142    N    -9.241    -2.427    12.286
    143    C    -10.042    -1.420    12.542
    144    H    -10.989    -1.220    12.031
    145    N    -6.271    -2.646    14.514
    146    C    -6.539    -1.476    15.104
    147    H    -5.825    -1.159    15.872
    148    N    -7.606    -0.684    14.948
    149    C    -8.408    -1.150    13.980
    150    C    -7.100    -3.088    13.537
    151    N    -6.849    -4.282    12.974
    152    H    -7.415    -4.631    12.220
    153    H    -5.967    -4.723    13.154
    154    C    -9.658    1.862    13.519
    155    H    -8.647    1.718    13.076
    156    O    -9.607    2.879    14.498
    157    H    -9.486    3.710    14.021
    158    C    -10.680    2.193    12.438
    159    H    -10.533    1.513    11.567
    160    O    -10.727    3.600    12.089
    161    P    -10.013    4.066    10.758
    162    O    -10.284    3.048    9.728
    163    O    -10.461    5.444    10.457
    164    O    -8.473    4.091    11.113
    165    C    -7.544    4.865    10.312
    166    H    -8.044    5.691    9.748
    167    H    -7.068    4.197    9.557
    168    C    -6.415    5.521    11.139
    169    H    -5.741    6.077    10.451
    170    O    -6.946    6.455    12.119
    171    C    -6.691    5.972    13.440
    172    H    -5.795    6.534    13.786
    173    N    -7.827    6.220    14.386
    174    C    -8.996    6.783    13.916
    175    H    -9.057    6.954    12.837
    176    C    -10.011    7.082    14.736
    177    H    -10.935    7.530    14.378
    178    C    -7.683    6.004    15.761
    179    O    -6.598    5.608    16.206
    180    N    -8.717    6.250    16.598
    181    C    -9.845    6.803    16.124
    182    N    -10.821    7.088    16.984
    183    H    -10.699    6.816    17.941
    184    H    -11.693    7.483    16.697
    185    C    -6.320    4.504    13.288
    186    H    -7.231    3.874    13.210
    187    O    -5.468    4.016    14.301
    188    H    -4.634    4.502    14.218
    189    C    -5.572    4.543    11.969
    190    H    -5.641    3.545    11.485
    191    O    -4.206    5.002    12.128
    192    P    -3.048    4.393    11.266
    193    O    -3.373    4.627    9.843
    194    O    -1.762    4.937    11.766
    195    O    -3.124    2.841    11.543
    196    C    -2.333    2.249    12.596
    197    H    -2.654    2.633    13.590
    198    H    -1.250    2.483    12.462
    199    C    -2.448    0.719    12.604
    200    H    -1.762    0.281    13.363
    201    O    -3.798    0.315    12.969
    202    C    -4.173    -0.809    12.186
    203    H    -4.505    -1.600    12.892
    204    N    -5.281    -0.478    11.278
    205    C    -6.011    -1.351    10.521
    206    N    -6.603    -4.565    9.399
    207    H    -5.949    -5.095    9.936
    208    H    -7.308    -5.057    8.885
    209    N    -5.827    -2.678    10.455
    210    C    -6.687    -3.271    9.638
    211    N    -7.689    -2.603    8.989
    212    H    -8.301    -3.132    8.387
    213    C    -7.909    -1.232    9.041
    214    O    -8.832    -0.722    8.403
    215    C    -6.953    -0.581    9.867
    216    N    -6.793    0.763    10.178
    217    C    -5.792    0.774    11.027
    218    H    -5.362    1.652    11.509
    219    C    -2.940    -1.278    11.445
    220    H    -3.182    -1.757    10.474
    221    O    -2.205    -2.183    12.247
    222    H    -1.398    -2.389    11.762
    223    C    -2.188    0.032    11.255
    224    H    -2.693    0.652    10.477
    225    O    -0.765    -0.109    11.044
    226    P    -0.176    0.005    9.590
    227    O    -0.872    1.084    8.863
    228    O    1.302    0.082    9.644
    229    O    -0.595    -1.362    8.931
    230    C    -0.041    -2.608    9.410
    231    H    -0.215    -2.737    10.502
    232    H    1.063    -2.638    9.242
    233    C    -0.671    -3.806    8.687
    234    H    -0.191    -4.757    9.010
    235    O    -2.082    -3.896    9.029
    236    C    -2.821    -4.292    7.879
    237    H    -3.376    -5.212    8.175
    238    N    -3.800    -3.257    7.442
    239    C    -3.650    -1.950    7.842
    240    H    -2.805    -1.743    8.496
    241    C    -4.512    -0.998    7.467
    242    H    -4.417    0.034    7.800
    243    C    -4.849    -3.600    6.597
    244    O    -4.957    -4.773    6.211
    245    N    -5.734    -2.654    6.208
    246    C    -5.592    -1.384    6.624
    247    N    -6.492    -0.480    6.245
    248    H    -7.262    -0.761    5.666
    249    H    -6.436    0.474    6.536
    250    C    -1.821    -4.642    6.787
    251    H    -2.206    -4.404    5.772
    252    O    -1.476    -6.016    6.869
    253    H    -0.701    -6.171    6.303
    254    C    -0.652    -3.735    7.155
    255    H    -0.869    -2.689    6.848
    256    O    0.620    -4.165    6.637
    257    H    0.658    -4.005    5.676
 $END
