!*** FMO 5.3 (Gamess) INPUT generated by Facio 22.1.1.32 ***
 $CONTRL RUNTYP=ENERGY NPRINT=-5 ISPHER=1 MAXIT=200 $END
 $SYSTEM MWORDS=63 MEMDDI=63 $END
 $GDDI NGROUP=1 $END
 $SCF DIRSCF=.TRUE. NPUNCH=0 $END
!*** NumCPU : 2  MemPerNode : 512MB
 $PCM SOLVNT=WATER IEF=-10 ICOMP=2 ICAV=1 IDISP=1 IFMO=-1 $END
 $PCMCAV RADII=SUAHF $END
 $TESCAV NTSALL=60 $END
 $FMOPRP
    NAODIR=200
    NGRFMO(1)=1, 1, 0, 0, 0,   0, 0, 0, 0, 0
    IPIEDA=1
    NPRINT=9
 $END
 $FMO
      SCFTYP(1)=RHF
      MODGRD=10
      MODMUL=0
      MAXCAO=5
      MAXBND=10
      NLAYER=1
      MPLEVL(1)=2
      NFRAG=8
      ICHARG(1)=-1, -1, -1, -1, -1, -1, -1, 0
      FRGNAM(1)=F1, F2, F3, F4, F5, F6, F7, F8
      indat(1)=0
               1   -36   0
               37   -67   0
               68   -97   0
               98   -131   0
               132   -164   0
               165   -195   0
               196   -229   0
               230   -257   0
 $END

 $FMOBND
   -37   36       6-31G*    MINI
   -68   67       6-31G*    MINI
   -98   97       6-31G*    MINI
   -132   131       6-31G*    MINI
   -165   164       6-31G*    MINI
   -196   195       6-31G*    MINI
   -230   229       6-31G*    MINI
 $END
 $FMOHYB
 6-31G*      15   5
   1 0  -0.065034   0.288264   0.000000   0.000000   0.604412
         0.290129   0.000000   0.000000   0.319045  -0.017106
        -0.017106   0.057934   0.000000   0.000000   0.000000
   0 1  -0.065040   0.288293   0.569832   0.000000  -0.201456
         0.290147   0.300783   0.000000  -0.106342   0.049598
        -0.017106  -0.008771   0.000000  -0.027223   0.000000
   0 1  -0.065039   0.288293  -0.284916  -0.493490  -0.201455
         0.290145  -0.150392  -0.260486  -0.106340  -0.000427
         0.032923  -0.008771   0.033353   0.013612   0.023576
   0 1  -0.065039   0.288293  -0.284916   0.493490  -0.201455
         0.290145  -0.150392   0.260486  -0.106340  -0.000427
         0.032923  -0.008771  -0.033353   0.013612  -0.023576
   0 1   1.010938  -0.011975   0.000000   0.000000   0.000000
        -0.054085   0.000000   0.000000  -0.000000  -0.003174
        -0.003174  -0.003174   0.000000   0.000000   0.000000
 MINI         5   5
   1 0  -0.104883   0.308874   0.000000   0.000000   0.521806
   0 1  -0.104883   0.308874   0.491961   0.000000  -0.173934
   0 1  -0.104883   0.308876  -0.245980  -0.426050  -0.173933
   0 1  -0.104883   0.308876  -0.245980   0.426050  -0.173933
   0 1   0.988209   0.063992   0.000000   0.000000   0.000000
 $END
 
 $DATA
 FMO calculation
 C1 
 H.1-1    1
      N31 6
   
 O.1-1    8
      N31 6
      d 1
      1 0.800 1.0
   
 C.1-1    6
      N31 6
      d 1
      1 0.800 1.0
   
 N.1-1    7
      N31 6
      d 1
      1 0.800 1.0
   
 P.1-1   15
      N31 6
      d 1
      1 0.550 1.0
   
 $END
 $FMOXYZ
    1    H    -11.863    -5.580    -2.286
    2    O    -11.319    -5.969    -1.574
    3    C    -11.259    -7.380    -1.824
    4    H    -10.791    -7.552    -2.820
    5    H    -12.292    -7.792    -1.853
    6    C    -10.453    -8.141    -0.766
    7    H    -10.433    -9.229    -0.998
    8    O    -9.072    -7.672    -0.756
    9    C    -8.598    -7.639    0.582
    10    H    -7.672    -8.257    0.617
    11    N    -8.274    -6.268    1.002
    12    C    -7.490    -5.919    2.067
    13    N    -5.560    -6.822    4.794
    14    H    -5.626    -7.818    4.787
    15    H    -5.001    -6.374    5.497
    16    N    -6.904    -6.771    2.925
    17    C    -6.181    -6.143    3.849
    18    N    -6.032    -4.781    3.885
    19    H    -5.456    -4.387    4.612
    20    C    -6.605    -3.875    3.000
    21    O    -6.412    -2.658    3.103
    22    C    -7.419    -4.538    2.041
    23    N    -8.182    -4.024    0.999
    24    C    -8.672    -5.090    0.407
    25    H    -9.318    -5.088    -0.475
    26    C    -9.657    -8.277    1.455
    27    H    -9.687    -7.851    2.478
    28    O    -9.437    -9.673    1.528
    29    H    -10.169    -10.041    2.037
    30    C    -10.929    -7.953    0.680
    31    H    -11.191    -6.876    0.795
    32    O    -12.041    -8.830    0.943
    33    P    -13.096    -8.452    2.044
    34    O    -13.561    -7.067    1.816
    35    O    -14.129    -9.511    2.052
    36    O    -12.275    -8.497    3.390
    37    C    -11.866    -9.778    3.926
    38    H    -11.255    -10.355    3.196
    39    H    -12.759    -10.395    4.180
    40    C    -11.035    -9.620    5.200
    41    H    -10.756    -10.615    5.606
    42    O    -9.790    -8.922    4.912
    43    C    -9.463    -8.096    6.024
    44    H    -8.456    -8.436    6.356
    45    N    -9.398    -6.650    5.675
    46    C    -10.062    -6.174    4.568
    47    H    -10.632    -6.914    4.005
    48    C    -9.985    -4.886    4.208
    49    H    -10.477    -4.498    3.318
    50    C    -8.688    -5.766    6.485
    51    O    -8.124    -6.193    7.504
    52    N    -8.607    -4.463    6.142
    53    C    -9.222    -4.013    5.038
    54    N    -9.109    -2.725    4.730
    55    H    -8.592    -2.123    5.344
    56    H    -9.510    -2.334    3.899
    57    C    -10.468    -8.389    7.124
    58    H    -10.694    -7.496    7.744
    59    O    -9.999    -9.449    7.941
    60    H    -10.745    -9.749    8.481
    61    C    -11.689    -8.812    6.321
    62    H    -12.175    -7.931    5.844
    63    O    -12.615    -9.648    7.040
    64    P    -13.846    -9.018    7.783
    65    O    -14.750    -8.448    6.763
    66    O    -14.415    -10.052    8.677
    67    O    -13.249    -7.840    8.617
    68    C    -12.588    -8.016    9.886
    69    H    -11.656    -8.614    9.778
    70    H    -13.255    -8.546    10.605
    71    C    -12.216    -6.659    10.497
    72    H    -11.734    -6.782    11.489
    73    O    -11.269    -5.969    9.630
    74    C    -11.545    -4.578    9.644
    75    H    -10.601    -4.121    10.007
    76    N    -11.862    -4.061    8.286
    77    C    -12.412    -4.891    7.341
    78    H    -12.552    -5.922    7.655
    79    C    -11.555    -2.746    7.993
    80    O    -11.069    -1.984    8.807
    81    N    -11.848    -2.370    6.699
    82    H    -11.604    -1.420    6.459
    83    C    -12.370    -3.158    5.694
    84    O    -12.531    -2.705    4.561
    85    C    -12.669    -4.501    6.086
    86    H    -13.043    -5.194    5.337
    87    C    -12.648    -4.341    10.668
    88    H    -13.317    -3.491    10.415
    89    O    -12.041    -4.149    11.933
    90    H    -12.090    -3.211    12.207
    91    C    -13.384    -5.672    10.631
    92    H    -13.967    -5.751    9.686
    93    O    -14.165    -5.971    11.812
    94    P    -15.725    -5.786    11.791
    95    O    -16.245    -6.258    10.492
    96    O    -16.284    -6.438    12.996
    97    O    -15.962    -4.230    11.913
    98    C    -17.321    -3.714    11.938
    99    H    -18.091    -4.511    12.092
    100    H    -17.545    -3.234    10.958
    101    C    -17.526    -2.669    13.048
    102    H    -18.552    -2.242    13.006
    103    O    -17.396    -3.319    14.341
    104    C    -16.724    -2.452    15.243
    105    H    -17.394    -2.332    16.123
    106    N    -15.450    -3.029    15.695
    107    C    -14.693    -2.605    16.757
    108    N    -14.149    -0.442    19.406
    109    H    -13.505    -0.338    20.159
    110    H    -14.947    0.163    19.358
    111    N    -14.977    -1.572    17.571
    112    C    -14.062    -1.426    18.531
    113    N    -12.992    -2.268    18.690
    114    H    -12.357    -2.091    19.444
    115    C    -12.699    -3.360    17.882
    116    O    -11.729    -4.093    18.090
    117    C    -13.633    -3.489    16.824
    118    N    -13.699    -4.426    15.805
    119    C    -14.794    -4.114    15.157
    120    H    -15.190    -4.642    14.289
    121    C    -16.547    -1.114    14.560
    122    H    -15.603    -0.613    14.857
    123    O    -17.653    -0.275    14.845
    124    H    -17.594    0.483    14.248
    125    C    -16.514    -1.511    13.092
    126    H    -15.521    -1.954    12.841
    127    O    -16.918    -0.450    12.196
    128    P    -15.864    0.257    11.273
    129    O    -15.043    -0.758    10.587
    130    O    -16.595    1.227    10.429
    131    O    -14.946    1.061    12.253
    132    C    -15.401    2.141    13.089
    133    H    -16.352    1.887    13.613
    134    H    -15.591    3.045    12.467
    135    C    -14.337    2.489    14.147
    136    H    -14.655    3.356    14.762
    137    O    -14.178    1.354    15.048
    138    C    -12.810    1.166    15.360
    139    H    -12.733    1.163    16.471
    140    N    -12.326    -0.114    14.828
    141    C    -11.253    -2.006    14.519
    142    N    -12.125    -1.873    13.452
    143    C    -12.745    -0.755    13.687
    144    H    -13.536    -0.369    13.059
    145    N    -9.583    -2.827    15.987
    146    C    -9.776    -1.706    16.689
    147    H    -9.153    -1.620    17.588
    148    N    -10.651    -0.709    16.494
    149    C    -11.355    -0.920    15.370
    150    C    -10.330    -3.016    14.867
    151    N    -10.186    -4.148    14.150
    152    H    -10.839    -4.374    13.418
    153    H    -9.591    -4.873    14.500
    154    C    -12.045    2.345    14.797
    155    H    -11.028    2.064    14.452
    156    O    -11.958    3.380    15.758
    157    H    -11.554    4.141    15.310
    158    C    -12.915    2.755    13.612
    159    H    -12.756    2.052    12.763
    160    O    -12.781    4.138    13.208
    161    P    -11.541    4.558    12.327
    162    O    -11.184    3.420    11.451
    163    O    -11.827    5.857    11.672
    164    O    -10.371    4.816    13.362
    165    C    -8.985    4.804    12.889
    166    H    -8.615    5.850    12.795
    167    H    -8.869    4.327    11.880
    168    C    -8.041    4.060    13.864
    169    H    -7.836    4.691    14.755
    170    O    -8.715    2.873    14.365
    171    C    -7.815    1.793    14.417
    172    H    -7.898    1.391    15.448
    173    N    -8.168    0.711    13.457
    174    C    -8.952    0.987    12.353
    175    H    -9.294    2.020    12.243
    176    C    -9.295    0.025    11.487
    177    H    -9.915    0.223    10.615
    178    C    -7.699    -0.584    13.669
    179    O    -6.976    -0.811    14.652
    180    N    -8.037    -1.562    12.800
    181    C    -8.813    -1.292    11.739
    182    N    -9.123    -2.283    10.913
    183    H    -8.829    -3.199    11.184
    184    H    -9.789    -2.167    10.174
    185    C    -6.425    2.359    14.217
    186    H    -5.756    1.620    13.755
    187    O    -5.870    2.777    15.454
    188    H    -5.037    3.234    15.254
    189    C    -6.702    3.543    13.293
    190    H    -6.922    3.180    12.262
    191    O    -5.692    4.589    13.325
    192    P    -4.460    4.456    12.334
    193    O    -4.966    4.002    11.023
    194    O    -3.703    5.731    12.342
    195    O    -3.525    3.348    12.965
    196    C    -2.662    2.540    12.116
    197    H    -1.597    2.793    12.314
    198    H    -2.824    2.724    11.025
    199    C    -2.864    1.034    12.346
    200    H    -2.495    0.729    13.347
    201    O    -4.278    0.732    12.308
    202    C    -4.501    -0.513    11.692
    203    H    -5.090    -1.125    12.413
    204    N    -5.274    -0.351    10.457
    205    C    -5.819    -1.357    9.710
    206    N    -6.395    -4.729    9.171
    207    H    -5.959    -5.158    9.962
    208    H    -6.946    -5.295    8.551
    209    N    -5.723    -2.672    9.966
    210    C    -6.383    -3.412    9.081
    211    N    -7.066    -2.877    8.021
    212    H    -7.555    -3.503    7.400
    213    C    -7.177    -1.524    7.728
    214    O    -7.810    -1.123    6.748
    215    C    -6.477    -0.729    8.671
    216    N    -6.342    0.650    8.757
    217    C    -5.619    0.833    9.837
    218    H    -5.303    1.801    10.238
    219    C    -3.146    -1.138    11.464
    220    H    -3.122    -1.799    10.576
    221    O    -2.762    -1.872    12.611
    222    H    -1.855    -2.164    12.470
    223    C    -2.276    0.102    11.276
    224    H    -2.489    0.577    10.289
    225    O    -0.870    -0.101    11.523
    226    P    0.105    -0.360    10.316
    227    O    -0.241    0.554    9.203
    228    O    1.500    -0.303    10.816
    229    O    -0.256    -1.833    9.878
    230    C    -0.028    -2.942    10.775
    231    H    -0.499    -2.779    11.770
    232    H    1.064    -3.069    10.950
    233    C    -0.559    -4.258    10.195
    234    H    -0.312    -5.113    10.861
    235    O    -2.009    -4.208    10.076
    236    C    -2.398    -4.858    8.869
    237    H    -3.120    -5.652    9.171
    238    N    -3.060    -3.933    7.907
    239    C    -2.875    -2.574    8.011
    240    H    -2.247    -2.239    8.835
    241    C    -3.463    -1.719    7.167
    242    H    -3.353    -0.641    7.260
    243    C    -3.830    -4.441    6.865
    244    O    -3.949    -5.669    6.744
    245    N    -4.424    -3.594    5.995
    246    C    -4.264    -2.266    6.127
    247    N    -4.888    -1.456    5.276
    248    H    -5.458    -1.845    4.549
    249    H    -4.818    -0.460    5.342
    250    C    -1.158    -5.515    8.280
    251    H    -1.181    -5.530    7.168
    252    O    -1.016    -6.836    8.779
    253    H    -0.143    -7.175    8.520
    254    C    -0.061    -4.585    8.783
    255    H    -0.053    -3.646    8.190
    256    O    1.250    -5.178    8.829
    257    H    1.558    -5.381    7.926
 $END
