!*** FMO 5.3 (Gamess) INPUT generated by Facio 22.1.1.32 ***
 $CONTRL RUNTYP=ENERGY NPRINT=-5 ISPHER=1 MAXIT=200 $END
 $SYSTEM MWORDS=63 MEMDDI=63 $END
 $GDDI NGROUP=1 $END
 $SCF DIRSCF=.TRUE. NPUNCH=0 $END
!*** NumCPU : 2  MemPerNode : 512MB
 $PCM SOLVNT=WATER IEF=-10 ICOMP=2 ICAV=1 IDISP=1 IFMO=-1 $END
 $PCMCAV RADII=SUAHF $END
 $TESCAV NTSALL=60 $END
 $FMOPRP
    NAODIR=200
    NGRFMO(1)=1, 1, 0, 0, 0,   0, 0, 0, 0, 0
    IPIEDA=1
    NPRINT=9
 $END
 $FMO
      SCFTYP(1)=RHF
      MODGRD=10
      MODMUL=0
      MAXCAO=5
      MAXBND=10
      NLAYER=1
      MPLEVL(1)=2
      NFRAG=8
      ICHARG(1)=-1, -1, -1, -1, -1, -1, -1, 0
      FRGNAM(1)=F1, F2, F3, F4, F5, F6, F7, F8
      indat(1)=0
               1   -36   0
               37   -67   0
               68   -97   0
               98   -131   0
               132   -164   0
               165   -195   0
               196   -229   0
               230   -257   0
 $END

 $FMOBND
   -37   36       6-31G*    MINI
   -68   67       6-31G*    MINI
   -98   97       6-31G*    MINI
   -132   131       6-31G*    MINI
   -165   164       6-31G*    MINI
   -196   195       6-31G*    MINI
   -230   229       6-31G*    MINI
 $END
 $FMOHYB
 6-31G*      15   5
   1 0  -0.065034   0.288264   0.000000   0.000000   0.604412
         0.290129   0.000000   0.000000   0.319045  -0.017106
        -0.017106   0.057934   0.000000   0.000000   0.000000
   0 1  -0.065040   0.288293   0.569832   0.000000  -0.201456
         0.290147   0.300783   0.000000  -0.106342   0.049598
        -0.017106  -0.008771   0.000000  -0.027223   0.000000
   0 1  -0.065039   0.288293  -0.284916  -0.493490  -0.201455
         0.290145  -0.150392  -0.260486  -0.106340  -0.000427
         0.032923  -0.008771   0.033353   0.013612   0.023576
   0 1  -0.065039   0.288293  -0.284916   0.493490  -0.201455
         0.290145  -0.150392   0.260486  -0.106340  -0.000427
         0.032923  -0.008771  -0.033353   0.013612  -0.023576
   0 1   1.010938  -0.011975   0.000000   0.000000   0.000000
        -0.054085   0.000000   0.000000  -0.000000  -0.003174
        -0.003174  -0.003174   0.000000   0.000000   0.000000
 MINI         5   5
   1 0  -0.104883   0.308874   0.000000   0.000000   0.521806
   0 1  -0.104883   0.308874   0.491961   0.000000  -0.173934
   0 1  -0.104883   0.308876  -0.245980  -0.426050  -0.173933
   0 1  -0.104883   0.308876  -0.245980   0.426050  -0.173933
   0 1   0.988209   0.063992   0.000000   0.000000   0.000000
 $END
 
 $DATA
 FMO calculation
 C1 
 H.1-1    1
      N31 6
   
 O.1-1    8
      N31 6
      d 1
      1 0.800 1.0
   
 C.1-1    6
      N31 6
      d 1
      1 0.800 1.0
   
 N.1-1    7
      N31 6
      d 1
      1 0.800 1.0
   
 P.1-1   15
      N31 6
      d 1
      1 0.550 1.0
   
 $END
 $FMOXYZ
    1    H    -15.199    -3.222    -1.128
    2    O    -14.504    -3.747    -0.682
    3    C    -14.337    -4.949    -1.448
    4    H    -14.153    -4.682    -2.513
    5    H    -15.275    -5.546    -1.400
    6    C    -13.176    -5.813    -0.949
    7    H    -13.099    -6.756    -1.534
    8    O    -11.922    -5.090    -1.120
    9    C    -11.074    -5.354    -0.015
    10    H    -10.117    -5.756    -0.433
    11    N    -10.781    -4.130    0.749
    12    C    -9.752    -3.962    1.636
    13    N    -6.959    -5.205    3.261
    14    H    -6.932    -6.153    2.956
    15    H    -6.291    -4.890    3.940
    16    N    -8.850    -4.896    1.982
    17    C    -7.935    -4.429    2.827
    18    N    -7.929    -3.138    3.288
    19    H    -7.204    -2.869    3.934
    20    C    -8.841    -2.148    2.944
    21    O    -8.752    -1.000    3.394
    22    C    -9.834    -2.647    2.057
    23    N    -10.918    -2.005    1.467
    24    C    -11.460    -2.931    0.706
    25    H    -12.340    -2.795    0.071
    26    C    -11.739    -6.422    0.825
    27    H    -11.506    -6.318    1.904
    28    O    -11.334    -7.699    0.373
    29    H    -11.796    -8.344    0.921
    30    C    -13.218    -6.165    0.544
    31    H    -13.550    -5.241    1.075
    32    O    -14.102    -7.295    0.762
    33    P    -14.785    -7.440    2.186
    34    O    -15.349    -6.135    2.595
    35    O    -15.725    -8.585    2.161
    36    O    -13.582    -7.799    3.132
    37    C    -12.930    -9.089    3.045
    38    H    -12.564    -9.292    2.017
    39    H    -13.631    -9.911    3.321
    40    C    -11.716    -9.173    3.980
    41    H    -11.202    -10.152    3.871
    42    O    -10.749    -8.145    3.637
    43    C    -10.135    -7.668    4.827
    44    H    -9.044    -7.854    4.692
    45    N    -10.353    -6.212    5.046
    46    C    -11.431    -5.582    4.470
    47    H    -12.077    -6.215    3.861
    48    C    -11.637    -4.267    4.623
    49    H    -12.467    -3.747    4.147
    50    C    -9.490    -5.491    5.867
    51    O    -8.550    -6.079    6.424
    52    N    -9.677    -4.160    6.025
    53    C    -10.710    -3.544    5.426
    54    N    -10.855    -2.232    5.593
    55    H    -10.219    -1.747    6.200
    56    H    -11.579    -1.710    5.142
    57    C    -10.638    -8.521    5.978
    58    H    -10.725    -7.946    6.919
    59    O    -9.783    -9.632    6.172
    60    H    -10.213    -10.218    6.815
    61    C    -12.007    -8.954    5.470
    62    H    -12.726    -8.110    5.537
    63    O    -12.522    -10.171    6.054
    64    P    -13.327    -10.108    7.404
    65    O    -14.376    -9.077    7.272
    66    O    -13.768    -11.485    7.733
    67    O    -12.276    -9.645    8.476
    68    C    -12.695    -9.040    9.728
    69    H    -12.782    -9.822    10.517
    70    H    -13.694    -8.545    9.641
    71    C    -11.704    -7.966    10.223
    72    H    -10.805    -8.438    10.677
    73    O    -11.234    -7.163    9.101
    74    C    -11.197    -5.799    9.455
    75    H    -10.166    -5.449    9.216
    76    N    -12.191    -5.005    8.680
    77    C    -13.208    -5.619    7.978
    78    H    -13.245    -6.711    8.042
    79    C    -12.040    -3.637    8.651
    80    O    -11.136    -3.053    9.240
    81    N    -12.963    -2.969    7.889
    82    H    -12.839    -1.973    7.827
    83    C    -13.960    -3.519    7.112
    84    O    -14.655    -2.806    6.394
    85    C    -14.076    -4.941    7.217
    86    H    -14.841    -5.447    6.633
    87    C    -11.419    -5.731    10.954
    88    H    -11.921    -4.789    11.268
    89    O    -10.186    -5.879    11.635
    90    H    -10.397    -6.002    12.575
    91    C    -12.311    -6.937    11.197
    92    H    -13.347    -6.717    10.853
    93    O    -12.272    -7.449    12.545
    94    P    -13.147    -6.794    13.678
    95    O    -14.558    -6.955    13.252
    96    O    -12.751    -7.391    14.972
    97    O    -12.757    -5.268    13.711
    98    C    -13.769    -4.275    14.038
    99    H    -14.070    -4.357    15.106
    100    H    -14.697    -4.422    13.441
    101    C    -13.267    -2.835    13.794
    102    H    -12.377    -2.635    14.424
    103    O    -12.842    -2.658    12.406
    104    C    -13.254    -1.380    11.940
    105    H    -12.345    -0.915    11.501
    106    N    -14.308    -1.451    10.889
    107    C    -15.123    -2.514    10.541
    108    N    -16.111    -5.789    11.064
    109    H    -16.776    -6.446    10.713
    110    H    -15.538    -6.041    11.851
    111    N    -15.127    -3.731    11.104
    112    C    -16.001    -4.561    10.584
    113    N    -16.820    -4.216    9.542
    114    H    -17.439    -4.916    9.171
    115    C    -16.841    -2.970    8.917
    116    O    -17.612    -2.735    7.982
    117    C    -15.909    -2.065    9.504
    118    N    -15.609    -0.744    9.192
    119    C    -14.652    -0.422    10.035
    120    H    -14.169    0.557    10.087
    121    C    -13.688    -0.595    13.157
    122    H    -14.447    0.185    12.933
    123    O    -12.537    -0.025    13.768
    124    H    -12.242    0.803    13.329
    125    C    -14.284    -1.701    14.036
    126    H    -15.260    -2.050    13.627
    127    O    -14.381    -1.405    15.452
    128    P    -15.275    -0.195    15.944
    129    O    -16.573    -0.230    15.231
    130    O    -15.333    -0.231    17.425
    131    O    -14.496    1.105    15.532
    132    C    -15.077    2.414    15.409
    133    H    -16.025    2.516    15.985
    134    H    -15.316    2.601    14.339
    135    C    -14.088    3.496    15.876
    136    H    -14.490    4.514    15.694
    137    O    -13.889    3.364    17.314
    138    C    -12.525    3.604    17.628
    139    H    -12.516    4.431    18.375
    140    N    -11.897    2.421    18.225
    141    C    -10.553    1.098    19.360
    142    N    -11.572    0.288    18.874
    143    C    -12.341    1.119    18.207
    144    H    -13.260    0.848    17.686
    145    N    -8.615    1.872    20.482
    146    C    -8.910    3.081    19.994
    147    H    -8.221    3.880    20.281
    148    N    -9.958    3.463    19.254
    149    C    -10.741    2.411    18.962
    150    C    -9.432    0.832    20.175
    151    N    -9.144    -0.387    20.672
    152    H    -9.679    -1.195    20.416
    153    H    -8.319    -0.524    21.229
    154    C    -11.823    4.068    16.364
    155    H    -10.770    3.715    16.304
    156    O    -11.867    5.483    16.277
    157    H    -11.576    5.723    15.383
    158    C    -12.668    3.407    15.281
    159    H    -12.421    2.324    15.222
    160    O    -12.623    4.065    13.996
    161    P    -11.537    3.667    12.924
    162    O    -11.511    2.193    12.797
    163    O    -11.825    4.415    11.681
    164    O    -10.182    4.227    13.521
    165    C    -8.914    3.911    12.889
    166    H    -8.425    4.845    12.523
    167    H    -9.024    3.247    11.995
    168    C    -7.965    3.213    13.875
    169    H    -7.689    3.899    14.702
    170    O    -8.633    2.072    14.492
    171    C    -7.746    0.973    14.567
    172    H    -7.764    0.647    15.631
    173    N    -8.156    -0.169    13.698
    174    C    -9.025    0.039    12.648
    175    H    -9.419    1.051    12.550
    176    C    -9.400    -0.965    11.845
    177    H    -10.080    -0.826    11.007
    178    C    -7.654    -1.447    13.938
    179    O    -6.881    -1.630    14.892
    180    N    -8.037    -2.474    13.146
    181    C    -8.877    -2.258    12.119
    182    N    -9.221    -3.264    11.331
    183    H    -9.086    -4.199    11.658
    184    H    -9.950    -3.145    10.654
    185    C    -6.365    1.489    14.234
    186    H    -5.756    0.707    13.758
    187    O    -5.703    1.944    15.402
    188    H    -4.924    2.447    15.118
    189    C    -6.681    2.626    13.269
    190    H    -6.987    2.216    12.280
    191    O    -5.647    3.632    13.183
    192    P    -4.826    3.838    11.853
    193    O    -5.765    4.169    10.759
    194    O    -3.734    4.802    12.114
    195    O    -4.188    2.441    11.533
    196    C    -3.164    1.870    12.371
    197    H    -3.398    2.006    13.455
    198    H    -2.189    2.372    12.170
    199    C    -3.018    0.360    12.120
    200    H    -2.267    -0.079    12.813
    201    O    -4.287    -0.304    12.374
    202    C    -4.527    -1.288    11.388
    203    H    -4.789    -2.227    11.928
    204    N    -5.650    -0.918    10.508
    205    C    -6.323    -1.746    9.654
    206    N    -6.822    -4.882    8.289
    207    H    -6.115    -5.431    8.730
    208    H    -7.428    -5.308    7.609
    209    N    -6.067    -3.048    9.456
    210    C    -6.919    -3.604    8.599
    211    N    -7.915    -2.905    7.967
    212    H    -8.516    -3.403    7.329
    213    C    -8.198    -1.558    8.145
    214    O    -9.116    -0.996    7.538
    215    C    -7.301    -0.963    9.069
    216    N    -7.240    0.338    9.544
    217    C    -6.245    0.315    10.394
    218    H    -5.905    1.156    10.990
    219    C    -3.233    -1.472    10.635
    220    H    -3.395    -1.809    9.593
    221    O    -2.413    -2.405    11.318
    222    H    -1.553    -2.400    10.880
    223    C    -2.653    -0.058    10.690
    224    H    -3.223    0.620    10.012
    225    O    -1.220    0.025    10.506
    226    P    -0.658    0.327    9.067
    227    O    -1.420    1.440    8.463
    228    O    0.810    0.481    9.118
    229    O    -0.979    -0.984    8.258
    230    C    -0.321    -2.225    8.610
    231    H    -0.462    -2.480    9.683
    232    H    0.780    -2.149    8.434
    233    C    -0.867    -3.390    7.776
    234    H    -0.330    -4.334    8.025
    235    O    -2.281    -3.603    8.058
    236    C    -2.957    -3.931    6.848
    237    H    -3.463    -4.906    7.036
    238    N    -3.984    -2.920    6.468
    239    C    -3.923    -1.645    6.978
    240    H    -3.115    -1.450    7.678
    241    C    -4.831    -0.715    6.659
    242    H    -4.810    0.289    7.078
    243    C    -4.988    -3.246    5.561
    244    O    -5.014    -4.384    5.071
    245    N    -5.915    -2.321    5.224
    246    C    -5.859    -1.084    5.747
    247    N    -6.795    -0.200    5.411
    248    H    -7.516    -0.467    4.768
    249    H    -6.829    0.715    5.814
    250    C    -1.899    -4.119    5.770
    251    H    -2.264    -3.810    4.767
    252    O    -1.473    -5.472    5.738
    253    H    -0.671    -5.538    5.191
    254    C    -0.803    -3.177    6.260
    255    H    -1.072    -2.120    6.035
    256    O    0.514    -3.487    5.770
    257    H    0.574    -3.291    4.817
 $END
