!*** FMO 5.3 (Gamess) INPUT generated by Facio 22.1.1.32 ***
 $CONTRL RUNTYP=ENERGY NPRINT=-5 ISPHER=1 MAXIT=200 $END
 $SYSTEM MWORDS=63 MEMDDI=63 $END
 $GDDI NGROUP=1 $END
 $SCF DIRSCF=.TRUE. NPUNCH=0 $END
!*** NumCPU : 2  MemPerNode : 512MB
 $PCM SOLVNT=WATER IEF=-10 ICOMP=2 ICAV=1 IDISP=1 IFMO=-1 $END
 $PCMCAV RADII=SUAHF $END
 $TESCAV NTSALL=60 $END
 $FMOPRP
    NAODIR=200
    NGRFMO(1)=1, 1, 0, 0, 0,   0, 0, 0, 0, 0
    IPIEDA=1
    NPRINT=9
 $END
 $FMO
      SCFTYP(1)=RHF
      MODGRD=10
      MODMUL=0
      MAXCAO=5
      MAXBND=10
      NLAYER=1
      MPLEVL(1)=2
      NFRAG=8
      ICHARG(1)=-1, -1, -1, -1, -1, -1, -1, 0
      FRGNAM(1)=F1, F2, F3, F4, F5, F6, F7, F8
      indat(1)=0
               1   -36   0
               37   -67   0
               68   -97   0
               98   -131   0
               132   -164   0
               165   -195   0
               196   -229   0
               230   -257   0
 $END

 $FMOBND
   -37   36       6-31G*    MINI
   -68   67       6-31G*    MINI
   -98   97       6-31G*    MINI
   -132   131       6-31G*    MINI
   -165   164       6-31G*    MINI
   -196   195       6-31G*    MINI
   -230   229       6-31G*    MINI
 $END
 $FMOHYB
 6-31G*      15   5
   1 0  -0.065034   0.288264   0.000000   0.000000   0.604412
         0.290129   0.000000   0.000000   0.319045  -0.017106
        -0.017106   0.057934   0.000000   0.000000   0.000000
   0 1  -0.065040   0.288293   0.569832   0.000000  -0.201456
         0.290147   0.300783   0.000000  -0.106342   0.049598
        -0.017106  -0.008771   0.000000  -0.027223   0.000000
   0 1  -0.065039   0.288293  -0.284916  -0.493490  -0.201455
         0.290145  -0.150392  -0.260486  -0.106340  -0.000427
         0.032923  -0.008771   0.033353   0.013612   0.023576
   0 1  -0.065039   0.288293  -0.284916   0.493490  -0.201455
         0.290145  -0.150392   0.260486  -0.106340  -0.000427
         0.032923  -0.008771  -0.033353   0.013612  -0.023576
   0 1   1.010938  -0.011975   0.000000   0.000000   0.000000
        -0.054085   0.000000   0.000000  -0.000000  -0.003174
        -0.003174  -0.003174   0.000000   0.000000   0.000000
 MINI         5   5
   1 0  -0.104883   0.308874   0.000000   0.000000   0.521806
   0 1  -0.104883   0.308874   0.491961   0.000000  -0.173934
   0 1  -0.104883   0.308876  -0.245980  -0.426050  -0.173933
   0 1  -0.104883   0.308876  -0.245980   0.426050  -0.173933
   0 1   0.988209   0.063992   0.000000   0.000000   0.000000
 $END
 
 $DATA
 FMO calculation
 C1 
 H.1-1    1
      N31 6
   
 O.1-1    8
      N31 6
      d 1
      1 0.800 1.0
   
 C.1-1    6
      N31 6
      d 1
      1 0.800 1.0
   
 N.1-1    7
      N31 6
      d 1
      1 0.800 1.0
   
 P.1-1   15
      N31 6
      d 1
      1 0.550 1.0
   
 $END
 $FMOXYZ
    1    H    -13.589    -6.267    -2.506
    2    O    -12.910    -6.561    -1.869
    3    C    -12.582    -7.915    -2.218
    4    H    -12.191    -7.945    -3.260
    5    H    -13.505    -8.536    -2.180
    6    C    -11.537    -8.534    -1.286
    7    H    -11.318    -9.581    -1.587
    8    O    -10.284    -7.793    -1.365
    9    C    -9.700    -7.729    -0.073
    10    H    -8.669    -8.144    -0.152
    11    N    -9.623    -6.342    0.409
    12    C    -8.842    -5.893    1.439
    13    N    -6.501    -6.509    3.908
    14    H    -6.361    -7.495    3.840
    15    H    -5.991    -5.991    4.601
    16    N    -8.028    -6.648    2.194
    17    C    -7.350    -5.929    3.083
    18    N    -7.467    -4.568    3.192
    19    H    -6.918    -4.100    3.897
    20    C    -8.298    -3.761    2.426
    21    O    -8.337    -2.537    2.589
    22    C    -9.049    -4.528    1.495
    23    N    -9.974    -4.127    0.538
    24    C    -10.289    -5.240    -0.086
    25    H    -10.984    -5.321    -0.928
    26    C    -10.520    -8.610    0.840
    27    H    -10.529    -8.243    1.885
    28    O    -10.023    -9.932    0.805
    29    H    -10.618    -10.454    1.354
    30    C    -11.902    -8.524    0.205
    31    H    -12.371    -7.535    0.417
    32    O    -12.776    -9.638    0.504
    33    P    -13.743    -9.549    1.742
    34    O    -14.481    -8.274    1.686
    35    O    -14.556    -10.788    1.766
    36    O    -12.768    -9.511    2.976
    37    C    -12.054    -10.706    3.371
    38    H    -11.492    -11.155    2.519
    39    H    -12.774    -11.477    3.737
    40    C    -11.056    -10.407    4.499
    41    H    -10.461    -11.312    4.751
    42    O    -10.105    -9.378    4.093
    43    C    -9.782    -8.567    5.221
    44    H    -8.678    -8.652    5.352
    45    N    -10.135    -7.127    5.039
    46    C    -11.054    -6.761    4.084
    47    H    -11.498    -7.577    3.511
    48    C    -11.368    -5.477    3.870
    49    H    -12.072    -5.171    3.098
    50    C    -9.562    -6.148    5.855
    51    O    -8.759    -6.486    6.738
    52    N    -9.871    -4.845    5.656
    53    C    -10.741    -4.498    4.693
    54    N    -11.007    -3.210    4.502
    55    H    -10.537    -2.520    5.060
    56    H    -11.587    -2.891    3.755
    57    C    -10.467    -9.181    6.422
    58    H    -10.779    -8.416    7.146
    59    O    -9.613    -10.104    7.068
    60    H    -10.157    -10.640    7.667
    61    C    -11.670    -9.865    5.791
    62    H    -12.435    -9.118    5.483
    63    O    -12.209    -10.941    6.582
    64    P    -13.525    -10.761    7.421
    65    O    -14.682    -10.717    6.506
    66    O    -13.549    -11.820    8.450
    67    O    -13.416    -9.365    8.139
    68    C    -12.522    -9.155    9.254
    69    H    -11.502    -9.548    9.040
    70    H    -12.902    -9.679    10.163
    71    C    -12.390    -7.659    9.579
    72    H    -11.665    -7.514    10.410
    73    O    -11.869    -6.928    8.431
    74    C    -12.509    -5.679    8.311
    75    H    -11.668    -4.954    8.282
    76    N    -13.289    -5.548    7.048
    77    C    -13.623    -6.657    6.303
    78    H    -13.284    -7.607    6.712
    79    C    -13.613    -4.282    6.609
    80    O    -13.312    -3.268    7.229
    81    N    -14.275    -4.237    5.410
    82    H    -14.546    -3.317    5.092
    83    C    -14.618    -5.299    4.601
    84    O    -15.178    -5.094    3.528
    85    C    -14.248    -6.582    5.119
    86    H    -14.452    -7.466    4.519
    87    C    -13.328    -5.482    9.574
    88    H    -14.248    -4.879    9.410
    89    O    -12.481    -4.880    10.541
    90    H    -12.745    -3.959    10.649
    91    C    -13.673    -6.927    9.963
    92    H    -14.470    -7.325    9.300
    93    O    -13.977    -7.166    11.367
    94    P    -15.173    -6.326    11.970
    95    O    -16.142    -6.060    10.884
    96    O    -15.731    -7.019    13.155
    97    O    -14.600    -4.939    12.442
    98    C    -13.979    -4.767    13.731
    99    H    -13.141    -5.490    13.864
    100    H    -14.727    -4.949    14.537
    101    C    -13.399    -3.344    13.880
    102    H    -12.499    -3.243    13.236
    103    O    -14.358    -2.328    13.467
    104    C    -14.883    -1.683    14.609
    105    H    -14.439    -0.663    14.598
    106    N    -16.345    -1.615    14.549
    107    C    -17.127    -0.547    14.901
    108    N    -17.459    2.710    16.030
    109    H    -18.187    3.374    16.190
    110    H    -16.516    2.952    16.249
    111    N    -16.689    0.639    15.373
    112    C    -17.695    1.493    15.578
    113    N    -19.007    1.192    15.329
    114    H    -19.696    1.900    15.498
    115    C    -19.483    -0.025    14.860
    116    O    -20.688    -0.221    14.666
    117    C    -18.428    -0.951    14.651
    118    N    -18.462    -2.258    14.172
    119    C    -17.197    -2.610    14.125
    120    H    -16.815    -3.574    13.777
    121    C    -14.400    -2.428    15.830
    122    H    -15.078    -3.282    16.067
    123    O    -14.308    -1.574    16.954
    124    H    -13.434    -1.129    16.954
    125    C    -13.052    -2.983    15.340
    126    H    -12.822    -3.939    15.868
    127    O    -11.925    -2.075    15.398
    128    P    -11.144    -1.884    16.750
    129    O    -11.844    -0.821    17.504
    130    O    -10.984    -3.194    17.416
    131    O    -9.743    -1.370    16.278
    132    C    -9.105    -0.196    16.816
    133    H    -8.062    -0.463    17.077
    134    H    -9.578    0.187    17.747
    135    C    -9.069    0.964    15.818
    136    H    -8.389    1.752    16.194
    137    O    -8.464    0.556    14.575
    138    C    -9.217    1.054    13.481
    139    H    -8.500    1.617    12.841
    140    N    -9.761    -0.048    12.698
    141    C    -10.636    -1.236    11.082
    142    N    -10.255    -2.146    12.056
    143    C    -9.739    -1.392    12.996
    144    H    -9.319    -1.757    13.936
    145    N    -11.515    -0.295    9.096
    146    C    -11.175    0.892    9.603
    147    H    -11.408    1.753    8.967
    148    N    -10.620    1.181    10.786
    149    C    -10.353    0.057    11.472
    150    C    -11.243    -1.397    9.825
    151    N    -11.508    -2.587    9.286
    152    H    -11.259    -3.441    9.747
    153    H    -12.020    -2.627    8.423
    154    C    -10.293    1.993    14.001
    155    H    -11.252    1.903    13.444
    156    O    -9.853    3.327    13.941
    157    H    -9.113    3.433    14.567
    158    C    -10.466    1.513    15.435
    159    H    -11.145    0.635    15.395
    160    O    -11.003    2.462    16.379
    161    P    -10.211    3.478    17.283
    162    O    -11.130    4.598    17.609
    163    O    -9.620    2.747    18.411
    164    O    -9.044    4.024    16.382
    165    C    -8.555    5.375    16.451
    166    H    -8.685    5.817    17.469
    167    H    -9.117    6.020    15.739
    168    C    -7.063    5.435    16.089
    169    H    -6.721    6.485    15.979
    170    O    -6.303    4.856    17.192
    171    C    -5.231    4.063    16.684
    172    H    -4.310    4.448    17.174
    173    N    -5.370    2.606    17.010
    174    C    -6.207    2.244    18.049
    175    H    -6.820    3.038    18.486
    176    C    -6.316    0.973    18.449
    177    H    -6.993    0.671    19.246
    178    C    -4.511    1.637    16.468
    179    O    -3.594    1.980    15.704
    180    N    -4.663    0.340    16.808
    181    C    -5.518    -0.002    17.784
    182    N    -5.602    -1.282    18.137
    183    H    -5.042    -1.951    17.645
    184    H    -6.217    -1.603    18.855
    185    C    -5.165    4.344    15.197
    186    H    -4.830    3.483    14.587
    187    O    -4.318    5.454    14.957
    188    H    -4.350    5.647    14.006
    189    C    -6.614    4.634    14.849
    190    H    -7.187    3.678    14.821
    191    O    -6.793    5.407    13.645
    192    P    -6.620    4.748    12.218
    193    O    -7.715    3.787    12.011
    194    O    -6.564    5.846    11.237
    195    O    -5.207    4.029    12.201
    196    C    -4.817    3.211    11.072
    197    H    -3.783    3.489    10.769
    198    H    -5.450    3.389    10.166
    199    C    -4.813    1.717    11.442
    200    H    -4.323    1.560    12.428
    201    O    -6.178    1.230    11.546
    202    C    -6.276    -0.065    10.970
    203    H    -6.762    -0.716    11.732
    204    N    -7.104    -0.062    9.754
    205    C    -7.583    -1.151    9.069
    206    N    -7.817    -4.580    8.641
    207    H    -7.305    -4.934    9.422
    208    H    -8.202    -5.223    7.974
    209    N    -7.371    -2.443    9.381
    210    C    -7.945    -3.273    8.513
    211    N    -8.699    -2.848    7.452
    212    H    -9.109    -3.547    6.852
    213    C    -8.974    -1.525    7.128
    214    O    -9.676    -1.238    6.151
    215    C    -8.311    -0.631    8.014
    216    N    -8.270    0.757    8.023
    217    C    -7.551    1.048    9.080
    218    H    -7.298    2.051    9.430
    219    C    -4.869    -0.545    10.702
    220    H    -4.799    -1.242    9.841
    221    O    -4.363    -1.179    11.862
    222    H    -4.340    -0.526    12.575
    223    C    -4.160    0.773    10.416
    224    H    -4.469    1.158    9.416
    225    O    -2.730    0.733    10.604
    226    P    -1.775    0.729    9.356
    227    O    -2.336    1.634    8.328
    228    O    -0.394    1.021    9.803
    229    O    -1.850    -0.756    8.828
    230    C    -1.383    -1.828    9.682
    231    H    -1.868    -1.796    10.687
    232    H    -0.281    -1.744    9.834
    233    C    -1.651    -3.205    9.061
    234    H    -1.167    -4.006    9.663
    235    O    -3.080    -3.489    9.059
    236    C    -3.432    -4.126    7.837
    237    H    -3.952    -5.068    8.128
    238    N    -4.359    -3.309    7.005
    239    C    -4.447    -1.949    7.194
    240    H    -3.834    -1.538    7.996
    241    C    -5.271    -1.191    6.459
    242    H    -5.369    -0.118    6.611
    243    C    -5.108    -3.913    5.998
    244    O    -4.988    -5.131    5.802
    245    N    -5.955    -3.167    5.253
    246    C    -6.044    -1.841    5.456
    247    N    -6.884    -1.134    4.706
    248    H    -7.434    -1.597    4.007
    249    H    -6.988    -0.146    4.814
    250    C    -2.145    -4.473    7.107
    251    H    -2.257    -4.427    6.001
    252    O    -1.693    -5.764    7.487
    253    H    -1.475    -5.756    8.433
    254    C    -1.218    -3.363    7.598
    255    H    -1.442    -2.417    7.062
    256    O    0.183    -3.669    7.525
    257    H    0.427    -3.846    6.599
 $END
