!*** FMO 5.3 (Gamess) INPUT generated by Facio 22.1.1.32 ***
 $CONTRL RUNTYP=ENERGY NPRINT=-5 ISPHER=1 MAXIT=200 $END
 $SYSTEM MWORDS=63 MEMDDI=63 $END
 $GDDI NGROUP=1 $END
 $SCF DIRSCF=.TRUE. NPUNCH=0 $END
!*** NumCPU : 2  MemPerNode : 512MB
 $PCM SOLVNT=WATER IEF=-10 ICOMP=2 ICAV=1 IDISP=1 IFMO=-1 $END
 $PCMCAV RADII=SUAHF $END
 $TESCAV NTSALL=60 $END
 $FMOPRP
    NAODIR=200
    NGRFMO(1)=1, 1, 0, 0, 0,   0, 0, 0, 0, 0
    IPIEDA=1
    NPRINT=9
 $END
 $FMO
      SCFTYP(1)=RHF
      MODGRD=10
      MODMUL=0
      MAXCAO=5
      MAXBND=10
      NLAYER=1
      MPLEVL(1)=2
      NFRAG=8
      ICHARG(1)=-1, -1, -1, -1, -1, -1, -1, 0
      FRGNAM(1)=F1, F2, F3, F4, F5, F6, F7, F8
      indat(1)=0
               1   -36   0
               37   -67   0
               68   -97   0
               98   -131   0
               132   -164   0
               165   -195   0
               196   -229   0
               230   -257   0
 $END

 $FMOBND
   -37   36       6-31G*    MINI
   -68   67       6-31G*    MINI
   -98   97       6-31G*    MINI
   -132   131       6-31G*    MINI
   -165   164       6-31G*    MINI
   -196   195       6-31G*    MINI
   -230   229       6-31G*    MINI
 $END
 $FMOHYB
 6-31G*      15   5
   1 0  -0.065034   0.288264   0.000000   0.000000   0.604412
         0.290129   0.000000   0.000000   0.319045  -0.017106
        -0.017106   0.057934   0.000000   0.000000   0.000000
   0 1  -0.065040   0.288293   0.569832   0.000000  -0.201456
         0.290147   0.300783   0.000000  -0.106342   0.049598
        -0.017106  -0.008771   0.000000  -0.027223   0.000000
   0 1  -0.065039   0.288293  -0.284916  -0.493490  -0.201455
         0.290145  -0.150392  -0.260486  -0.106340  -0.000427
         0.032923  -0.008771   0.033353   0.013612   0.023576
   0 1  -0.065039   0.288293  -0.284916   0.493490  -0.201455
         0.290145  -0.150392   0.260486  -0.106340  -0.000427
         0.032923  -0.008771  -0.033353   0.013612  -0.023576
   0 1   1.010938  -0.011975   0.000000   0.000000   0.000000
        -0.054085   0.000000   0.000000  -0.000000  -0.003174
        -0.003174  -0.003174   0.000000   0.000000   0.000000
 MINI         5   5
   1 0  -0.104883   0.308874   0.000000   0.000000   0.521806
   0 1  -0.104883   0.308874   0.491961   0.000000  -0.173934
   0 1  -0.104883   0.308876  -0.245980  -0.426050  -0.173933
   0 1  -0.104883   0.308876  -0.245980   0.426050  -0.173933
   0 1   0.988209   0.063992   0.000000   0.000000   0.000000
 $END
 
 $DATA
 FMO calculation
 C1 
 H.1-1    1
      N31 6
   
 O.1-1    8
      N31 6
      d 1
      1 0.800 1.0
   
 C.1-1    6
      N31 6
      d 1
      1 0.800 1.0
   
 N.1-1    7
      N31 6
      d 1
      1 0.800 1.0
   
 P.1-1   15
      N31 6
      d 1
      1 0.550 1.0
   
 $END
 $FMOXYZ
    1    H    -11.244    -4.574    -2.654
    2    O    -10.637    -4.847    -1.939
    3    C    -10.537    -6.278    -1.996
    4    H    -10.220    -6.577    -3.021
    5    H    -11.540    -6.723    -1.807
    6    C    -9.540    -6.868    -0.988
    7    H    -9.303    -7.919    -1.261
    8    O    -8.288    -6.140    -0.995
    9    C    -7.709    -6.188    0.296
    10    H    -6.784    -6.797    0.193
    11    N    -7.338    -4.855    0.761
    12    C    -6.484    -4.569    1.789
    13    N    -4.384    -5.595    4.353
    14    H    -4.448    -6.592    4.314
    15    H    -3.799    -5.162    5.035
    16    N    -5.827    -5.464    2.556
    17    C    -5.074    -4.876    3.482
    18    N    -4.947    -3.512    3.590
    19    H    -4.348    -3.141    4.309
    20    C    -5.597    -2.571    2.790
    21    O    -5.466    -1.348    2.891
    22    C    -6.424    -3.192    1.834
    23    N    -7.234    -2.621    0.861
    24    C    -7.758    -3.649    0.243
    25    H    -8.450    -3.595    -0.603
    26    C    -8.675    -6.887    1.244
    27    H    -8.781    -6.346    2.209
    28    O    -8.250    -8.211    1.498
    29    H    -8.957    -8.630    2.012
    30    C    -9.995    -6.859    0.475
    31    H    -10.487    -5.869    0.633
    32    O    -10.858    -7.994    0.742
    33    P    -12.326    -7.810    1.258
    34    O    -13.136    -8.939    0.754
    35    O    -12.812    -6.447    0.952
    36    O    -12.180    -7.943    2.815
    37    C    -12.336    -9.224    3.466
    38    H    -12.066    -10.073    2.790
    39    H    -13.409    -9.370    3.742
    40    C    -11.446    -9.363    4.723
    41    H    -11.364    -10.443    4.981
    42    O    -10.082    -8.866    4.476
    43    C    -9.587    -8.268    5.684
    44    H    -8.594    -8.735    5.882
    45    N    -9.428    -6.780    5.589
    46    C    -10.114    -6.107    4.611
    47    H    -10.700    -6.720    3.934
    48    C    -10.051    -4.781    4.483
    49    H    -10.601    -4.244    3.713
    50    C    -8.635    -6.058    6.493
    51    O    -8.010    -6.666    7.372
    52    N    -8.561    -4.700    6.383
    53    C    -9.246    -4.070    5.410
    54    N    -9.191    -2.748    5.299
    55    H    -8.697    -2.195    5.974
    56    H    -9.725    -2.258    4.608
    57    C    -10.568    -8.661    6.780
    58    H    -10.573    -7.946    7.630
    59    O    -10.279    -9.968    7.248
    60    H    -11.042    -10.266    7.770
    61    C    -11.885    -8.624    6.009
    62    H    -12.115    -7.567    5.744
    63    O    -12.981    -9.296    6.685
    64    P    -14.461    -8.812    6.389
    65    O    -15.248    -9.974    5.939
    66    O    -14.448    -7.644    5.481
    67    O    -15.086    -8.340    7.741
    68    C    -15.217    -9.095    8.957
    69    H    -14.772    -10.116    8.859
    70    H    -16.301    -9.228    9.178
    71    C    -14.566    -8.395    10.171
    72    H    -14.487    -9.110    11.016
    73    O    -13.207    -7.969    9.804
    74    C    -12.967    -6.656    10.283
    75    H    -11.968    -6.687    10.775
    76    N    -12.998    -5.635    9.171
    77    C    -14.004    -5.614    8.229
    78    H    -14.786    -6.339    8.298
    79    C    -12.030    -4.658    9.137
    80    O    -11.144    -4.593    9.976
    81    N    -12.127    -3.770    8.086
    82    H    -11.480    -3.002    8.106
    83    C    -13.106    -3.723    7.117
    84    O    -13.068    -2.888    6.216
    85    C    -14.102    -4.720    7.250
    86    H    -14.923    -4.755    6.541
    87    C    -14.020    -6.393    11.331
    88    H    -14.178    -5.302    11.445
    89    O    -13.673    -6.975    12.576
    90    H    -13.580    -7.935    12.464
    91    C    -15.220    -7.095    10.711
    92    H    -15.553    -6.538    9.827
    93    O    -16.327    -7.333    11.606
    94    P    -17.648    -6.464    11.418
    95    O    -17.567    -5.594    10.224
    96    O    -18.817    -7.370    11.456
    97    O    -17.701    -5.514    12.665
    98    C    -16.605    -4.691    13.100
    99    H    -15.639    -4.977    12.672
    100    H    -16.516    -4.912    14.186
    101    C    -16.846    -3.175    12.865
    102    H    -17.606    -3.019    12.068
    103    O    -17.392    -2.741    14.145
    104    C    -16.461    -1.904    14.793
    105    H    -17.074    -1.187    15.386
    106    N    -15.548    -2.602    15.733
    107    C    -15.271    -2.169    17.009
    108    N    -15.613    0.179    19.542
    109    H    -15.286    0.311    20.479
    110    H    -16.181    0.880    19.116
    111    N    -15.748    -1.049    17.587
    112    C    -15.286    -0.885    18.829
    113    N    -14.479    -1.797    19.458
    114    H    -14.195    -1.616    20.405
    115    C    -14.014    -2.982    18.902
    116    O    -13.310    -3.767    19.547
    117    C    -14.435    -3.124    17.555
    118    N    -14.141    -4.112    16.630
    119    C    -14.800    -3.754    15.560
    120    H    -14.745    -4.304    14.623
    121    C    -15.760    -1.162    13.717
    122    H    -14.762    -0.826    14.027
    123    O    -16.598    -0.079    13.346
    124    H    -17.362    -0.445    12.876
    125    C    -15.618    -2.185    12.588
    126    H    -14.690    -2.781    12.733
    127    O    -15.618    -1.587    11.257
    128    P    -14.644    -0.434    10.683
    129    O    -13.653    -1.077    9.795
    130    O    -15.462    0.620    10.037
    131    O    -13.836    0.237    11.870
    132    C    -14.158    1.571    12.361
    133    H    -15.241    1.669    12.576
    134    H    -13.920    2.339    11.592
    135    C    -13.422    1.960    13.665
    136    H    -13.913    2.824    14.163
    137    O    -13.444    0.855    14.606
    138    C    -12.183    0.651    15.175
    139    H    -12.349    0.711    16.276
    140    N    -11.639    -0.674    14.859
    141    C    -10.484    -2.530    15.075
    142    N    -11.184    -2.647    13.879
    143    C    -11.853    -1.520    13.791
    144    H    -12.512    -1.258    12.964
    145    N    -9.095    -2.962    16.947
    146    C    -9.459    -1.757    17.396
    147    H    -9.021    -1.459    18.356
    148    N    -10.286    -0.866    16.846
    149    C    -10.767    -1.322    15.682
    150    C    -9.590    -3.387    15.756
    151    N    -9.176    -4.577    15.286
    152    H    -9.490    -4.939    14.403
    153    H    -8.549    -5.135    15.834
    154    C    -11.277    1.783    14.750
    155    H    -10.241    1.439    14.547
    156    O    -11.247    2.779    15.748
    157    H    -10.852    3.565    15.344
    158    C    -11.937    2.289    13.471
    159    H    -11.621    1.647    12.618
    160    O    -11.745    3.710    13.237
    161    P    -11.017    4.250    11.946
    162    O    -11.050    3.207    10.903
    163    O    -11.571    5.575    11.595
    164    O    -9.519    4.455    12.354
    165    C    -8.915    5.478    13.159
    166    H    -9.668    5.970    13.814
    167    H    -8.497    6.263    12.491
    168    C    -7.748    4.958    14.051
    169    H    -7.493    5.723    14.814
    170    O    -8.155    3.737    14.766
    171    C    -7.086    2.777    14.708
    172    H    -6.960    2.378    15.740
    173    N    -7.334    1.634    13.760
    174    C    -8.316    1.764    12.828
    175    H    -8.965    2.587    12.988
    176    C    -8.585    0.834    11.908
    177    H    -9.383    0.954    11.178
    178    C    -6.567    0.473    13.773
    179    O    -5.677    0.348    14.627
    180    N    -6.850    -0.521    12.881
    181    C    -7.822    -0.350    11.970
    182    N    -8.104    -1.322    11.113
    183    H    -7.496    -2.113    11.110
    184    H    -8.785    -1.200    10.394
    185    C    -5.851    3.550    14.327
    186    H    -5.117    2.876    13.853
    187    O    -5.268    4.187    15.452
    188    H    -4.629    4.841    15.127
    189    C    -6.416    4.563    13.338
    190    H    -6.692    4.068    12.380
    191    O    -5.568    5.710    13.116
    192    P    -4.176    5.610    12.350
    193    O    -4.338    6.263    11.033
    194    O    -3.116    6.149    13.229
    195    O    -3.881    4.092    12.086
    196    C    -2.877    3.360    12.836
    197    H    -3.039    3.474    13.933
    198    H    -1.860    3.754    12.616
    199    C    -2.892    1.846    12.522
    200    H    -2.634    1.248    13.424
    201    O    -4.197    1.412    12.076
    202    C    -4.070    0.243    11.313
    203    H    -4.268    -0.599    12.015
    204    N    -5.048    0.206    10.227
    205    C    -5.576    -0.888    9.575
    206    N    -5.950    -4.330    9.155
    207    H    -6.520    -4.950    8.623
    208    H    -5.330    -4.708    9.842
    209    N    -5.314    -2.196    9.825
    210    C    -6.043    -3.014    9.058
    211    N    -6.968    -2.571    8.149
    212    H    -7.478    -3.257    7.623
    213    C    -7.254    -1.236    7.882
    214    O    -8.107    -0.912    7.053
    215    C    -6.471    -0.356    8.663
    216    N    -6.492    1.035    8.727
    217    C    -5.637    1.319    9.675
    218    H    -5.388    2.326    10.028
    219    C    -2.659    0.180    10.794
    220    H    -2.605    0.234    9.685
    221    O    -2.084    -1.023    11.247
    222    H    -1.349    -1.191    10.630
    223    C    -1.961    1.415    11.397
    224    H    -2.004    2.261    10.672
    225    O    -0.618    1.199    11.899
    226    P    0.610    1.239    10.913
    227    O    0.570    2.508    10.150
    228    O    1.839    0.992    11.698
    229    O    0.423    0.043    9.906
    230    C    0.819    -1.314    10.242
    231    H    0.558    -1.561    11.301
    232    H    1.923    -1.427    10.144
    233    C    0.143    -2.371    9.335
    234    H    -0.028    -3.315    9.896
    235    O    -1.146    -1.898    8.905
    236    C    -1.496    -2.450    7.678
    237    H    -2.219    -3.252    7.952
    238    N    -2.175    -1.476    6.800
    239    C    -1.982    -0.115    6.934
    240    H    -1.303    0.204    7.728
    241    C    -2.625    0.756    6.130
    242    H    -2.513    1.832    6.222
    243    C    -3.010    -1.970    5.815
    244    O    -3.157    -3.196    5.694
    245    N    -3.641    -1.112    5.000
    246    C    -3.478    0.211    5.128
    247    N    -4.135    1.007    4.282
    248    H    -4.716    0.551    3.607
    249    H    -4.074    2.004    4.303
    250    C    -0.260    -3.077    7.049
    251    H    -0.023    -2.621    6.059
    252    O    -0.440    -4.475    6.890
    253    H    -0.519    -4.886    7.766
    254    C    0.866    -2.722    8.041
    255    H    1.383    -1.796    7.705
    256    O    1.818    -3.774    8.279
    257    H    2.157    -4.090    7.425
 $END
