!*** FMO 5.3 (Gamess) INPUT generated by Facio 22.1.1.32 ***
 $CONTRL RUNTYP=ENERGY NPRINT=-5 ISPHER=1 MAXIT=200 $END
 $SYSTEM MWORDS=63 MEMDDI=63 $END
 $GDDI NGROUP=1 $END
 $SCF DIRSCF=.TRUE. NPUNCH=0 $END
!*** NumCPU : 2  MemPerNode : 512MB
 $PCM SOLVNT=WATER IEF=-10 ICOMP=2 ICAV=1 IDISP=1 IFMO=-1 $END
 $PCMCAV RADII=SUAHF $END
 $TESCAV NTSALL=60 $END
 $FMOPRP
    NAODIR=200
    NGRFMO(1)=1, 1, 0, 0, 0,   0, 0, 0, 0, 0
    IPIEDA=1
    NPRINT=9
 $END
 $FMO
      SCFTYP(1)=RHF
      MODGRD=10
      MODMUL=0
      MAXCAO=5
      MAXBND=15
      NLAYER=1
      MPLEVL(1)=2
      NFRAG=13
      ICHARG(1)=-1, -1, -1, -1, -1, 0, -1, -1, -1, -1, -1, -1, 0
      FRGNAM(1)=F1, F2, F3, F4, F5, F6, F7, F8, F9, F10, F11, F12, F13
      indat(1)=0
               1   -33   0
               34   -67   0
               68   -101   0
               102   -135   0
               136   -169   0
               170   -202   0
               203   -233   0
               234   -264   0
               265   -294   0
               295   -327   0
               328   -357   0
               358   -388   0
               389   -419   0
 $END

 $FMOBND
   -34   33       6-31G*    MINI
   -68   67       6-31G*    MINI
   -102   101       6-31G*    MINI
   -136   135       6-31G*    MINI
   -170   169       6-31G*    MINI
   -203   202       6-31G*    MINI
   -234   233       6-31G*    MINI
   -265   264       6-31G*    MINI
   -295   294       6-31G*    MINI
   -328   327       6-31G*    MINI
   -358   357       6-31G*    MINI
   -389   388       6-31G*    MINI
 $END
 $FMOHYB
 6-31G*      15   5
   1 0  -0.065034   0.288264   0.000000   0.000000   0.604412
         0.290129   0.000000   0.000000   0.319045  -0.017106
        -0.017106   0.057934   0.000000   0.000000   0.000000
   0 1  -0.065040   0.288293   0.569832   0.000000  -0.201456
         0.290147   0.300783   0.000000  -0.106342   0.049598
        -0.017106  -0.008771   0.000000  -0.027223   0.000000
   0 1  -0.065039   0.288293  -0.284916  -0.493490  -0.201455
         0.290145  -0.150392  -0.260486  -0.106340  -0.000427
         0.032923  -0.008771   0.033353   0.013612   0.023576
   0 1  -0.065039   0.288293  -0.284916   0.493490  -0.201455
         0.290145  -0.150392   0.260486  -0.106340  -0.000427
         0.032923  -0.008771  -0.033353   0.013612  -0.023576
   0 1   1.010938  -0.011975   0.000000   0.000000   0.000000
        -0.054085   0.000000   0.000000  -0.000000  -0.003174
        -0.003174  -0.003174   0.000000   0.000000   0.000000
 MINI         5   5
   1 0  -0.104883   0.308874   0.000000   0.000000   0.521806
   0 1  -0.104883   0.308874   0.491961   0.000000  -0.173934
   0 1  -0.104883   0.308876  -0.245980  -0.426050  -0.173933
   0 1  -0.104883   0.308876  -0.245980   0.426050  -0.173933
   0 1   0.988209   0.063992   0.000000   0.000000   0.000000
 $END
 
 $DATA
 FMO calculation
 C1 
 H.1-1    1
      N31 6
   
 O.1-1    8
      N31 6
      d 1
      1 0.800 1.0
   
 C.1-1    6
      N31 6
      d 1
      1 0.800 1.0
   
 N.1-1    7
      N31 6
      d 1
      1 0.800 1.0
   
 P.1-1   15
      N31 6
      d 1
      1 0.550 1.0
   
 $END
 $FMOXYZ
    1    H    9.984    10.348    -8.986
    2    O    9.128    10.817    -9.034
    3    C    9.383    12.174    -8.635
    4    H    10.163    12.610    -9.300
    5    H    9.788    12.178    -7.599
    6    C    8.138    13.070    -8.668
    7    H    8.376    14.084    -8.280
    8    O    7.676    13.235    -10.044
    9    C    6.251    13.218    -10.056
    10    H    5.940    14.160    -10.566
    11    N    5.694    12.053    -10.810
    12    C    6.482    10.956    -11.072
    13    H    7.506    10.994    -10.701
    14    C    6.018    9.911    -11.773
    15    H    6.636    9.050    -12.009
    16    C    4.369    12.066    -11.241
    17    O    3.658    13.045    -10.980
    18    N    3.884    11.024    -11.958
    19    C    4.672    9.971    -12.235
    20    N    4.183    8.976    -12.980
    21    H    3.224    9.003    -13.269
    22    H    4.736    8.182    -13.234
    23    C    5.786    13.265    -8.615
    24    H    4.815    12.756    -8.467
    25    O    5.684    14.611    -8.186
    26    H    5.408    14.587    -7.262
    27    C    6.920    12.531    -7.904
    28    H    6.864    11.439    -8.122
    29    O    7.063    12.817    -6.491
    30    P    6.281    11.921    -5.453
    31    O    6.512    10.495    -5.771
    32    O    6.658    12.368    -4.092
    33    O    4.769    12.268    -5.703
    34    C    4.252    13.560    -5.292
    35    H    4.837    14.395    -5.741
    36    H    4.291    13.676    -4.179
    37    C    2.792    13.730    -5.729
    38    H    2.409    14.736    -5.446
    39    O    2.678    13.610    -7.178
    40    C    1.474    12.920    -7.493
    41    H    0.888    13.576    -8.177
    42    N    1.736    11.644    -8.174
    43    C    0.840    10.918    -8.913
    44    N    -2.355    10.471    -10.184
    45    H    -2.847    11.262    -9.827
    46    H    -2.854    9.796    -10.735
    47    N    -0.448    11.239    -9.133
    48    C    -1.073    10.339    -9.886
    49    N    -0.449    9.238    -10.410
    50    H    -0.993    8.612    -10.982
    51    C    0.881    8.888    -10.209
    52    O    1.351    7.869    -10.723
    53    C    1.545    9.823    -9.375
    54    N    2.855    9.843    -8.908
    55    C    2.916    10.938    -8.193
    56    H    3.790    11.289    -7.645
    57    C    0.712    12.723    -6.203
    58    H    0.118    11.786    -6.197
    59    O    -0.132    13.829    -5.965
    60    H    -0.489    13.703    -5.077
    61    C    1.833    12.670    -5.176
    62    H    2.374    11.698    -5.238
    63    O    1.435    13.016    -3.826
    64    P    0.930    11.867    -2.876
    65    O    1.923    10.772    -2.908
    66    O    0.625    12.428    -1.544
    67    O    -0.407    11.365    -3.530
    68    C    -1.618    12.155    -3.474
    69    H    -1.458    13.186    -3.865
    70    H    -1.970    12.261    -2.423
    71    C    -2.737    11.499    -4.298
    72    H    -3.638    12.145    -4.340
    73    O    -2.285    11.292    -5.669
    74    C    -2.807    10.067    -6.157
    75    H    -3.375    10.321    -7.083
    76    N    -1.741    9.111    -6.495
    77    C    -1.856    8.061    -7.364
    78    N    -3.794    6.129    -9.480
    79    H    -3.685    5.389    -10.132
    80    H    -4.685    6.579    -9.389
    81    N    -2.965    7.716    -8.041
    82    C    -2.786    6.642    -8.795
    83    N    -1.572    6.021    -8.937
    84    H    -1.529    5.161    -9.462
    85    C    -0.408    6.350    -8.254
    86    O    0.638    5.718    -8.429
    87    C    -0.610    7.466    -7.400
    88    N    0.269    8.113    -6.542
    89    C    -0.449    9.079    -6.018
    90    H    -0.090    9.813    -5.294
    91    C    -3.754    9.529    -5.111
    92    H    -3.784    8.420    -5.091
    93    O    -5.053    10.036    -5.343
    94    H    -5.568    9.805    -4.560
    95    C    -3.167    10.102    -3.824
    96    H    -2.228    9.566    -3.549
    97    O    -4.104    10.210    -2.716
    98    P    -4.268    8.948    -1.778
    99    O    -2.919    8.511    -1.351
    100    O    -5.219    9.286    -0.700
    101    O    -4.903    7.849    -2.713
    102    C    -6.302    7.903    -3.085
    103    H    -6.506    8.743    -3.783
    104    H    -6.958    8.054    -2.202
    105    C    -6.744    6.606    -3.767
    106    H    -7.828    6.635    -4.018
    107    O    -6.020    6.436    -5.015
    108    C    -5.789    5.053    -5.232
    109    H    -6.273    4.796    -6.202
    110    N    -4.352    4.759    -5.320
    111    C    -3.781    3.636    -5.857
    112    N    -4.093    0.510    -7.324
    113    H    -3.513    -0.256    -7.591
    114    H    -5.086    0.405    -7.393
    115    N    -4.443    2.593    -6.389
    116    C    -3.622    1.631    -6.804
    117    N    -2.256    1.732    -6.744
    118    H    -1.711    0.947    -7.054
    119    C    -1.545    2.808    -6.223
    120    O    -0.309    2.806    -6.215
    121    C    -2.416    3.825    -5.744
    122    N    -2.133    5.046    -5.136
    123    C    -3.316    5.563    -4.903
    124    H    -3.509    6.519    -4.412
    125    C    -6.469    4.293    -4.111
    126    H    -5.922    3.372    -3.825
    127    O    -7.789    3.960    -4.489
    128    H    -8.231    3.634    -3.694
    129    C    -6.462    5.320    -2.985
    130    H    -5.439    5.418    -2.553
    131    O    -7.485    5.128    -1.984
    132    P    -7.149    4.307    -0.682
    133    O    -5.924    4.867    -0.063
    134    O    -8.362    4.279    0.156
    135    O    -6.822    2.864    -1.214
    136    C    -7.876    1.973    -1.639
    137    H    -8.454    2.404    -2.488
    138    H    -8.589    1.793    -0.805
    139    C    -7.298    0.623    -2.084
    140    H    -8.107    -0.072    -2.397
    141    O    -6.422    0.816    -3.232
    142    C    -5.306    -0.055    -3.123
    143    H    -5.273    -0.652    -4.062
    144    N    -4.048    0.698    -2.997
    145    C    -2.785    0.236    -3.263
    146    N    -0.655    -2.342    -4.138
    147    H    -1.288    -3.105    -4.259
    148    H    0.332    -2.515    -4.172
    149    N    -2.463    -1.006    -3.671
    150    C    -1.148    -1.165    -3.796
    151    N    -0.243    -0.152    -3.627
    152    H    0.736    -0.363    -3.737
    153    C    -0.546    1.147    -3.241
    154    O    0.340    1.995    -3.118
    155    C    -1.944    1.312    -3.041
    156    N    -2.665    2.423    -2.624
    157    C    -3.908    2.009    -2.600
    158    H    -4.772    2.612    -2.318
    159    C    -5.563    -0.975    -1.946
    160    H    -4.629    -1.284    -1.436
    161    O    -6.277    -2.119    -2.377
    162    H    -6.515    -2.621    -1.586
    163    C    -6.421    -0.090    -1.046
    164    H    -5.785    0.703    -0.588
    165    O    -7.254    -0.796    -0.083
    166    P    -6.680    -0.959    1.381
    167    O    -6.099    0.323    1.826
    168    O    -7.696    -1.560    2.274
    169    O    -5.511    -1.994    1.187
    170    C    -5.834    -3.379    0.915
    171    H    -6.422    -3.478    -0.025
    172    H    -6.435    -3.820    1.745
    173    C    -4.560    -4.214    0.768
    174    H    -4.797    -5.279    0.557
    175    O    -3.770    -3.719    -0.349
    176    C    -2.393    -3.796    -0.012
    177    H    -1.905    -4.413    -0.799
    178    N    -1.769    -2.466    -0.006
    179    C    -0.430    -2.205    -0.106
    180    N    2.841    -3.322    -0.353
    181    H    2.735    -4.315    -0.340
    182    H    3.763    -2.930    -0.404
    183    N    0.547    -3.124    -0.202
    184    C    1.757    -2.571    -0.281
    185    N    1.963    -1.215    -0.260
    186    H    2.910    -0.877    -0.314
    187    C    0.974    -0.244    -0.156
    188    O    1.249    0.960    -0.142
    189    C    -0.318    -0.828    -0.083
    190    N    -1.569    -0.233    0.031
    191    C    -2.400    -1.246    0.085
    192    H    -3.482    -1.173    0.200
    193    C    -2.277    -4.506    1.327
    194    H    -1.428    -4.120    1.934
    195    O    -2.126    -5.901    1.118
    196    H    -2.242    -6.353    1.970
    197    C    -3.613    -4.159    1.976
    198    H    -3.595    -3.117    2.364
    199    O    -4.042    -5.084    2.993
    200    H    -3.471    -5.011    3.780
    201    H    10.974    2.041    -1.670
    202    O    10.351    1.294    -1.696
    203    C    11.110    0.099    -1.450
    204    H    11.631    0.195    -0.472
    205    H    11.886    -0.021    -2.240
    206    C    10.251    -1.170    -1.411
    207    H    10.890    -2.076    -1.324
    208    O    9.375    -1.144    -0.242
    209    C    8.106    -1.678    -0.599
    210    H    7.899    -2.496    0.131
    211    N    7.005    -0.672    -0.531
    212    C    7.288    0.674    -0.530
    213    H    8.343    0.948    -0.563
    214    C    6.313    1.593    -0.456
    215    H    6.520    2.659    -0.409
    216    C    5.679    -1.097    -0.500
    217    O    5.433    -2.309    -0.533
    218    N    4.682    -0.184    -0.435
    219    C    4.970    1.128    -0.392
    220    N    3.970    2.004    -0.286
    221    H    3.026    1.670    -0.217
    222    H    4.131    2.990    -0.229
    223    C    8.251    -2.281    -1.979
    224    H    7.302    -2.259    -2.550
    225    O    8.715    -3.615    -1.880
    226    H    8.776    -3.948    -2.782
    227    C    9.295    -1.357    -2.600
    228    H    8.846    -0.361    -2.821
    229    O    10.019    -1.896    -3.726
    230    P    9.439    -1.709    -5.184
    231    O    9.067    -0.300    -5.420
    232    O    10.383    -2.315    -6.148
    233    O    8.122    -2.551    -5.181
    234    C    8.152    -3.992    -5.180
    235    H    8.765    -4.383    -4.339
    236    H    8.601    -4.371    -6.126
    237    C    6.728    -4.561    -5.057
    238    H    6.756    -5.667    -4.982
    239    O    6.068    -4.061    -3.848
    240    C    4.690    -3.817    -4.126
    241    H    4.120    -4.416    -3.377
    242    N    4.287    -2.377    -3.998
    243    C    5.237    -1.386    -4.032
    244    H    6.265    -1.719    -4.144
    245    C    4.911    -0.088    -3.908
    246    H    5.658    0.701    -3.900
    247    C    2.940    -2.029    -3.891
    248    O    2.079    -2.918    -3.900
    249    N    2.588    -0.726    -3.778
    250    C    3.529    0.231    -3.760
    251    N    3.149    1.499    -3.595
    252    H    2.180    1.705    -3.429
    253    H    3.807    2.252    -3.566
    254    C    4.417    -4.371    -5.510
    255    H    3.627    -3.803    -6.042
    256    O    4.059    -5.737    -5.423
    257    H    4.046    -6.071    -6.327
    258    C    5.769    -4.198    -6.200
    259    H    5.952    -3.125    -6.443
    260    O    5.994    -5.076    -7.331
    261    P    5.565    -4.601    -8.771
    262    O    6.171    -3.279    -9.027
    263    O    5.868    -5.677    -9.742
    264    O    4.013    -4.407    -8.675
    265    C    3.064    -5.489    -8.609
    266    H    3.291    -6.173    -7.765
    267    H    3.098    -6.093    -9.543
    268    C    1.623    -4.972    -8.423
    269    H    0.922    -5.820    -8.253
    270    O    1.521    -4.087    -7.270
    271    C    0.612    -3.031    -7.549
    272    H    -0.179    -3.096    -6.766
    273    N    1.283    -1.690    -7.501
    274    C    2.647    -1.581    -7.677
    275    H    3.176    -2.519    -7.818
    276    C    0.518    -0.563    -7.294
    277    O    -0.707    -0.606    -7.173
    278    N    1.218    0.618    -7.226
    279    H    0.699    1.456    -7.002
    280    C    2.583    0.786    -7.331
    281    O    3.081    1.902    -7.205
    282    C    3.307    -0.419    -7.594
    283    H    4.389    -0.371    -7.687
    284    C    -0.005    -3.327    -8.908
    285    H    -0.230    -2.401    -9.472
    286    O    -1.186    -4.096    -8.780
    287    H    -1.441    -4.330    -9.683
    288    C    1.099    -4.124    -9.584
    289    H    1.940    -3.446    -9.867
    290    O    0.646    -4.983    -10.653
    291    P    0.908    -4.584    -12.150
    292    O    2.090    -3.702    -12.223
    293    O    0.922    -5.813    -12.966
    294    O    -0.354    -3.727    -12.508
    295    C    -1.637    -4.353    -12.726
    296    H    -1.842    -5.152    -11.974
    297    H    -1.657    -4.817    -13.735
    298    C    -2.775    -3.328    -12.652
    299    H    -3.764    -3.831    -12.704
    300    O    -2.718    -2.627    -11.374
    301    C    -3.048    -1.267    -11.584
    302    H    -3.884    -1.036    -10.882
    303    N    -1.905    -0.398    -11.285
    304    C    -0.711    1.326    -10.637
    305    N    0.201    0.336    -10.973
    306    C    -0.556    -0.663    -11.359
    307    H    -0.185    -1.632    -11.684
    308    N    -1.692    3.347    -9.901
    309    C    -2.871    2.786    -10.174
    310    H    -3.753    3.401    -9.973
    311    N    -3.138    1.559    -10.608
    312    C    -2.007    0.881    -10.834
    313    C    -0.558    2.631    -10.124
    314    N    0.636    3.177    -9.825
    315    H    1.505    2.735    -10.066
    316    H    0.682    4.087    -9.401
    317    C    -3.544    -1.118    -13.007
    318    H    -3.322    -0.117    -13.430
    319    O    -4.943    -1.352    -13.057
    320    H    -5.207    -1.392    -13.993
    321    C    -2.754    -2.213    -13.712
    322    H    -1.695    -1.887    -13.835
    323    O    -3.362    -2.669    -14.936
    324    P    -2.575    -2.786    -16.292
    325    O    -1.681    -3.969    -16.249
    326    O    -3.558    -2.768    -17.393
    327    O    -1.666    -1.499    -16.368
    328    C    -2.047    -0.306    -17.093
    329    H    -2.778    -0.508    -17.910
    330    H    -1.137    0.078    -17.606
    331    C    -2.614    0.803    -16.181
    332    H    -3.653    0.550    -15.881
    333    O    -1.802    0.979    -14.986
    334    C    -0.978    2.120    -15.119
    335    H    -1.408    2.848    -14.399
    336    N    0.432    1.796    -14.798
    337    C    0.962    0.576    -15.154
    338    H    0.282    -0.091    -15.690
    339    C    1.185    2.721    -14.117
    340    O    0.735    3.813    -13.766
    341    N    2.473    2.341    -13.848
    342    H    3.041    3.025    -13.373
    343    C    3.074    1.140    -14.170
    344    O    4.258    0.945    -13.891
    345    C    2.216    0.215    -14.848
    346    H    2.615    -0.758    -15.128
    347    C    -1.156    2.664    -16.531
    348    H    -0.417    2.213    -17.231
    349    O    -1.101    4.079    -16.584
    350    H    -1.936    4.368    -16.191
    351    C    -2.566    2.184    -16.850
    352    H    -2.646    2.019    -17.954
    353    O    -3.594    3.065    -16.327
    354    P    -4.686    3.636    -17.299
    355    O    -4.038    4.058    -18.561
    356    O    -5.792    2.663    -17.391
    357    O    -5.152    4.915    -16.497
    358    C    -6.531    5.046    -16.077
    359    H    -6.882    4.135    -15.537
    360    H    -7.190    5.178    -16.966
    361    C    -6.744    6.259    -15.154
    362    H    -7.828    6.487    -15.050
    363    O    -6.258    5.927    -13.821
    364    C    -5.601    7.056    -13.256
    365    H    -6.083    7.225    -12.265
    366    N    -4.137    6.829    -13.049
    367    C    -3.512    5.778    -13.683
    368    H    -4.140    5.149    -14.319
    369    C    -2.206    5.533    -13.505
    370    H    -1.702    4.700    -13.979
    371    C    -3.387    7.697    -12.253
    372    O    -3.938    8.676    -11.733
    373    N    -2.075    7.437    -12.031
    374    C    -1.485    6.392    -12.633
    375    N    -0.198    6.140    -12.397
    376    H    0.353    6.777    -11.854
    377    H    0.259    5.370    -12.846
    378    C    -5.890    8.239    -14.156
    379    H    -5.081    8.997    -14.143
    380    O    -7.109    8.845    -13.773
    381    H    -7.319    9.511    -14.440
    382    C    -5.998    7.558    -15.517
    383    H    -4.980    7.261    -15.863
    384    O    -6.747    8.296    -16.511
    385    P    -5.992    9.110    -17.626
    386    O    -4.843    8.337    -18.138
    387    O    -6.980    9.597    -18.615
    388    O    -5.417    10.336    -16.829
    389    C    -6.311    11.306    -16.236
    390    H    -7.061    10.822    -15.570
    391    H    -6.874    11.846    -17.033
    392    C    -5.548    12.349    -15.408
    393    H    -6.235    13.144    -15.042
    394    O    -4.952    11.718    -14.240
    395    C    -3.681    12.308    -13.990
    396    H    -3.696    12.693    -12.943
    397    N    -2.600    11.319    -14.124
    398    C    -1.335    11.441    -13.621
    399    N    1.030    13.249    -11.852
    400    H    0.539    14.085    -11.617
    401    H    1.982    13.140    -11.553
    402    N    -0.866    12.486    -12.920
    403    C    0.400    12.319    -12.546
    404    N    1.128    11.195    -12.843
    405    H    2.083    11.146    -12.525
    406    C    0.669    10.101    -13.569
    407    O    1.399    9.132    -13.790
    408    C    -0.676    10.283    -13.987
    409    N    -1.509    9.453    -14.728
    410    C    -2.647    10.104    -14.771
    411    H    -3.551    9.768    -15.283
    412    C    -3.510    13.476    -14.951
    413    H    -2.452    13.606    -15.265
    414    O    -3.990    14.671    -14.354
    415    H    -3.972    15.395    -15.006
    416    C    -4.369    13.019    -16.124
    417    H    -3.833    12.241    -16.710
    418    O    -4.831    14.076    -16.986
    419    H    -4.077    14.494    -17.450
 $END
