!*** FMO 5.3 (Gamess) INPUT generated by Facio 22.1.1.32 ***
 $CONTRL RUNTYP=ENERGY NPRINT=-5 ISPHER=1 MAXIT=200 $END
 $SYSTEM MWORDS=63 MEMDDI=63 $END
 $GDDI NGROUP=1 $END
 $SCF DIRSCF=.TRUE. NPUNCH=0 $END
!*** NumCPU : 2  MemPerNode : 512MB
 $PCM SOLVNT=WATER IEF=-10 ICOMP=2 ICAV=1 IDISP=1 IFMO=-1 $END
 $PCMCAV RADII=SUAHF $END
 $TESCAV NTSALL=60 $END
 $FMOPRP
    NAODIR=200
    NGRFMO(1)=1, 1, 0, 0, 0,   0, 0, 0, 0, 0
    IPIEDA=1
    NPRINT=9
 $END
 $FMO
      SCFTYP(1)=RHF
      MODGRD=10
      MODMUL=0
      MAXCAO=5
      MAXBND=15
      NLAYER=1
      MPLEVL(1)=2
      NFRAG=13
      ICHARG(1)=-1, -1, -1, -1, -1, 0, -1, -1, -1, -1, -1, -1, 0
      FRGNAM(1)=F1, F2, F3, F4, F5, F6, F7, F8, F9, F10, F11, F12, F13
      indat(1)=0
               1   -33   0
               34   -67   0
               68   -101   0
               102   -135   0
               136   -169   0
               170   -202   0
               203   -233   0
               234   -264   0
               265   -294   0
               295   -327   0
               328   -357   0
               358   -388   0
               389   -419   0
 $END

 $FMOBND
   -34   33       6-31G*    MINI
   -68   67       6-31G*    MINI
   -102   101       6-31G*    MINI
   -136   135       6-31G*    MINI
   -170   169       6-31G*    MINI
   -203   202       6-31G*    MINI
   -234   233       6-31G*    MINI
   -265   264       6-31G*    MINI
   -295   294       6-31G*    MINI
   -328   327       6-31G*    MINI
   -358   357       6-31G*    MINI
   -389   388       6-31G*    MINI
 $END
 $FMOHYB
 6-31G*      15   5
   1 0  -0.065034   0.288264   0.000000   0.000000   0.604412
         0.290129   0.000000   0.000000   0.319045  -0.017106
        -0.017106   0.057934   0.000000   0.000000   0.000000
   0 1  -0.065040   0.288293   0.569832   0.000000  -0.201456
         0.290147   0.300783   0.000000  -0.106342   0.049598
        -0.017106  -0.008771   0.000000  -0.027223   0.000000
   0 1  -0.065039   0.288293  -0.284916  -0.493490  -0.201455
         0.290145  -0.150392  -0.260486  -0.106340  -0.000427
         0.032923  -0.008771   0.033353   0.013612   0.023576
   0 1  -0.065039   0.288293  -0.284916   0.493490  -0.201455
         0.290145  -0.150392   0.260486  -0.106340  -0.000427
         0.032923  -0.008771  -0.033353   0.013612  -0.023576
   0 1   1.010938  -0.011975   0.000000   0.000000   0.000000
        -0.054085   0.000000   0.000000  -0.000000  -0.003174
        -0.003174  -0.003174   0.000000   0.000000   0.000000
 MINI         5   5
   1 0  -0.104883   0.308874   0.000000   0.000000   0.521806
   0 1  -0.104883   0.308874   0.491961   0.000000  -0.173934
   0 1  -0.104883   0.308876  -0.245980  -0.426050  -0.173933
   0 1  -0.104883   0.308876  -0.245980   0.426050  -0.173933
   0 1   0.988209   0.063992   0.000000   0.000000   0.000000
 $END
 
 $DATA
 FMO calculation
 C1 
 H.1-1    1
      N31 6
   
 O.1-1    8
      N31 6
      d 1
      1 0.800 1.0
   
 C.1-1    6
      N31 6
      d 1
      1 0.800 1.0
   
 N.1-1    7
      N31 6
      d 1
      1 0.800 1.0
   
 P.1-1   15
      N31 6
      d 1
      1 0.550 1.0
   
 $END
 $FMOXYZ
    1    H    10.085    9.905    -9.314
    2    O    9.247    10.404    -9.274
    3    C    9.570    11.726    -8.816
    4    H    10.378    12.148    -9.458
    5    H    9.976    11.665    -7.782
    6    C    8.376    12.688    -8.811
    7    H    8.667    13.668    -8.366
    8    O    7.945    12.947    -10.182
    9    C    6.523    13.008    -10.209
    10    H    6.274    13.994    -10.667
    11    N    5.915    11.928    -11.038
    12    C    6.634    10.793    -11.341
    13    H    7.651    10.745    -10.949
    14    C    6.121    9.827    -12.114
    15    H    6.688    8.943    -12.395
    16    C    4.608    12.057    -11.499
    17    O    3.957    13.070    -11.197
    18    N    4.074    11.095    -12.284
    19    C    4.795    10.004    -12.601
    20    N    4.257    9.086    -13.404
    21    H    3.312    9.197    -13.720
    22    H    4.772    8.285    -13.710
    23    C    6.033    12.998    -8.778
    24    H    5.035    12.528    -8.674
    25    O    5.995    14.317    -8.268
    26    H    5.688    14.242    -7.358
    27    C    7.114    12.176    -8.092
    28    H    7.008    11.100    -8.369
    29    O    7.227    12.392    -6.661
    30    P    6.435    11.431    -5.698
    31    O    6.555    10.037    -6.176
    32    O    6.872    11.697    -4.309
    33    O    4.938    11.881    -5.862
    34    C    4.495    13.191    -5.439
    35    H    5.144    14.001    -5.842
    36    H    4.516    13.275    -4.326
    37    C    3.056    13.452    -5.898
    38    H    2.720    14.465    -5.584
    39    O    2.961    13.384    -7.347
    40    C    1.727    12.774    -7.706
    41    H    1.190    13.486    -8.373
    42    N    1.942    11.512    -8.428
    43    C    1.041    10.872    -9.236
    44    N    -2.132    10.634    -10.613
    45    H    -2.590    11.442    -10.248
    46    H    -2.662    9.982    -11.163
    47    N    -0.216    11.280    -9.501
    48    C    -0.868    10.423    -10.282
    49    N    -0.289    9.302    -10.813
    50    H    -0.841    8.737    -11.439
    51    C    1.015    8.876    -10.590
    52    O    1.441    7.845    -11.121
    53    C    1.701    9.752    -9.710
    54    N    2.990    9.682    -9.196
    55    C    3.083    10.743    -8.431
    56    H    3.959    11.026    -7.845
    57    C    0.931    12.579    -6.434
    58    H    0.282    11.679    -6.473
    59    O    0.148    13.728    -6.180
    60    H    -0.230    13.613    -5.300
    61    C    2.035    12.424    -5.394
    62    H    2.518    11.423    -5.492
    63    O    1.653    12.739    -4.032
    64    P    1.059    11.586    -3.131
    65    O    1.994    10.438    -3.156
    66    O    0.743    12.136    -1.798
    67    O    -0.279    11.157    -3.834
    68    C    -1.464    11.983    -3.774
    69    H    -1.270    13.004    -4.162
    70    H    -1.810    12.096    -2.725
    71    C    -2.604    11.382    -4.608
    72    H    -3.475    12.069    -4.643
    73    O    -2.156    11.177    -5.979
    74    C    -2.721    9.979    -6.485
    75    H    -3.276    10.265    -7.409
    76    N    -1.690    8.997    -6.843
    77    C    -1.819    7.983    -7.756
    78    N    -3.771    6.187    -9.987
    79    H    -4.638    6.679    -9.924
    80    H    -3.702    5.431    -10.638
    81    N    -2.918    7.705    -8.477
    82    C    -2.772    6.621    -9.235
    83    N    -1.589    5.932    -9.338
    84    H    -1.607    5.027    -9.768
    85    C    -0.430    6.221    -8.624
    86    O    0.598    5.553    -8.773
    87    C    -0.598    7.345    -7.775
    88    N    0.285    7.939    -6.882
    89    C    -0.408    8.915    -6.348
    90    H    -0.042    9.620    -5.600
    91    C    -3.692    9.458    -5.451
    92    H    -3.755    8.348    -5.439
    93    O    -4.972    10.010    -5.692
    94    H    -5.496    9.839    -4.900
    95    C    -3.098    9.999    -4.153
    96    H    -2.188    9.421    -3.868
    97    O    -4.047    10.136    -3.063
    98    P    -4.242    8.922    -2.077
    99    O    -2.923    8.539    -1.528
    100    O    -5.289    9.283    -1.095
    101    O    -4.767    7.753    -3.005
    102    C    -6.146    7.738    -3.451
    103    H    -6.346    8.560    -4.171
    104    H    -6.850    7.869    -2.598
    105    C    -6.509    6.417    -4.140
    106    H    -7.563    6.428    -4.486
    107    O    -5.684    6.219    -5.320
    108    C    -5.418    4.832    -5.475
    109    H    -5.814    4.532    -6.472
    110    N    -3.977    4.559    -5.440
    111    C    -3.356    3.408    -5.845
    112    N    -3.506    0.173    -7.085
    113    H    -2.891    -0.586    -7.283
    114    H    -4.482    0.051    -7.252
    115    N    -3.966    2.311    -6.336
    116    C    -3.098    1.335    -6.609
    117    N    -1.745    1.462    -6.449
    118    H    -1.169    0.678    -6.703
    119    C    -1.088    2.599    -5.993
    120    O    0.146    2.636    -5.908
    121    C    -2.006    3.633    -5.663
    122    N    -1.782    4.905    -5.146
    123    C    -2.983    5.414    -5.023
    124    H    -3.220    6.404    -4.624
    125    C    -6.174    4.096    -4.389
    126    H    -5.632    3.201    -4.025
    127    O    -7.447    3.709    -4.865
    128    H    -7.945    3.411    -4.093
    129    C    -6.288    5.154    -3.301
    130    H    -5.310    5.294    -2.786
    131    O    -7.396    4.958    -2.389
    132    P    -7.130    4.206    -1.030
    133    O    -5.939    4.802    -0.392
    134    O    -8.382    4.203    -0.243
    135    O    -6.775    2.735    -1.468
    136    C    -7.793    1.842    -1.976
    137    H    -8.318    2.284    -2.853
    138    H    -8.562    1.638    -1.195
    139    C    -7.188    0.501    -2.411
    140    H    -7.974    -0.181    -2.800
    141    O    -6.228    0.711    -3.485
    142    C    -5.136    -0.182    -3.317
    143    H    -5.037    -0.762    -4.266
    144    N    -3.882    0.547    -3.069
    145    C    -2.614    0.052    -3.206
    146    N    -0.477    -2.576    -3.922
    147    H    -1.108    -3.323    -4.112
    148    H    0.507    -2.768    -3.884
    149    N    -2.293    -1.201    -3.581
    150    C    -0.976    -1.390    -3.617
    151    N    -0.065    -0.400    -3.370
    152    H    0.914    -0.634    -3.412
    153    C    -0.366    0.902    -2.996
    154    O    0.532    1.724    -2.795
    155    C    -1.769    1.105    -2.910
    156    N    -2.494    2.239    -2.568
    157    C    -3.745    1.858    -2.664
    158    H    -4.616    2.483    -2.461
    159    C    -5.490    -1.123    -2.185
    160    H    -4.598    -1.464    -1.621
    161    O    -6.188    -2.243    -2.689
    162    H    -6.490    -2.747    -1.924
    163    C    -6.395    -0.243    -1.332
    164    H    -5.788    0.526    -0.803
    165    O    -7.302    -0.955    -0.460
    166    P    -6.908    -1.172    1.049
    167    O    -6.332    0.072    1.599
    168    O    -8.074    -1.736    1.761
    169    O    -5.764    -2.250    0.962
    170    C    -6.084    -3.615    0.607
    171    H    -6.569    -3.670    -0.394
    172    H    -6.783    -4.066    1.350
    173    C    -4.814    -4.470    0.554
    174    H    -5.045    -5.526    0.295
    175    O    -3.931    -3.957    -0.486
    176    C    -2.583    -4.072    -0.054
    177    H    -2.053    -4.679    -0.824
    178    N    -1.936    -2.754    0.040
    179    C    -0.588    -2.517    0.068
    180    N    2.670    -3.693    0.051
    181    H    2.547    -4.684    0.055
    182    H    3.600    -3.318    0.098
    183    N    0.376    -3.453    0.035
    184    C    1.598    -2.922    0.049
    185    N    1.827    -1.572    0.101
    186    H    2.782    -1.254    0.139
    187    C    0.852    -0.582    0.150
    188    O    1.153    0.615    0.203
    189    C    -0.454    -1.143    0.132
    190    N    -1.700    -0.525    0.157
    191    C    -2.549    -1.522    0.108
    192    H    -3.636    -1.431    0.133
    193    C    -2.583    -4.817    1.270
    194    H    -1.773    -4.466    1.946
    195    O    -2.451    -6.211    1.039
    196    H    -2.602    -6.680    1.878
    197    C    -3.956    -4.451    1.827
    198    H    -3.946    -3.413    2.224
    199    O    -4.466    -5.370    2.813
    200    H    -3.933    -5.325    3.627
    201    H    10.991    1.535    -0.408
    202    O    10.359    0.803    -0.536
    203    C    11.072    -0.413    -0.264
    204    H    11.516    -0.360    0.757
    205    H    11.906    -0.520    -0.993
    206    C    10.190    -1.665    -0.338
    207    H    10.805    -2.583    -0.217
    208    O    9.225    -1.654    0.757
    209    C    7.982    -2.161    0.288
    210    H    7.708    -2.997    0.972
    211    N    6.893    -1.139    0.303
    212    C    7.196    0.205    0.340
    213    H    8.255    0.460    0.386
    214    C    6.235    1.138    0.354
    215    H    6.458    2.201    0.425
    216    C    5.561    -1.539    0.242
    217    O    5.298    -2.749    0.174
    218    N    4.576    -0.611    0.265
    219    C    4.882    0.698    0.335
    220    N    3.893    1.590    0.387
    221    H    2.941    1.276    0.355
    222    H    4.067    2.574    0.458
    223    C    8.226    -2.727    -1.098
    224    H    7.327    -2.669    -1.742
    225    O    8.657    -4.070    -1.007
    226    H    8.795    -4.369    -1.913
    227    C    9.341    -1.816    -1.609
    228    H    8.934    -0.806    -1.847
    229    O    10.155    -2.363    -2.676
    230    P    9.725    -2.099    -4.169
    231    O    9.427    -0.663    -4.335
    232    O    10.740    -2.683    -5.074
    233    O    8.389    -2.902    -4.320
    234    C    8.394    -4.346    -4.364
    235    H    8.910    -4.783    -3.479
    236    H    8.929    -4.711    -5.268
    237    C    6.963    -4.890    -4.418
    238    H    6.960    -6.000    -4.393
    239    O    6.199    -4.424    -3.265
    240    C    4.860    -4.153    -3.667
    241    H    4.216    -4.791    -3.019
    242    N    4.455    -2.727    -3.488
    243    C    5.414    -1.747    -3.386
    244    H    6.446    -2.090    -3.423
    245    C    5.090    -0.459    -3.213
    246    H    5.842    0.317    -3.088
    247    C    3.107    -2.368    -3.480
    248    O    2.241    -3.244    -3.619
    249    N    2.759    -1.071    -3.316
    250    C    3.705    -0.129    -3.165
    251    N    3.328    1.131    -2.968
    252    H    2.352    1.354    -2.894
    253    H    3.991    1.871    -2.862
    254    C    4.726    -4.614    -5.105
    255    H    4.005    -4.001    -5.682
    256    O    4.338    -5.973    -5.132
    257    H    4.384    -6.256    -6.053
    258    C    6.145    -4.437    -5.637
    259    H    6.375    -3.356    -5.799
    260    O    6.476    -5.259    -6.782
    261    P    6.251    -4.726    -8.246
    262    O    6.884    -3.397    -8.390
    263    O    6.651    -5.761    -9.225
    264    O    4.697    -4.513    -8.351
    265    C    3.755    -5.603    -8.433
    266    H    3.922    -6.343    -7.623
    267    H    3.868    -6.145    -9.400
    268    C    2.296    -5.111    -8.349
    269    H    1.603    -5.979    -8.336
    270    O    2.056    -4.359    -7.119
    271    C    1.178    -3.269    -7.380
    272    H    0.321    -3.398    -6.678
    273    N    1.836    -1.936    -7.149
    274    C    3.207    -1.813    -7.193
    275    H    3.750    -2.739    -7.371
    276    C    1.044    -0.827    -6.923
    277    O    -0.183    -0.879    -6.912
    278    N    1.728    0.347    -6.704
    279    H    1.188    1.174    -6.493
    280    C    3.096    0.519    -6.674
    281    O    3.572    1.620    -6.411
    282    C    3.850    -0.661    -6.961
    283    H    4.936    -0.601    -6.954
    284    C    0.688    -3.431    -8.813
    285    H    0.517    -2.450    -9.294
    286    O    -0.504    -4.192    -8.854
    287    H    -0.698    -4.378    -9.784
    288    C    1.850    -4.166    -9.472
    289    H    2.703    -3.460    -9.630
    290    O    1.487    -4.926    -10.653
    291    P    1.883    -4.412    -12.088
    292    O    2.844    -3.293    -11.964
    293    O    2.287    -5.545    -12.951
    294    O    0.553    -3.805    -12.651
    295    C    -0.625    -4.592    -12.940
    296    H    -0.751    -5.436    -12.218
    297    H    -0.542    -5.026    -13.960
    298    C    -1.911    -3.741    -12.898
    299    H    -2.809    -4.368    -13.090
    300    O    -2.051    -3.159    -11.568
    301    C    -2.564    -1.841    -11.677
    302    H    -3.490    -1.805    -11.060
    303    N    -1.599    -0.857    -11.165
    304    C    -0.671    0.909    -10.237
    305    N    0.370    0.063    -10.579
    306    C    -0.230    -0.964    -11.128
    307    H    0.282    -1.853    -11.498
    308    N    -1.905    2.774    -9.454
    309    C    -2.998    2.119    -9.870
    310    H    -3.949    2.643    -9.728
    311    N    -3.093    0.919    -10.452
    312    C    -1.887    0.362    -10.605
    313    C    -0.696    2.172    -9.609
    314    N    0.423    2.776    -9.172
    315    H    1.328    2.418    -9.420
    316    H    0.401    3.719    -8.827
    317    C    -2.926    -1.597    -13.129
    318    H    -2.760    -0.543    -13.439
    319    O    -4.271    -1.962    -13.380
    320    H    -4.416    -1.794    -14.323
    321    C    -1.964    -2.530    -13.855
    322    H    -0.941    -2.099    -13.859
    323    O    -2.383    -2.937    -15.184
    324    P    -2.251    -1.889    -16.359
    325    O    -1.091    -1.015    -16.079
    326    O    -2.245    -2.614    -17.649
    327    O    -3.583    -1.054    -16.269
    328    C    -3.698    0.250    -16.899
    329    H    -4.152    0.148    -17.910
    330    H    -2.704    0.742    -17.030
    331    C    -4.569    1.221    -16.075
    332    H    -5.645    0.968    -16.194
    333    O    -4.258    1.083    -14.656
    334    C    -4.215    2.354    -14.046
    335    H    -4.866    2.286    -13.144
    336    N    -2.816    2.722    -13.667
    337    C    -1.723    2.136    -14.283
    338    H    -1.944    1.395    -15.056
    339    C    -2.642    3.656    -12.670
    340    O    -3.571    4.215    -12.100
    341    N    -1.334    3.917    -12.351
    342    H    -1.171    4.553    -11.601
    343    C    -0.206    3.333    -12.874
    344    O    0.896    3.626    -12.422
    345    C    -0.458    2.407    -13.930
    346    H    0.390    1.913    -14.397
    347    C    -4.826    3.322    -15.037
    348    H    -4.451    4.353    -14.901
    349    O    -6.239    3.315    -14.935
    350    H    -6.563    3.896    -15.632
    351    C    -4.363    2.722    -16.357
    352    H    -3.271    2.873    -16.486
    353    O    -5.115    3.133    -17.518
    354    P    -4.723    4.460    -18.282
    355    O    -3.254    4.489    -18.485
    356    O    -5.566    4.522    -19.494
    357    O    -5.115    5.614    -17.294
    358    C    -6.486    5.980    -17.039
    359    H    -7.089    5.104    -16.711
    360    H    -6.958    6.388    -17.962
    361    C    -6.570    7.064    -15.947
    362    H    -7.629    7.331    -15.734
    363    O    -5.989    6.579    -14.696
    364    C    -5.307    7.651    -14.046
    365    H    -5.783    7.739    -13.041
    366    N    -3.845    7.386    -13.871
    367    C    -3.186    6.590    -14.776
    368    H    -3.804    6.157    -15.560
    369    C    -1.881    6.316    -14.658
    370    H    -1.361    5.646    -15.342
    371    C    -3.116    8.012    -12.862
    372    O    -3.686    8.825    -12.119
    373    N    -1.805    7.715    -12.694
    374    C    -1.180    6.907    -13.568
    375    N    0.105    6.617    -13.377
    376    H    0.615    7.074    -12.644
    377    H    0.633    6.115    -14.068
    378    C    -5.594    8.917    -14.834
    379    H    -4.754    9.637    -14.792
    380    O    -6.771    9.541    -14.356
    381    H    -6.961    10.284    -14.944
    382    C    -5.796    8.359    -16.240
    383    H    -4.816    8.040    -16.664
    384    O    -6.560    9.205    -17.135
    385    P    -5.780    10.108    -18.166
    386    O    -4.707    9.313    -18.797
    387    O    -6.756    10.746    -19.074
    388    O    -5.127    11.220    -17.262
    389    C    -5.988    12.227    -16.670
    390    H    -6.799    11.765    -16.061
    391    H    -6.471    12.846    -17.465
    392    C    -5.195    13.180    -15.768
    393    H    -5.852    13.987    -15.370
    394    O    -4.656    12.448    -14.632
    395    C    -3.358    12.945    -14.333
    396    H    -3.372    13.266    -13.265
    397    N    -2.336    11.905    -14.506
    398    C    -1.086    11.911    -13.960
    399    N    1.347    13.466    -12.050
    400    H    0.912    14.328    -11.795
    401    H    2.287    13.285    -11.749
    402    N    -0.569    12.885    -13.190
    403    C    0.673    12.614    -12.799
    404    N    1.333    11.462    -13.144
    405    H    2.287    11.351    -12.837
    406    C    0.835    10.455    -13.963
    407    O    1.506    9.456    -14.236
    408    C    -0.488    10.741    -14.387
    409    N    -1.345    10.018    -15.208
    410    C    -2.428    10.752    -15.252
    411    H    -3.325    10.520    -15.828
    412    C    -3.103    14.151    -15.221
    413    H    -2.034    14.239    -15.515
    414    O    -3.524    15.333    -14.560
    415    H    -3.531    16.063    -15.203
    416    C    -3.970    13.826    -16.431
    417    H    -3.473    13.063    -17.070
    418    O    -4.353    14.975    -17.209
    419    H    -3.574    15.347    -17.664
 $END
