!*** FMO 5.3 (Gamess) INPUT generated by Facio 22.1.1.32 ***
 $CONTRL RUNTYP=ENERGY NPRINT=-5 ISPHER=1 MAXIT=200 $END
 $SYSTEM MWORDS=63 MEMDDI=63 $END
 $GDDI NGROUP=1 $END
 $SCF DIRSCF=.TRUE. NPUNCH=0 $END
!*** NumCPU : 2  MemPerNode : 512MB
 $PCM SOLVNT=WATER IEF=-10 ICOMP=2 ICAV=1 IDISP=1 IFMO=-1 $END
 $PCMCAV RADII=SUAHF $END
 $TESCAV NTSALL=60 $END
 $FMOPRP
    NAODIR=200
    NGRFMO(1)=1, 1, 0, 0, 0,   0, 0, 0, 0, 0
    IPIEDA=1
    NPRINT=9
 $END
 $FMO
      SCFTYP(1)=RHF
      MODGRD=10
      MODMUL=0
      MAXCAO=5
      MAXBND=10
      NLAYER=1
      MPLEVL(1)=2
      NFRAG=8
      ICHARG(1)=-1, -1, -1, -1, -1, -1, -1, 0
      FRGNAM(1)=F1, F2, F3, F4, F5, F6, F7, F8
      indat(1)=0
               1   -36   0
               37   -67   0
               68   -97   0
               98   -127   0
               128   -160   0
               161   -191   0
               192   -225   0
               226   -253   0
 $END

 $FMOBND
   -37   36       6-31G*    MINI
   -68   67       6-31G*    MINI
   -98   97       6-31G*    MINI
   -128   127       6-31G*    MINI
   -161   160       6-31G*    MINI
   -192   191       6-31G*    MINI
   -226   225       6-31G*    MINI
 $END
 $FMOHYB
 6-31G*      15   5
   1 0  -0.065034   0.288264   0.000000   0.000000   0.604412
         0.290129   0.000000   0.000000   0.319045  -0.017106
        -0.017106   0.057934   0.000000   0.000000   0.000000
   0 1  -0.065040   0.288293   0.569832   0.000000  -0.201456
         0.290147   0.300783   0.000000  -0.106342   0.049598
        -0.017106  -0.008771   0.000000  -0.027223   0.000000
   0 1  -0.065039   0.288293  -0.284916  -0.493490  -0.201455
         0.290145  -0.150392  -0.260486  -0.106340  -0.000427
         0.032923  -0.008771   0.033353   0.013612   0.023576
   0 1  -0.065039   0.288293  -0.284916   0.493490  -0.201455
         0.290145  -0.150392   0.260486  -0.106340  -0.000427
         0.032923  -0.008771  -0.033353   0.013612  -0.023576
   0 1   1.010938  -0.011975   0.000000   0.000000   0.000000
        -0.054085   0.000000   0.000000  -0.000000  -0.003174
        -0.003174  -0.003174   0.000000   0.000000   0.000000
 MINI         5   5
   1 0  -0.104883   0.308874   0.000000   0.000000   0.521806
   0 1  -0.104883   0.308874   0.491961   0.000000  -0.173934
   0 1  -0.104883   0.308876  -0.245980  -0.426050  -0.173933
   0 1  -0.104883   0.308876  -0.245980   0.426050  -0.173933
   0 1   0.988209   0.063992   0.000000   0.000000   0.000000
 $END
 
 $DATA
 FMO calculation
 C1 
 H.1-1    1
      N31 6
   
 O.1-1    8
      N31 6
      d 1
      1 0.800 1.0
   
 C.1-1    6
      N31 6
      d 1
      1 0.800 1.0
   
 N.1-1    7
      N31 6
      d 1
      1 0.800 1.0
   
 P.1-1   15
      N31 6
      d 1
      1 0.550 1.0
   
 $END
 $FMOXYZ
    1    H    0.587    -6.281    10.793
    2    O    0.385    -5.360    11.044
    3    C    1.205    -5.046    12.178
    4    H    2.244    -5.377    11.965
    5    H    0.832    -5.633    13.041
    6    C    1.238    -3.558    12.583
    7    H    2.112    -3.348    13.236
    8    O    1.365    -2.713    11.412
    9    C    0.410    -1.668    11.439
    10    H    0.998    -0.724    11.390
    11    N    -0.457    -1.723    10.268
    12    C    -1.171    -0.692    9.726
    13    N    -2.097    2.653    9.658
    14    H    -1.660    3.041    10.471
    15    H    -2.657    3.234    9.068
    16    N    -1.220    0.573    10.184
    17    C    -1.957    1.363    9.398
    18    N    -2.620    0.900    8.290
    19    H    -3.160    1.552    7.741
    20    C    -2.594    -0.407    7.811
    21    O    -3.202    -0.804    6.812
    22    C    -1.781    -1.229    8.612
    23    N    -1.441    -2.561    8.444
    24    C    -0.658    -2.811    9.454
    25    H    -0.178    -3.765    9.641
    26    C    -0.354    -1.710    12.751
    27    H    -1.453    -1.615    12.604
    28    O    0.089    -0.669    13.595
    29    H    -0.192    -0.892    14.496
    30    C    -0.025    -3.094    13.319
    31    H    -0.833    -3.797    13.002
    32    O    0.207    -3.101    14.751
    33    P    -0.577    -4.034    15.727
    34    O    -0.305    -5.450    15.396
    35    O    -0.305    -3.605    17.121
    36    O    -2.044    -3.676    15.347
    37    C    -2.631    -2.429    15.761
    38    H    -2.179    -1.580    15.196
    39    H    -2.468    -2.229    16.847
    40    C    -4.131    -2.471    15.508
    41    H    -4.704    -2.089    16.382
    42    O    -4.407    -1.589    14.372
    43    C    -5.506    -2.089    13.654
    44    H    -6.298    -1.308    13.734
    45    N    -5.180    -2.366    12.225
    46    C    -4.146    -3.223    11.917
    47    H    -3.527    -3.574    12.739
    48    C    -3.855    -3.543    10.651
    49    H    -3.048    -4.227    10.397
    50    C    -5.953    -1.828    11.199
    51    O    -6.911    -1.090    11.478
    52    N    -5.653    -2.122    9.910
    53    C    -4.634    -2.949    9.622
    54    N    -4.376    -3.235    8.346
    55    H    -4.845    -2.770    7.602
    56    H    -3.587    -3.800    8.100
    57    C    -5.970    -3.324    14.382
    58    H    -6.242    -4.097    13.665
    59    O    -7.001    -3.023    15.305
    60    H    -7.236    -3.860    15.722
    61    C    -4.720    -3.823    15.073
    62    H    -4.038    -4.265    14.321
    63    O    -4.936    -4.743    16.176
    64    P    -5.040    -6.296    15.805
    65    O    -5.308    -7.059    17.044
    66    O    -3.860    -6.712    15.014
    67    O    -6.289    -6.401    14.871
    68    C    -7.627    -6.175    15.349
    69    H    -7.650    -5.420    16.172
    70    H    -8.032    -7.115    15.784
    71    C    -8.600    -5.697    14.240
    72    H    -9.237    -4.901    14.685
    73    O    -7.969    -5.160    13.041
    74    C    -8.906    -5.106    11.999
    75    H    -9.116    -4.020    11.852
    76    N    -8.332    -5.684    10.742
    77    C    -7.353    -4.934    10.141
    78    H    -7.056    -4.051    10.706
    79    C    -8.551    -6.975    10.285
    80    O    -9.180    -7.825    10.893
    81    N    -7.985    -7.286    9.089
    82    H    -8.260    -8.177    8.711
    83    C    -7.105    -6.534    8.368
    84    O    -6.668    -6.942    7.294
    85    C    -6.753    -5.310    8.998
    86    H    -6.012    -4.735    8.481
    87    C    -10.168    -5.792    12.541
    88    H    -10.717    -6.384    11.785
    89    O    -11.046    -4.835    13.115
    90    H    -11.522    -4.353    12.423
    91    C    -9.524    -6.695    13.600
    92    H    -8.813    -7.396    13.103
    93    O    -10.411    -7.332    14.557
    94    P    -10.355    -8.918    14.502
    95    O    -11.330    -9.451    15.479
    96    O    -8.963    -9.383    14.678
    97    O    -10.787    -9.220    13.023
    98    C    -11.534    -10.385    12.641
    99    H    -11.361    -11.242    13.333
    100    H    -11.184    -10.712    11.637
    101    C    -13.037    -10.111    12.544
    102    H    -13.577    -11.065    12.364
    103    O    -13.561    -9.559    13.785
    104    C    -14.743    -8.836    13.504
    105    H    -15.540    -9.461    13.970
    106    N    -14.805    -7.479    14.134
    107    C    -13.850    -7.053    15.039
    108    H    -12.989    -7.714    15.163
    109    C    -15.937    -6.716    13.907
    110    O    -16.855    -7.070    13.176
    111    N    -15.986    -5.525    14.572
    112    H    -16.850    -5.008    14.457
    113    C    -15.138    -5.095    15.565
    114    O    -15.401    -4.070    16.195
    115    C    -13.987    -5.928    15.760
    116    H    -13.265    -5.637    16.517
    117    C    -14.919    -8.840    11.990
    118    H    -15.279    -7.875    11.581
    119    O    -15.821    -9.882    11.652
    120    H    -15.796    -9.995    10.689
    121    C    -13.505    -9.111    11.488
    122    H    -12.867    -8.202    11.599
    123    O    -13.463    -9.687    10.167
    124    P    -12.685    -9.018    8.977
    125    O    -12.892    -9.874    7.787
    126    O    -11.291    -8.762    9.357
    127    O    -13.377    -7.618    8.749
    128    C    -14.383    -7.479    7.714
    129    H    -14.857    -8.454    7.450
    130    H    -13.912    -7.104    6.779
    131    C    -15.557    -6.556    8.105
    132    H    -16.492    -7.068    7.786
    133    O    -15.657    -6.357    9.549
    134    C    -16.224    -5.086    9.808
    135    H    -17.109    -5.266    10.459
    136    N    -15.289    -4.208    10.533
    137    C    -14.441    -2.533    11.684
    138    N    -13.454    -3.520    11.652
    139    C    -14.012    -4.496    10.969
    140    H    -13.541    -5.456    10.740
    141    N    -15.635    -0.524    12.112
    142    C    -16.623    -1.044    11.380
    143    H    -17.506    -0.404    11.261
    144    N    -16.700    -2.249    10.806
    145    C    -15.567    -2.945    10.993
    146    C    -14.510    -1.261    12.299
    147    N    -13.537    -0.746    13.067
    148    H    -12.694    -1.247    13.273
    149    H    -13.652    0.164    13.470
    150    C    -16.679    -4.528    8.469
    151    H    -16.667    -3.421    8.423
    152    O    -17.983    -5.010    8.181
    153    H    -17.957    -5.978    8.132
    154    C    -15.629    -5.130    7.539
    155    H    -14.641    -4.650    7.740
    156    O    -16.013    -5.148    6.138
    157    P    -15.031    -4.502    5.085
    158    O    -13.657    -4.932    5.397
    159    O    -15.509    -4.761    3.707
    160    O    -15.143    -2.980    5.356
    161    C    -16.138    -2.009    5.031
    162    H    -16.889    -2.001    5.853
    163    H    -16.663    -2.281    4.094
    164    C    -15.591    -0.556    4.890
    165    H    -16.394    0.100    4.497
    166    O    -15.283    -0.069    6.248
    167    C    -13.990    0.525    6.284
    168    H    -14.095    1.474    6.864
    169    N    -12.968    -0.339    6.962
    170    C    -12.954    -1.640    6.611
    171    H    -13.524    -1.859    5.754
    172    C    -12.214    -2.562    7.190
    173    H    -12.278    -3.613    6.907
    174    C    -12.014    0.100    7.883
    175    O    -11.953    1.312    8.131
    176    N    -11.200    -0.817    8.495
    177    C    -11.310    -2.126    8.175
    178    N    -10.546    -3.047    8.745
    179    H    -9.905    -2.767    9.449
    180    H    -10.632    -4.009    8.484
    181    C    -13.664    0.861    4.865
    182    H    -12.583    0.851    4.719
    183    O    -14.251    2.115    4.567
    184    H    -15.209    1.991    4.501
    185    C    -14.299    -0.277    4.052
    186    H    -13.656    -1.181    4.086
    187    O    -14.597    0.022    2.663
    188    P    -13.415    0.467    1.679
    189    O    -12.239    -0.420    1.862
    190    O    -13.981    0.530    0.314
    191    O    -13.112    1.960    2.066
    192    C    -11.913    2.725    1.847
    193    H    -12.180    3.665    1.321
    194    H    -11.200    2.192    1.188
    195    C    -11.178    3.080    3.152
    196    H    -11.794    3.709    3.825
    197    O    -10.908    1.851    3.815
    198    C    -9.823    1.945    4.664
    199    H    -10.217    2.247    5.662
    200    N    -9.164    0.641    4.745
    201    C    -8.455    0.116    5.790
    202    N    -7.226    0.339    9.007
    203    H    -6.822    -0.287    9.676
    204    H    -7.608    1.205    9.325
    205    N    -8.228    0.711    6.972
    206    C    -7.524    -0.063    7.790
    207    N    -7.046    -1.299    7.442
    208    H    -6.524    -1.800    8.140
    209    C    -7.230    -1.919    6.216
    210    O    -6.747    -3.030    5.976
    211    C    -8.026    -1.126    5.351
    212    N    -8.484    -1.390    4.068
    213    C    -9.165    -0.314    3.750
    214    H    -9.719    -0.157    2.818
    215    C    -8.930    3.010    4.088
    216    H    -8.025    2.580    3.614
    217    O    -8.592    3.903    5.121
    218    H    -8.105    4.667    4.766
    219    C    -9.783    3.666    2.987
    220    H    -9.447    3.240    2.009
    221    O    -9.807    5.111    2.977
    222    P    -8.723    5.894    2.151
    223    O    -8.207    5.029    1.067
    224    O    -9.296    7.196    1.746
    225    O    -7.546    6.123    3.175
    226    C    -7.569    7.247    4.086
    227    H    -8.575    7.355    4.558
    228    H    -7.352    8.191    3.531
    229    C    -6.548    7.076    5.231
    230    H    -6.786    7.755    6.080
    231    O    -6.623    5.725    5.726
    232    C    -5.347    5.227    6.047
    233    H    -5.318    5.285    7.160
    234    N    -5.186    3.820    5.624
    235    C    -5.701    3.387    4.422
    236    H    -6.258    4.130    3.847
    237    C    -5.591    2.105    4.036
    238    H    -6.052    1.718    3.130
    239    C    -4.425    2.956    6.396
    240    O    -3.866    3.379    7.423
    241    N    -4.305    1.674    6.017
    242    C    -4.876    1.225    4.890
    243    N    -4.755    -0.067    4.590
    244    H    -4.195    -0.606    5.226
    245    H    -5.129    -0.484    3.762
    246    C    -4.280    6.140    5.478
    247    H    -3.684    5.628    4.690
    248    O    -3.410    6.585    6.506
    249    H    -3.915    7.151    7.115
    250    C    -5.086    7.283    4.830
    251    H    -5.052    7.154    3.724
    252    O    -4.651    8.611    5.174
    253    H    -3.691    8.679    5.019
 $END
