!*** FMO 5.3 (Gamess) INPUT generated by Facio 22.1.1.32 ***
 $CONTRL RUNTYP=ENERGY NPRINT=-5 ISPHER=1 MAXIT=200 $END
 $SYSTEM MWORDS=63 MEMDDI=63 $END
 $GDDI NGROUP=1 $END
 $SCF DIRSCF=.TRUE. NPUNCH=0 $END
!*** NumCPU : 2  MemPerNode : 512MB
 $PCM SOLVNT=WATER IEF=-10 ICOMP=2 ICAV=1 IDISP=1 IFMO=-1 $END
 $PCMCAV RADII=SUAHF $END
 $TESCAV NTSALL=60 $END
 $FMOPRP
    NAODIR=200
    NGRFMO(1)=1, 1, 0, 0, 0,   0, 0, 0, 0, 0
    IPIEDA=1
    NPRINT=9
 $END
 $FMO
      SCFTYP(1)=RHF
      MODGRD=10
      MODMUL=0
      MAXCAO=5
      MAXBND=10
      NLAYER=1
      MPLEVL(1)=2
      NFRAG=8
      ICHARG(1)=-1, -1, -1, -1, -1, -1, -1, 0
      FRGNAM(1)=F1, F2, F3, F4, F5, F6, F7, F8
      indat(1)=0
               1   -36   0
               37   -67   0
               68   -97   0
               98   -127   0
               128   -160   0
               161   -191   0
               192   -225   0
               226   -253   0
 $END

 $FMOBND
   -37   36       6-31G*    MINI
   -68   67       6-31G*    MINI
   -98   97       6-31G*    MINI
   -128   127       6-31G*    MINI
   -161   160       6-31G*    MINI
   -192   191       6-31G*    MINI
   -226   225       6-31G*    MINI
 $END
 $FMOHYB
 6-31G*      15   5
   1 0  -0.065034   0.288264   0.000000   0.000000   0.604412
         0.290129   0.000000   0.000000   0.319045  -0.017106
        -0.017106   0.057934   0.000000   0.000000   0.000000
   0 1  -0.065040   0.288293   0.569832   0.000000  -0.201456
         0.290147   0.300783   0.000000  -0.106342   0.049598
        -0.017106  -0.008771   0.000000  -0.027223   0.000000
   0 1  -0.065039   0.288293  -0.284916  -0.493490  -0.201455
         0.290145  -0.150392  -0.260486  -0.106340  -0.000427
         0.032923  -0.008771   0.033353   0.013612   0.023576
   0 1  -0.065039   0.288293  -0.284916   0.493490  -0.201455
         0.290145  -0.150392   0.260486  -0.106340  -0.000427
         0.032923  -0.008771  -0.033353   0.013612  -0.023576
   0 1   1.010938  -0.011975   0.000000   0.000000   0.000000
        -0.054085   0.000000   0.000000  -0.000000  -0.003174
        -0.003174  -0.003174   0.000000   0.000000   0.000000
 MINI         5   5
   1 0  -0.104883   0.308874   0.000000   0.000000   0.521806
   0 1  -0.104883   0.308874   0.491961   0.000000  -0.173934
   0 1  -0.104883   0.308876  -0.245980  -0.426050  -0.173933
   0 1  -0.104883   0.308876  -0.245980   0.426050  -0.173933
   0 1   0.988209   0.063992   0.000000   0.000000   0.000000
 $END
 
 $DATA
 FMO calculation
 C1 
 H.1-1    1
      N31 6
   
 O.1-1    8
      N31 6
      d 1
      1 0.800 1.0
   
 C.1-1    6
      N31 6
      d 1
      1 0.800 1.0
   
 N.1-1    7
      N31 6
      d 1
      1 0.800 1.0
   
 P.1-1   15
      N31 6
      d 1
      1 0.550 1.0
   
 $END
 $FMOXYZ
    1    H    2.396    -6.279    9.407
    2    O    1.882    -5.642    9.939
    3    C    2.756    -5.150    10.966
    4    H    3.686    -4.757    10.499
    5    H    3.035    -5.991    11.639
    6    C    2.120    -4.039    11.804
    7    H    2.796    -3.725    12.630
    8    O    1.876    -2.866    10.968
    9    C    0.638    -2.279    11.352
    10    H    0.850    -1.213    11.593
    11    N    -0.349    -2.330    10.265
    12    C    -1.473    -1.554    10.169
    13    N    -3.552    0.892    11.463
    14    H    -3.107    1.128    12.324
    15    H    -4.404    1.358    11.210
    16    N    -1.873    -0.633    11.062
    17    C    -2.998    -0.025    10.693
    18    N    -3.643    -0.295    9.514
    19    H    -4.488    0.216    9.308
    20    C    -3.239    -1.219    8.559
    21    O    -3.875    -1.389    7.512
    22    C    -2.069    -1.911    8.975
    23    N    -1.354    -2.925    8.350
    24    C    -0.335    -3.139    9.150
    25    H    0.468    -3.862    8.979
    26    C    0.158    -2.993    12.593
    27    H    -0.949    -3.026    12.667
    28    O    0.696    -2.362    13.737
    29    H    0.438    -2.905    14.491
    30    C    0.747    -4.385    12.400
    31    H    0.181    -4.940    11.616
    32    O    0.924    -5.153    13.610
    33    P    -0.242    -6.079    14.129
    34    O    -0.649    -6.986    13.035
    35    O    0.231    -6.725    15.372
    36    O    -1.410    -5.071    14.466
    37    C    -1.321    -4.234    15.645
    38    H    -0.404    -3.606    15.632
    39    H    -1.272    -4.857    16.566
    40    C    -2.535    -3.304    15.769
    41    H    -2.434    -2.643    16.654
    42    O    -2.633    -2.438    14.603
    43    C    -4.005    -2.233    14.295
    44    H    -4.157    -1.134    14.353
    45    N    -4.370    -2.681    12.924
    46    C    -3.604    -3.623    12.279
    47    H    -2.755    -4.013    12.844
    48    C    -3.886    -4.012    11.029
    49    H    -3.277    -4.738    10.493
    50    C    -5.492    -2.148    12.294
    51    O    -6.185    -1.310    12.898
    52    N    -5.789    -2.526    11.031
    53    C    -5.023    -3.429    10.396
    54    N    -5.336    -3.772    9.150
    55    H    -6.185    -3.415    8.751
    56    H    -4.804    -4.441    8.626
    57    C    -4.832    -2.896    15.383
    58    H    -5.788    -3.309    15.004
    59    O    -5.084    -1.973    16.429
    60    H    -5.470    -2.472    17.167
    61    C    -3.898    -4.008    15.843
    62    H    -3.871    -4.828    15.090
    63    O    -4.141    -4.479    17.187
    64    P    -5.069    -5.725    17.416
    65    O    -4.532    -6.850    16.618
    66    O    -5.214    -5.936    18.872
    67    O    -6.458    -5.278    16.834
    68    C    -7.389    -6.266    16.327
    69    H    -8.104    -6.556    17.130
    70    H    -6.882    -7.201    15.991
    71    C    -8.190    -5.741    15.128
    72    H    -8.966    -5.024    15.466
    73    O    -7.331    -5.010    14.205
    74    C    -7.614    -5.392    12.873
    75    H    -7.778    -4.445    12.306
    76    N    -6.489    -6.148    12.258
    77    C    -5.398    -6.553    13.003
    78    H    -5.435    -6.326    14.073
    79    C    -6.527    -6.355    10.897
    80    O    -7.444    -5.957    10.192
    81    N    -5.449    -7.025    10.381
    82    H    -5.482    -7.200    9.390
    83    C    -4.327    -7.450    11.055
    84    O    -3.420    -8.006    10.441
    85    C    -4.340    -7.171    12.461
    86    H    -3.481    -7.456    13.063
    87    C    -8.910    -6.178    12.914
    88    H    -9.021    -6.910    12.088
    89    O    -9.985    -5.272    12.918
    90    H    -10.083    -4.976    13.824
    91    C    -8.825    -6.847    14.271
    92    H    -8.081    -7.681    14.239
    93    O    -10.115    -7.218    14.822
    94    P    -10.515    -8.736    14.838
    95    O    -9.626    -9.509    13.939
    96    O    -10.583    -9.172    16.246
    97    O    -11.967    -8.785    14.246
    98    C    -12.227    -8.683    12.826
    99    H    -11.746    -9.519    12.265
    100    H    -11.803    -7.727    12.437
    101    C    -13.741    -8.699    12.498
    102    H    -14.122    -9.736    12.400
    103    O    -14.504    -8.089    13.585
    104    C    -15.491    -7.214    13.076
    105    H    -16.444    -7.537    13.557
    106    N    -15.208    -5.790    13.430
    107    C    -14.067    -5.430    14.126
    108    H    -13.375    -6.242    14.366
    109    C    -16.165    -4.848    13.117
    110    O    -17.219    -5.132    12.561
    111    N    -15.864    -3.567    13.497
    112    H    -16.572    -2.876    13.309
    113    C    -14.781    -3.146    14.235
    114    O    -14.702    -1.972    14.593
    115    C    -13.829    -4.173    14.532
    116    H    -12.951    -3.916    15.121
    117    C    -15.572    -7.458    11.577
    118    H    -15.842    -6.547    11.001
    119    O    -16.507    -8.490    11.304
    120    H    -16.406    -8.738    10.371
    121    C    -14.146    -7.880    11.255
    122    H    -13.487    -6.978    11.245
    123    O    -14.035    -8.685    10.063
    124    P    -13.402    -8.107    8.746
    125    O    -12.150    -7.398    9.076
    126    O    -13.325    -9.196    7.750
    127    O    -14.455    -7.070    8.216
    128    C    -14.100    -6.145    7.147
    129    H    -14.451    -6.540    6.169
    130    H    -12.991    -6.013    7.054
    131    C    -14.710    -4.734    7.325
    132    H    -15.677    -4.646    6.786
    133    O    -15.002    -4.495    8.740
    134    C    -14.615    -3.196    9.104
    135    H    -15.490    -2.726    9.612
    136    N    -13.483    -3.226    10.026
    137    C    -12.016    -2.758    11.592
    138    N    -11.625    -3.949    11.017
    139    C    -12.524    -4.203    10.116
    140    H    -12.553    -5.099    9.491
    141    N    -12.098    -0.828    12.951
    142    C    -13.168    -0.473    12.233
    143    H    -13.619    0.486    12.513
    144    N    -13.819    -1.150    11.274
    145    C    -13.162    -2.288    10.981
    146    C    -11.482    -1.997    12.656
    147    N    -10.415    -2.394    13.377
    148    H    -9.906    -3.207    13.084
    149    H    -10.086    -1.833    14.141
    150    C    -14.300    -2.451    7.832
    151    H    -13.521    -1.688    7.993
    152    O    -15.473    -1.843    7.327
    153    H    -15.217    -1.276    6.587
    154    C    -13.785    -3.561    6.920
    155    H    -12.748    -3.826    7.235
    156    O    -13.894    -3.247    5.504
    157    P    -12.729    -3.617    4.501
    158    O    -11.431    -3.384    5.144
    159    O    -12.959    -4.976    3.973
    160    O    -12.888    -2.590    3.320
    161    C    -12.517    -1.199    3.397
    162    H    -11.506    -1.056    2.951
    163    H    -12.461    -0.849    4.447
    164    C    -13.511    -0.266    2.676
    165    H    -13.241    0.793    2.886
    166    O    -13.486    -0.452    1.236
    167    C    -14.663    -1.149    0.802
    168    H    -15.273    -0.394    0.259
    169    N    -14.345    -2.296    -0.115
    170    C    -13.027    -2.536    -0.465
    171    H    -12.269    -1.909    0.011
    172    C    -12.692    -3.511    -1.316
    173    H    -11.664    -3.709    -1.603
    174    C    -15.353    -3.048    -0.732
    175    O    -16.543    -2.760    -0.540
    176    N    -15.025    -4.073    -1.551
    177    C    -13.739    -4.297    -1.867
    178    N    -13.458    -5.259    -2.744
    179    H    -14.222    -5.766    -3.146
    180    H    -12.527    -5.458    -3.046
    181    C    -15.419    -1.572    2.062
    182    H    -15.083    -2.578    2.387
    183    O    -16.827    -1.560    1.935
    184    H    -17.094    -0.638    1.801
    185    C    -14.973    -0.510    3.057
    186    H    -14.985    -0.960    4.079
    187    O    -15.737    0.711    2.973
    188    P    -16.428    1.360    4.219
    189    O    -16.515    2.819    3.995
    190    O    -17.709    0.668    4.472
    191    O    -15.449    1.080    5.421
    192    C    -14.212    1.815    5.560
    193    H    -14.241    2.815    5.067
    194    H    -13.384    1.240    5.091
    195    C    -13.858    2.031    7.034
    196    H    -14.663    2.587    7.564
    197    O    -13.690    0.749    7.691
    198    C    -12.613    0.826    8.616
    199    H    -13.014    0.515    9.603
    200    N    -11.516    -0.066    8.229
    201    C    -10.408    -0.398    8.959
    202    N    -8.482    -0.155    11.816
    203    H    -9.010    0.460    12.400
    204    H    -7.644    -0.576    12.174
    205    N    -10.108    0.040    10.190
    206    C    -8.976    -0.496    10.647
    207    N    -8.233    -1.404    9.943
    208    H    -7.393    -1.770    10.365
    209    C    -8.519    -1.870    8.672
    210    O    -7.797    -2.686    8.090
    211    C    -9.695    -1.272    8.165
    212    N    -10.321    -1.457    6.958
    213    C    -11.407    -0.744    7.043
    214    H    -12.193    -0.693    6.293
    215    C    -12.175    2.265    8.679
    216    H    -11.092    2.376    8.895
    217    O    -12.929    2.941    9.667
    218    H    -12.700    3.876    9.606
    219    C    -12.516    2.735    7.269
    220    H    -11.808    2.284    6.530
    221    O    -12.670    4.165    7.128
    222    P    -11.483    4.999    6.515
    223    O    -10.871    4.257    5.390
    224    O    -11.940    6.375    6.231
    225    O    -10.438    5.042    7.691
    226    C    -10.780    5.677    8.945
    227    H    -11.705    5.244    9.384
    228    H    -10.965    6.767    8.794
    229    C    -9.651    5.518    9.970
    230    H    -9.885    6.093    10.896
    231    O    -9.529    4.119    10.354
    232    C    -8.152    3.797    10.514
    233    H    -8.052    3.391    11.548
    234    N    -7.688    2.767    9.541
    235    C    -8.391    2.549    8.378
    236    H    -9.295    3.142    8.249
    237    C    -8.005    1.632    7.484
    238    H    -8.574    1.434    6.579
    239    C    -6.524    2.042    9.781
    240    O    -5.875    2.264    10.814
    241    N    -6.121    1.106    8.893
    242    C    -6.820    0.896    7.764
    243    N    -6.397    -0.032    6.907
    244    H    -5.567    -0.556    7.114
    245    H    -6.886    -0.230    6.058
    246    C    -7.361    5.093    10.413
    247    H    -6.355    4.937    9.964
    248    O    -7.225    5.681    11.698
    249    H    -6.872    6.585    11.601
    250    C    -8.251    5.917    9.490
    251    H    -8.131    5.581    8.438
    252    O    -8.061    7.339    9.600
    253    H    -7.184    7.577    9.258
 $END
