!*** FMO 5.3 (Gamess) INPUT generated by Facio 22.1.1.32 ***
 $CONTRL RUNTYP=ENERGY NPRINT=-5 ISPHER=1 MAXIT=200 $END
 $SYSTEM MWORDS=63 MEMDDI=63 $END
 $GDDI NGROUP=1 $END
 $SCF DIRSCF=.TRUE. NPUNCH=0 $END
!*** NumCPU : 2  MemPerNode : 512MB
 $PCM SOLVNT=WATER IEF=-10 ICOMP=2 ICAV=1 IDISP=1 IFMO=-1 $END
 $PCMCAV RADII=SUAHF $END
 $TESCAV NTSALL=60 $END
 $FMOPRP
    NAODIR=200
    NGRFMO(1)=1, 1, 0, 0, 0,   0, 0, 0, 0, 0
    IPIEDA=1
    NPRINT=9
 $END
 $FMO
      SCFTYP(1)=RHF
      MODGRD=10
      MODMUL=0
      MAXCAO=5
      MAXBND=13
      NLAYER=1
      MPLEVL(1)=2
      NFRAG=11
      ICHARG(1)=-1, -1, -1, -1, -1, -1, -1, -1, -1, -1, 0
      FRGNAM(1)=F1, F2, F3, F4, F5, F6, F7, F8, F9, F10, F11
      indat(1)=0
               1   -33   0
               34   -64   0
               65   -94   0
               95   -124   0
               125   -158   0
               159   -189   0
               190   -220   0
               221   -253   0
               254   -286   0
               287   -320   0
               321   -351   0
 $END

 $FMOBND
   -34   33       6-31G*    MINI
   -65   64       6-31G*    MINI
   -95   94       6-31G*    MINI
   -125   124       6-31G*    MINI
   -159   158       6-31G*    MINI
   -190   189       6-31G*    MINI
   -221   220       6-31G*    MINI
   -254   253       6-31G*    MINI
   -287   286       6-31G*    MINI
   -321   320       6-31G*    MINI
 $END
 $FMOHYB
 6-31G*      15   5
   1 0  -0.065034   0.288264   0.000000   0.000000   0.604412
         0.290129   0.000000   0.000000   0.319045  -0.017106
        -0.017106   0.057934   0.000000   0.000000   0.000000
   0 1  -0.065040   0.288293   0.569832   0.000000  -0.201456
         0.290147   0.300783   0.000000  -0.106342   0.049598
        -0.017106  -0.008771   0.000000  -0.027223   0.000000
   0 1  -0.065039   0.288293  -0.284916  -0.493490  -0.201455
         0.290145  -0.150392  -0.260486  -0.106340  -0.000427
         0.032923  -0.008771   0.033353   0.013612   0.023576
   0 1  -0.065039   0.288293  -0.284916   0.493490  -0.201455
         0.290145  -0.150392   0.260486  -0.106340  -0.000427
         0.032923  -0.008771  -0.033353   0.013612  -0.023576
   0 1   1.010938  -0.011975   0.000000   0.000000   0.000000
        -0.054085   0.000000   0.000000  -0.000000  -0.003174
        -0.003174  -0.003174   0.000000   0.000000   0.000000
 MINI         5   5
   1 0  -0.104883   0.308874   0.000000   0.000000   0.521806
   0 1  -0.104883   0.308874   0.491961   0.000000  -0.173934
   0 1  -0.104883   0.308876  -0.245980  -0.426050  -0.173933
   0 1  -0.104883   0.308876  -0.245980   0.426050  -0.173933
   0 1   0.988209   0.063992   0.000000   0.000000   0.000000
 $END
 
 $DATA
 FMO calculation
 C1 
 H.1-1    1
      N31 6
   
 O.1-1    8
      N31 6
      d 1
      1 0.800 1.0
   
 C.1-1    6
      N31 6
      d 1
      1 0.800 1.0
   
 N.1-1    7
      N31 6
      d 1
      1 0.800 1.0
   
 P.1-1   15
      N31 6
      d 1
      1 0.550 1.0
   
 $END
 $FMOXYZ
    1    H    6.758    8.561    18.027
    2    O    6.819    8.767    17.075
    3    C    5.567    9.355    16.688
    4    H    5.396    10.270    17.295
    5    H    4.740    8.643    16.903
    6    C    5.505    9.752    15.206
    7    H    4.496    10.149    14.951
    8    O    6.480    10.805    14.925
    9    C    7.075    10.558    13.655
    10    H    6.913    11.488    13.061
    11    N    8.540    10.294    13.736
    12    C    9.113    9.930    14.934
    13    H    8.439    9.845    15.787
    14    C    10.431    9.718    15.043
    15    H    10.893    9.442    15.988
    16    C    9.337    10.409    12.600
    17    O    8.811    10.712    11.519
    18    N    10.671    10.204    12.692
    19    C    11.226    9.881    13.874
    20    N    12.544    9.703    13.941
    21    H    13.095    9.776    13.106
    22    H    12.995    9.429    14.792
    23    C    6.300    9.428    13.006
    24    H    6.925    8.822    12.323
    25    O    5.192    9.949    12.301
    26    H    4.697    9.187    11.972
    27    C    5.848    8.626    14.221
    28    H    6.714    8.082    14.662
    29    O    4.688    7.780    14.013
    30    P    4.916    6.279    13.586
    31    O    5.993    5.711    14.429
    32    O    3.618    5.561    13.598
    33    O    5.437    6.390    12.111
    34    C    4.558    6.817    11.047
    35    H    4.079    7.796    11.273
    36    H    3.740    6.073    10.893
    37    C    5.323    6.962    9.728
    38    H    4.645    7.314    8.920
    39    O    6.380    7.957    9.867
    40    C    7.515    7.525    9.125
    41    H    7.734    8.354    8.412
    42    N    8.722    7.303    9.970
    43    C    8.589    7.089    11.321
    44    H    7.571    7.076    11.703
    45    C    9.656    6.931    12.114
    46    H    9.565    6.800    13.190
    47    C    9.988    7.274    9.394
    48    O    10.097    7.400    8.166
    49    N    11.080    7.111    10.177
    50    C    10.942    6.961    11.505
    51    N    12.034    6.834    12.255
    52    H    12.938    6.824    11.820
    53    H    11.984    6.668    13.238
    54    C    7.102    6.299    8.335
    55    H    7.941    5.594    8.169
    56    O    6.554    6.696    7.091
    57    H    6.249    5.892    6.655
    58    C    6.034    5.697    9.241
    59    H    6.495    5.229    10.141
    60    O    5.082    4.833    8.581
    61    P    5.390    3.295    8.479
    62    O    5.793    2.809    9.818
    63    O    4.210    2.649    7.868
    64    O    6.608    3.185    7.491
    65    C    6.437    3.424    6.075
    66    H    5.963    4.412    5.882
    67    H    5.774    2.649    5.621
    68    C    7.784    3.387    5.335
    69    H    7.640    3.637    4.263
    70    O    8.699    4.387    5.887
    71    C    10.024    3.868    5.869
    72    H    10.627    4.594    5.276
    73    N    10.596    3.738    7.246
    74    C    9.773    3.644    8.345
    75    H    8.709    3.637    8.127
    76    C    11.967    3.722    7.393
    77    O    12.739    3.779    6.446
    78    N    12.407    3.646    8.691
    79    H    13.414    3.593    8.809
    80    C    11.644    3.603    9.837
    81    O    12.187    3.570    10.940
    82    C    10.232    3.600    9.604
    83    H    9.560    3.560    10.459
    84    C    9.972    2.542    5.119
    85    H    10.724    1.819    5.492
    86    O    10.154    2.748    3.729
    87    H    10.074    1.877    3.323
    88    C    8.555    2.065    5.413
    89    H    8.474    1.727    6.470
    90    O    8.019    1.111    4.455
    91    P    8.157    -0.428    4.799
    92    O    7.755    -0.619    6.207
    93    O    7.360    -1.166    3.796
    94    O    9.680    -0.761    4.586
    95    C    10.279    -0.705    3.270
    96    H    10.042    0.250    2.744
    97    H    9.889    -1.526    2.629
    98    C    11.810    -0.837    3.344
    99    H    12.270    -0.754    2.336
    100    O    12.346    0.246    4.159
    101    C    13.452    -0.220    4.912
    102    H    14.315    0.415    4.601
    103    N    13.230    -0.091    6.378
    104    C    11.959    -0.038    6.903
    105    H    11.151    -0.163    6.186
    106    C    14.330    -0.057    7.204
    107    O    15.478    -0.150    6.782
    108    N    14.050    0.103    8.535
    109    H    14.863    0.125    9.141
    110    C    12.811    0.233    9.122
    111    O    12.711    0.395    10.336
    112    C    11.715    0.160    8.206
    113    H    10.700    0.229    8.591
    114    C    13.716    -1.653    4.493
    115    H    14.055    -2.275    5.347
    116    O    14.674    -1.686    3.448
    117    H    14.602    -2.551    3.018
    118    C    12.344    -2.114    4.009
    119    H    11.674    -2.324    4.874
    120    O    12.391    -3.197    3.054
    121    P    12.157    -4.690    3.499
    122    O    10.754    -4.840    3.943
    123    O    12.624    -5.598    2.428
    124    O    13.047    -4.898    4.767
    125    C    14.487    -4.944    4.800
    126    H    14.930    -4.050    4.316
    127    H    14.871    -5.816    4.230
    128    C    15.056    -5.025    6.238
    129    H    16.153    -4.837    6.206
    130    O    14.455    -4.039    7.127
    131    C    13.617    -4.706    8.060
    132    H    14.198    -4.759    9.007
    133    N    12.379    -3.963    8.263
    134    C    11.966    -3.393    9.436
    135    N    12.438    -2.721    12.800
    136    H    11.952    -2.248    13.534
    137    H    13.288    -3.208    13.014
    138    N    12.614    -3.446    10.616
    139    C    11.972    -2.770    11.569
    140    N    10.794    -2.104    11.361
    141    H    10.367    -1.633    12.140
    142    C    10.112    -2.038    10.157
    143    O    9.058    -1.404    10.050
    144    C    10.775    -2.766    9.136
    145    N    10.440    -2.947    7.800
    146    C    11.424    -3.665    7.321
    147    H    11.514    -3.990    6.286
    148    C    13.399    -6.108    7.542
    149    H    12.612    -6.128    6.758
    150    O    13.088    -7.046    8.551
    151    H    13.902    -7.172    9.065
    152    C    14.768    -6.377    6.928
    153    H    14.634    -7.161    6.142
    154    O    15.781    -6.744    7.907
    155    P    17.102    -7.415    7.362
    156    O    16.742    -8.359    6.282
    157    O    18.060    -6.344    7.020
    158    O    17.634    -8.245    8.588
    159    C    18.162    -7.653    9.789
    160    H    17.643    -8.096    10.669
    161    H    17.997    -6.553    9.840
    162    C    19.663    -7.940    9.930
    163    H    19.865    -9.028    9.828
    164    O    20.415    -7.262    8.887
    165    C    21.602    -6.716    9.444
    166    H    22.431    -7.113    8.816
    167    N    21.625    -5.224    9.387
    168    C    20.443    -4.526    9.261
    169    H    19.531    -5.124    9.189
    170    C    20.430    -3.191    9.173
    171    H    19.509    -2.624    9.055
    172    C    22.831    -4.529    9.481
    173    O    23.886    -5.167    9.636
    174    N    22.835    -3.176    9.382
    175    C    21.677    -2.513    9.202
    176    N    21.690    -1.194    9.056
    177    H    22.507    -0.731    9.400
    178    H    20.838    -0.683    9.166
    179    C    21.746    -7.272    10.851
    180    H    22.262    -6.563    11.534
    181    O    22.437    -8.515    10.831
    182    H    22.401    -8.879    11.731
    183    C    20.283    -7.448    11.245
    184    H    19.818    -6.461    11.465
    185    O    20.027    -8.400    12.294
    186    P    20.500    -8.115    13.766
    187    O    19.490    -8.710    14.667
    188    O    21.890    -8.595    13.920
    189    O    20.467    -6.550    13.915
    190    C    20.420    -5.939    15.229
    191    H    21.358    -6.152    15.794
    192    H    19.571    -6.348    15.824
    193    C    20.283    -4.403    15.120
    194    H    21.225    -3.968    14.726
    195    O    19.204    -4.028    14.226
    196    C    18.068    -3.662    14.981
    197    H    17.967    -2.565    14.826
    198    N    16.868    -4.382    14.507
    199    C    16.970    -5.720    14.198
    200    H    17.958    -6.169    14.319
    201    C    15.918    -6.404    13.728
    202    H    15.981    -7.453    13.446
    203    C    15.651    -3.722    14.372
    204    O    15.573    -2.521    14.672
    205    N    14.580    -4.400    13.899
    206    C    14.690    -5.697    13.566
    207    N    13.622    -6.321    13.074
    208    H    12.782    -5.801    12.928
    209    H    13.654    -7.275    12.784
    210    C    18.387    -3.912    16.444
    211    H    18.137    -4.957    16.735
    212    O    17.748    -3.001    17.314
    213    H    18.144    -2.131    17.148
    214    C    19.904    -3.725    16.446
    215    H    20.322    -4.324    17.290
    216    O    20.328    -2.336    16.468
    217    P    21.651    -1.919    17.217
    218    O    21.328    -0.788    18.117
    219    O    22.265    -3.109    17.845
    220    O    22.650    -1.408    16.110
    221    C    22.554    -0.090    15.524
    222    H    23.381    0.552    15.902
    223    H    21.595    0.421    15.781
    224    C    22.649    -0.154    13.992
    225    H    23.660    -0.485    13.667
    226    O    21.692    -1.130    13.494
    227    C    21.093    -0.648    12.316
    228    H    21.236    -1.449    11.565
    229    N    19.661    -0.413    12.508
    230    C    17.504    -0.111    12.208
    231    N    17.711    -0.101    13.581
    232    C    18.998    -0.299    13.707
    233    H    19.534    -0.377    14.657
    234    N    16.484    -0.050    10.077
    235    C    17.708    -0.208    9.564
    236    H    17.750    -0.237    8.467
    237    N    18.882    -0.330    10.197
    238    C    18.701    -0.293    11.533
    239    C    16.338    0.000    11.424
    240    N    15.102    0.157    11.938
    241    H    14.946    0.144    12.926
    242    H    14.310    0.223    11.327
    243    C    21.838    0.605    11.909
    244    H    21.193    1.331    11.372
    245    O    22.961    0.276    11.112
    246    H    23.465    1.092    10.995
    247    C    22.275    1.150    13.259
    248    H    21.406    1.584    13.806
    249    O    23.407    2.047    13.203
    250    P    23.177    3.597    13.034
    251    O    22.117    4.009    13.978
    252    O    24.492    4.254    13.190
    253    O    22.641    3.781    11.570
    254    C    23.475    3.569    10.412
    255    H    24.020    2.598    10.468
    256    H    24.239    4.376    10.331
    257    C    22.623    3.579    9.127
    258    H    23.242    3.316    8.241
    259    O    21.543    2.596    9.222
    260    C    20.382    3.105    8.580
    261    H    20.106    2.363    7.797
    262    N    19.250    3.250    9.515
    263    C    17.220    3.371    10.360
    264    N    18.094    3.434    11.444
    265    C    19.283    3.363    10.887
    266    H    20.233    3.388    11.426
    267    N    15.252    3.303    9.029
    268    C    16.065    3.211    7.973
    269    H    15.572    3.142    6.994
    270    N    17.401    3.182    7.935
    271    C    17.919    3.266    9.172
    272    C    15.811    3.378    10.268
    273    N    15.009    3.454    11.347
    274    H    15.382    3.514    12.278
    275    H    14.011    3.464    11.235
    276    C    20.768    4.412    7.918
    277    H    19.929    5.134    7.882
    278    O    21.244    4.173    6.607
    279    H    21.564    5.021    6.273
    280    C    21.891    4.898    8.827
    281    H    21.474    5.243    9.802
    282    O    22.795    5.857    8.215
    283    P    22.467    7.394    8.396
    284    O    22.062    7.620    9.800
    285    O    23.635    8.176    7.929
    286    O    21.229    7.664    7.457
    287    C    21.337    7.562    6.017
    288    H    21.792    6.594    5.703
    289    H    21.976    8.378    5.606
    290    C    19.962    7.662    5.346
    291    H    20.049    7.566    4.242
    292    O    19.114    6.575    5.804
    293    C    17.780    7.041    5.914
    294    H    17.155    6.373    5.280
    295    N    17.293    6.971    7.297
    296    C    15.983    6.972    7.693
    297    N    12.606    7.154    6.943
    298    H    12.609    7.243    5.951
    299    H    11.729    7.201    7.429
    300    N    14.908    7.059    6.882
    301    C    13.764    7.048    7.562
    302    N    13.700    6.917    8.924
    303    H    12.791    6.924    9.358
    304    C    14.788    6.808    9.780
    305    O    14.629    6.694    10.998
    306    C    16.016    6.855    9.070
    307    N    17.327    6.808    9.533
    308    C    18.050    6.895    8.445
    309    H    19.142    6.912    8.409
    310    C    17.739    8.449    5.362
    311    H    16.981    9.079    5.868
    312    O    17.476    8.420    3.973
    313    H    17.495    9.336    3.674
    314    C    19.157    8.930    5.651
    315    H    19.283    9.117    6.743
    316    O    19.620    10.024    4.818
    317    P    19.464    11.487    5.386
    318    O    19.873    11.493    6.805
    319    O    20.169    12.459    4.521
    320    O    17.915    11.753    5.291
    321    C    17.302    11.857    3.982
    322    H    17.499    10.957    3.359
    323    H    17.698    12.742    3.430
    324    C    15.785    12.022    4.118
    325    H    15.304    12.123    3.118
    326    O    15.216    10.844    4.756
    327    C    14.164    11.248    5.623
    328    H    13.256    10.695    5.299
    329    N    14.456    10.901    7.023
    330    C    13.542    10.801    8.037
    331    N    10.273    10.994    9.162
    332    H    9.785    11.309    8.350
    333    H    9.772    10.882    10.023
    334    N    12.221    11.027    7.932
    335    C    11.581    10.834    9.083
    336    N    12.218    10.471    10.243
    337    H    11.661    10.362    11.075
    338    C    13.581    10.241    10.384
    339    O    14.074    9.920    11.471
    340    C    14.266    10.433    9.155
    341    N    15.616    10.316    8.853
    342    C    15.684    10.617    7.578
    343    H    16.598    10.658    6.984
    344    C    13.947    12.738    5.430
    345    H    13.633    13.237    6.373
    346    O    12.975    12.960    4.421
    347    H    12.953    13.909    4.210
    348    C    15.339    13.191    5.004
    349    H    16.014    13.234    5.886
    350    O    15.375    14.430    4.272
    351    H    15.097    15.168    4.847
 $END
