!*** FMO 5.3 (Gamess) INPUT generated by Facio 22.1.1.32 ***
 $CONTRL RUNTYP=ENERGY NPRINT=-5 ISPHER=1 MAXIT=200 $END
 $SYSTEM MWORDS=63 MEMDDI=63 $END
 $GDDI NGROUP=1 $END
 $SCF DIRSCF=.TRUE. NPUNCH=0 $END
!*** NumCPU : 2  MemPerNode : 512MB
 $PCM SOLVNT=WATER IEF=-10 ICOMP=2 ICAV=1 IDISP=1 IFMO=-1 $END
 $PCMCAV RADII=SUAHF $END
 $TESCAV NTSALL=60 $END
 $FMOPRP
    NAODIR=200
    NGRFMO(1)=1, 1, 0, 0, 0,   0, 0, 0, 0, 0
    IPIEDA=1
    NPRINT=9
 $END
 $FMO
      SCFTYP(1)=RHF
      MODGRD=10
      MODMUL=0
      MAXCAO=5
      MAXBND=13
      NLAYER=1
      MPLEVL(1)=2
      NFRAG=11
      ICHARG(1)=-1, -1, -1, -1, -1, -1, -1, -1, -1, -1, 0
      FRGNAM(1)=F1, F2, F3, F4, F5, F6, F7, F8, F9, F10, F11
      indat(1)=0
               1   -33   0
               34   -64   0
               65   -94   0
               95   -124   0
               125   -158   0
               159   -189   0
               190   -220   0
               221   -253   0
               254   -286   0
               287   -320   0
               321   -351   0
 $END

 $FMOBND
   -34   33       6-31G*    MINI
   -65   64       6-31G*    MINI
   -95   94       6-31G*    MINI
   -125   124       6-31G*    MINI
   -159   158       6-31G*    MINI
   -190   189       6-31G*    MINI
   -221   220       6-31G*    MINI
   -254   253       6-31G*    MINI
   -287   286       6-31G*    MINI
   -321   320       6-31G*    MINI
 $END
 $FMOHYB
 6-31G*      15   5
   1 0  -0.065034   0.288264   0.000000   0.000000   0.604412
         0.290129   0.000000   0.000000   0.319045  -0.017106
        -0.017106   0.057934   0.000000   0.000000   0.000000
   0 1  -0.065040   0.288293   0.569832   0.000000  -0.201456
         0.290147   0.300783   0.000000  -0.106342   0.049598
        -0.017106  -0.008771   0.000000  -0.027223   0.000000
   0 1  -0.065039   0.288293  -0.284916  -0.493490  -0.201455
         0.290145  -0.150392  -0.260486  -0.106340  -0.000427
         0.032923  -0.008771   0.033353   0.013612   0.023576
   0 1  -0.065039   0.288293  -0.284916   0.493490  -0.201455
         0.290145  -0.150392   0.260486  -0.106340  -0.000427
         0.032923  -0.008771  -0.033353   0.013612  -0.023576
   0 1   1.010938  -0.011975   0.000000   0.000000   0.000000
        -0.054085   0.000000   0.000000  -0.000000  -0.003174
        -0.003174  -0.003174   0.000000   0.000000   0.000000
 MINI         5   5
   1 0  -0.104883   0.308874   0.000000   0.000000   0.521806
   0 1  -0.104883   0.308874   0.491961   0.000000  -0.173934
   0 1  -0.104883   0.308876  -0.245980  -0.426050  -0.173933
   0 1  -0.104883   0.308876  -0.245980   0.426050  -0.173933
   0 1   0.988209   0.063992   0.000000   0.000000   0.000000
 $END
 
 $DATA
 FMO calculation
 C1 
 H.1-1    1
      N31 6
   
 O.1-1    8
      N31 6
      d 1
      1 0.800 1.0
   
 C.1-1    6
      N31 6
      d 1
      1 0.800 1.0
   
 N.1-1    7
      N31 6
      d 1
      1 0.800 1.0
   
 P.1-1   15
      N31 6
      d 1
      1 0.550 1.0
   
 $END
 $FMOXYZ
    1    H    6.781    6.738    18.541
    2    O    6.820    7.092    17.632
    3    C    5.523    7.631    17.334
    4    H    5.291    8.446    18.055
    5    H    4.759    6.828    17.452
    6    C    5.413    8.203    15.915
    7    H    4.383    8.572    15.716
    8    O    6.316    9.338    15.770
    9    C    6.900    9.313    14.476
    10    H    6.663    10.303    14.021
    11    N    8.379    9.134    14.514
    12    C    8.990    8.646    15.648
    13    H    8.339    8.419    16.493
    14    C    10.320    8.506    15.720
    15    H    10.814    8.150    16.622
    16    C    9.149    9.436    13.395
    17    O    8.588    9.834    12.363
    18    N    10.494    9.301    13.449
    19    C    11.086    8.871    14.578
    20    N    12.416    8.801    14.621
    21    H    12.951    9.020    13.801
    22    H    12.895    8.470    15.436
    23    C    6.198    8.230    13.685
    24    H    6.859    7.764    12.931
    25    O    5.057    8.765    13.045
    26    H    4.632    8.032    12.583
    27    C    5.817    7.246    14.785
    28    H    6.724    6.705    15.138
    29    O    4.715    6.365    14.472
    30    P    5.010    4.948    13.856
    31    O    6.089    4.298    14.632
    32    O    3.734    4.207    13.764
    33    O    5.517    5.271    12.398
    34    C    4.592    5.825    11.432
    35    H    4.079    6.732    11.823
    36    H    3.793    5.088    11.201
    37    C    5.298    6.213    10.125
    38    H    4.569    6.625    9.392
    39    O    6.280    7.255    10.397
    40    C    7.425    7.052    9.578
    41    H    7.560    7.996    8.997
    42    N    8.666    6.788    10.368
    43    C    8.580    6.339    11.665
    44    H    7.573    6.181    12.046
    45    C    9.671    6.134    12.415
    46    H    9.611    5.807    13.452
    47    C    9.921    6.959    9.790
    48    O    9.999    7.312    8.605
    49    N    11.037    6.750    10.526
    50    C    10.938    6.369    11.811
    51    N    12.053    6.206    12.521
    52    H    12.945    6.341    12.082
    53    H    12.033    5.899    13.474
    54    C    7.089    5.933    8.615
    55    H    7.979    5.339    8.330
    56    O    6.469    6.459    7.455
    57    H    6.207    5.694    6.932
    58    C    6.105    5.103    9.430
    59    H    6.628    4.550    10.240
    60    O    5.231    4.262    8.644
    61    P    5.628    2.775    8.325
    62    O    6.183    2.151    9.544
    63    O    4.456    2.120    7.708
    64    O    6.786    2.867    7.265
    65    C    6.592    3.405    5.940
    66    H    6.030    4.365    5.963
    67    H    6.005    2.690    5.319
    68    C    7.937    3.655    5.237
    69    H    7.787    4.130    4.244
    70    O    8.761    4.554    6.035
    71    C    10.124    4.172    5.945
    72    H    10.665    5.057    5.535
    73    N    10.696    3.806    7.279
    74    C    9.873    3.525    8.344
    75    H    8.809    3.501    8.116
    76    C    12.067    3.786    7.430
    77    O    12.842    4.028    6.513
    78    N    12.506    3.501    8.699
    79    H    13.514    3.429    8.785
    80    C    11.740    3.255    9.816
    81    O    12.273    3.025    10.899
    82    C    10.330    3.278    9.577
    83    H    9.655    3.059    10.399
    84    C    10.189    3.040    4.940
    85    H    10.972    2.313    5.207
    86    O    10.429    3.542    3.637
    87    H    10.268    2.819    3.012
    88    C    8.807    2.409    5.056
    89    H    8.725    1.820    5.997
    90    O    8.385    1.667    3.891
    91    P    8.669    0.119    3.783
    92    O    7.659    -0.568    4.616
    93    O    8.724    -0.274    2.358
    94    O    10.081    -0.121    4.429
    95    C    11.301    0.037    3.673
    96    H    11.367    1.054    3.227
    97    H    11.339    -0.700    2.834
    98    C    12.550    -0.173    4.552
    99    H    13.470    0.022    3.961
    100    O    12.559    0.740    5.697
    101    C    13.006    0.071    6.862
    102    H    13.854    0.690    7.233
    103    N    11.949    -0.012    7.932
    104    C    10.611    0.108    7.624
    105    H    10.396    0.303    6.579
    106    C    12.338    -0.164    9.249
    107    O    13.507    -0.247    9.597
    108    N    11.327    -0.192    10.166
    109    H    11.624    -0.294    11.128
    110    C    9.982    -0.048    9.935
    111    O    9.195    -0.032    10.878
    112    C    9.640    0.101    8.552
    113    H    8.595    0.253    8.293
    114    C    13.523    -1.287    6.407
    115    H    13.362    -2.075    7.174
    116    O    14.904    -1.177    6.086
    117    H    15.405    -1.638    6.783
    118    C    12.667    -1.561    5.171
    119    H    11.631    -1.824    5.488
    120    O    13.238    -2.494    4.216
    121    P    12.613    -3.928    4.064
    122    O    11.758    -4.204    5.239
    123    O    11.982    -4.057    2.737
    124    O    13.874    -4.883    4.111
    125    C    13.803    -6.229    4.645
    126    H    14.227    -6.928    3.889
    127    H    12.754    -6.567    4.812
    128    C    14.593    -6.435    5.957
    129    H    14.421    -7.466    6.335
    130    O    16.027    -6.260    5.733
    131    C    16.472    -5.083    6.390
    132    H    16.980    -5.430    7.317
    133    N    17.399    -4.318    5.543
    134    C    18.655    -3.890    5.890
    135    N    21.172    -3.590    8.246
    136    H    22.073    -3.167    8.334
    137    H    20.710    -3.931    9.068
    138    N    19.256    -4.087    7.077
    139    C    20.472    -3.548    7.126
    140    N    21.060    -2.918    6.062
    141    H    21.982    -2.542    6.190
    142    C    20.477    -2.733    4.811
    143    O    21.074    -2.163    3.890
    144    C    19.156    -3.261    4.768
    145    N    18.219    -3.268    3.738
    146    C    17.192    -3.916    4.243
    147    H    16.259    -4.137    3.719
    148    C    15.242    -4.302    6.773
    149    H    14.902    -3.702    5.907
    150    O    15.440    -3.451    7.876
    151    H    14.857    -3.761    8.608
    152    C    14.243    -5.425    7.065
    153    H    13.218    -5.061    6.840
    154    O    14.318    -6.017    8.394
    155    P    13.363    -5.413    9.509
    156    O    13.845    -4.053    9.818
    157    O    11.964    -5.565    9.048
    158    O    13.563    -6.337    10.761
    159    C    13.877    -5.794    12.066
    160    H    13.009    -5.225    12.470
    161    H    14.732    -5.084    11.994
    162    C    14.259    -6.880    13.098
    163    H    13.357    -7.290    13.599
    164    O    14.904    -8.002    12.419
    165    C    16.052    -8.420    13.137
    166    H    15.927    -9.519    13.275
    167    N    17.324    -8.184    12.394
    168    C    17.320    -7.488    11.202
    169    H    16.353    -7.104    10.864
    170    C    18.445    -7.314    10.497
    171    H    18.464    -6.777    9.550
    172    C    18.518    -8.717    12.880
    173    O    18.503    -9.374    13.934
    174    N    19.664    -8.541    12.183
    175    C    19.649    -7.863    11.023
    176    N    20.779    -7.742    10.334
    177    H    21.626    -8.088    10.736
    178    H    20.836    -7.207    9.492
    179    C    16.007    -7.742    14.489
    180    H    17.016    -7.541    14.912
    181    O    15.251    -8.538    15.386
    182    H    15.056    -7.997    16.171
    183    C    15.289    -6.443    14.164
    184    H    15.991    -5.745    13.660
    185    O    14.643    -5.866    15.315
    186    P    14.893    -4.408    15.825
    187    O    14.325    -3.482    14.824
    188    O    14.385    -4.289    17.212
    189    O    16.454    -4.239    15.828
    190    C    17.315    -4.912    16.773
    191    H    17.069    -5.999    16.845
    192    H    17.186    -4.467    17.786
    193    C    18.798    -4.776    16.376
    194    H    19.464    -5.171    17.172
    195    O    19.033    -5.584    15.186
    196    C    19.944    -4.912    14.327
    197    H    20.802    -5.616    14.189
    198    N    19.338    -4.597    13.008
    199    C    18.009    -4.257    12.947
    200    H    17.475    -4.293    13.887
    201    C    17.408    -3.976    11.787
    202    H    16.348    -3.744    11.716
    203    C    20.112    -4.563    11.852
    204    O    21.326    -4.800    11.930
    205    N    19.523    -4.292    10.665
    206    C    18.211    -4.014    10.618
    207    N    17.674    -3.774    9.443
    208    H    18.250    -3.887    8.626
    209    H    16.711    -3.553    9.280
    210    C    20.441    -3.676    15.050
    211    H    20.625    -2.836    14.356
    212    O    21.622    -3.963    15.775
    213    H    21.832    -3.172    16.295
    214    C    19.276    -3.359    15.984
    215    H    18.450    -2.883    15.407
    216    O    19.621    -2.591    17.163
    217    P    19.771    -1.023    17.072
    218    O    18.535    -0.477    16.473
    219    O    20.142    -0.508    18.407
    220    O    20.977    -0.786    16.082
    221    C    21.087    0.447    15.322
    222    H    21.660    1.202    15.908
    223    H    20.088    0.889    15.088
    224    C    21.805    0.226    13.978
    225    H    22.857    -0.087    14.138
    226    O    21.143    -0.844    13.248
    227    C    21.117    -0.553    11.868
    228    H    21.602    -1.414    11.356
    229    N    19.743    -0.436    11.384
    230    C    17.969    -0.333    10.099
    231    N    17.505    -0.313    11.406
    232    C    18.592    -0.376    12.129
    233    H    18.625    -0.388    13.221
    234    N    18.088    -0.310    7.734
    235    C    19.412    -0.366    7.873
    236    H    19.984    -0.369    6.938
    237    N    20.140    -0.427    8.991
    238    C    19.348    -0.409    10.075
    239    C    17.318    -0.293    8.848
    240    N    15.994    -0.207    8.668
    241    H    15.305    -0.256    9.399
    242    H    15.653    -0.018    7.751
    243    C    21.930    0.703    11.652
    244    H    21.536    1.331    10.827
    245    O    23.278    0.354    11.391
    246    H    23.812    1.156    11.482
    247    C    21.780    1.411    12.995
    248    H    20.766    1.869    13.082
    249    O    22.849    2.334    13.286
    250    P    22.648    3.883    13.110
    251    O    21.449    4.269    13.881
    252    O    23.918    4.566    13.441
    253    O    22.335    4.079    11.586
    254    C    23.304    3.872    10.539
    255    H    23.765    2.861    10.606
    256    H    24.122    4.622    10.612
    257    C    22.655    4.010    9.151
    258    H    23.417    3.928    8.347
    259    O    21.698    2.927    8.956
    260    C    20.526    3.429    8.334
    261    H    20.336    2.782    7.444
    262    N    19.368    3.357    9.234
    263    C    17.332    3.204    10.048
    264    N    18.185    3.187    11.141
    265    C    19.374    3.282    10.606
    266    H    20.301    3.285    11.170
    267    N    15.389    3.172    8.702
    268    C    16.210    3.284    7.649
    269    H    15.721    3.314    6.668
    270    N    17.546    3.368    7.622
    271    C    18.047    3.314    8.867
    272    C    15.931    3.122    9.945
    273    N    15.133    2.990    11.023
    274    H    15.518    2.942    11.951
    275    H    14.137    2.921    10.931
    276    C    20.832    4.836    7.872
    277    H    19.933    5.482    7.860
    278    O    21.411    4.811    6.581
    279    H    21.656    5.722    6.378
    280    C    21.839    5.296    8.922
    281    H    21.317    5.528    9.880
    282    O    22.716    6.359    8.491
    283    P    22.305    7.856    8.735
    284    O    21.898    8.018    10.148
    285    O    23.392    8.736    8.250
    286    O    21.035    8.069    7.833
    287    C    21.175    8.241    6.403
    288    H    21.716    7.383    5.941
    289    H    21.752    9.167    6.171
    290    C    19.802    8.357    5.733
    291    H    19.899    8.435    4.626
    292    O    19.014    7.167    6.015
    293    C    17.657    7.539    6.192
    294    H    17.064    6.938    5.468
    295    N    17.183    7.243    7.548
    296    C    15.879    7.142    7.949
    297    N    12.482    7.368    7.279
    298    H    12.457    7.610    6.311
    299    H    11.619    7.317    7.789
    300    N    14.793    7.321    7.170
    301    C    13.657    7.187    7.856
    302    N    13.618    6.862    9.188
    303    H    12.719    6.783    9.636
    304    C    14.721    6.648    10.005
    305    O    14.589    6.353    11.196
    306    C    15.935    6.822    9.293
    307    N    17.252    6.744    9.731
    308    C    17.955    7.017    8.662
    309    H    19.043    7.075    8.616
    310    C    17.537    9.006    5.853
    311    H    16.742    9.515    6.434
    312    O    17.275    9.149    4.470
    313    H    17.268    10.094    4.277
    314    C    18.925    9.515    6.231
    315    H    19.039    9.548    7.342
    316    O    19.324    10.742    5.584
    317    P    19.102    12.112    6.327
    318    O    19.517    11.985    7.739
    319    O    19.760    13.183    5.549
    320    O    17.542    12.296    6.269
    321    C    16.893    12.514    4.996
    322    H    17.147    11.726    4.251
    323    H    17.216    13.486    4.561
    324    C    15.371    12.562    5.165
    325    H    14.864    12.773    4.198
    326    O    14.881    11.275    5.641
    327    C    13.818    11.495    6.562
    328    H    12.935    10.937    6.173
    329    N    14.152    10.985    7.901
    330    C    13.262    10.695    8.900
    331    N    10.008    10.544    10.075
    332    H    9.487    10.915    9.310
    333    H    9.527    10.282    10.915
    334    N    11.929    10.842    8.835
    335    C    11.320    10.461    9.957
    336    N    11.995    9.985    11.050
    337    H    11.459    9.730    11.864
    338    C    13.372    9.832    11.152
    339    O    13.900    9.398    12.181
    340    C    14.026    10.236    9.956
    341    N    15.376    10.254    9.632
    342    C    15.404    10.716    8.406
    343    H    16.306    10.893    7.817
    344    C    13.512    12.982    6.575
    345    H    13.176    13.333    7.576
    346    O    12.524    13.277    5.601
    347    H    12.421    14.245    5.526
    348    C    14.870    13.569    6.209
    349    H    15.551    13.528    7.086
    350    O    14.819    14.898    5.659
    351    H    14.440    15.514    6.315
 $END
