!*** FMO 5.3 (Gamess) INPUT generated by Facio 22.1.1.32 ***
 $CONTRL RUNTYP=ENERGY NPRINT=-5 ISPHER=1 MAXIT=200 $END
 $SYSTEM MWORDS=63 MEMDDI=63 $END
 $GDDI NGROUP=1 $END
 $SCF DIRSCF=.TRUE. NPUNCH=0 $END
!*** NumCPU : 2  MemPerNode : 512MB
 $PCM SOLVNT=WATER IEF=-10 ICOMP=2 ICAV=1 IDISP=1 IFMO=-1 $END
 $PCMCAV RADII=SUAHF $END
 $TESCAV NTSALL=60 $END
 $FMOPRP
    NAODIR=200
    NGRFMO(1)=1, 1, 0, 0, 0,   0, 0, 0, 0, 0
    IPIEDA=1
    NPRINT=9
 $END
 $FMO
      SCFTYP(1)=RHF
      MODGRD=10
      MODMUL=0
      MAXCAO=5
      MAXBND=13
      NLAYER=1
      MPLEVL(1)=2
      NFRAG=11
      ICHARG(1)=-1, -1, -1, -1, -1, -1, -1, -1, -1, -1, 0
      FRGNAM(1)=F1, F2, F3, F4, F5, F6, F7, F8, F9, F10, F11
      indat(1)=0
               1   -33   0
               34   -64   0
               65   -94   0
               95   -124   0
               125   -158   0
               159   -189   0
               190   -220   0
               221   -253   0
               254   -286   0
               287   -320   0
               321   -351   0
 $END

 $FMOBND
   -34   33       6-31G*    MINI
   -65   64       6-31G*    MINI
   -95   94       6-31G*    MINI
   -125   124       6-31G*    MINI
   -159   158       6-31G*    MINI
   -190   189       6-31G*    MINI
   -221   220       6-31G*    MINI
   -254   253       6-31G*    MINI
   -287   286       6-31G*    MINI
   -321   320       6-31G*    MINI
 $END
 $FMOHYB
 6-31G*      15   5
   1 0  -0.065034   0.288264   0.000000   0.000000   0.604412
         0.290129   0.000000   0.000000   0.319045  -0.017106
        -0.017106   0.057934   0.000000   0.000000   0.000000
   0 1  -0.065040   0.288293   0.569832   0.000000  -0.201456
         0.290147   0.300783   0.000000  -0.106342   0.049598
        -0.017106  -0.008771   0.000000  -0.027223   0.000000
   0 1  -0.065039   0.288293  -0.284916  -0.493490  -0.201455
         0.290145  -0.150392  -0.260486  -0.106340  -0.000427
         0.032923  -0.008771   0.033353   0.013612   0.023576
   0 1  -0.065039   0.288293  -0.284916   0.493490  -0.201455
         0.290145  -0.150392   0.260486  -0.106340  -0.000427
         0.032923  -0.008771  -0.033353   0.013612  -0.023576
   0 1   1.010938  -0.011975   0.000000   0.000000   0.000000
        -0.054085   0.000000   0.000000  -0.000000  -0.003174
        -0.003174  -0.003174   0.000000   0.000000   0.000000
 MINI         5   5
   1 0  -0.104883   0.308874   0.000000   0.000000   0.521806
   0 1  -0.104883   0.308874   0.491961   0.000000  -0.173934
   0 1  -0.104883   0.308876  -0.245980  -0.426050  -0.173933
   0 1  -0.104883   0.308876  -0.245980   0.426050  -0.173933
   0 1   0.988209   0.063992   0.000000   0.000000   0.000000
 $END
 
 $DATA
 FMO calculation
 C1 
 H.1-1    1
      N31 6
   
 O.1-1    8
      N31 6
      d 1
      1 0.800 1.0
   
 C.1-1    6
      N31 6
      d 1
      1 0.800 1.0
   
 N.1-1    7
      N31 6
      d 1
      1 0.800 1.0
   
 P.1-1   15
      N31 6
      d 1
      1 0.550 1.0
   
 $END
 $FMOXYZ
    1    H    6.111    8.747    17.632
    2    O    6.217    8.960    16.686
    3    C    4.998    9.586    16.259
    4    H    4.815    10.484    16.888
    5    H    4.149    8.883    16.416
    6    C    5.023    10.026    14.788
    7    H    4.043    10.454    14.490
    8    O    6.029    11.069    14.604
    9    C    6.694    10.865    13.364
    10    H    6.586    11.821    12.804
    11    N    8.147    10.570    13.523
    12    C    8.645    10.158    14.740
    13    H    7.923    10.057    15.551
    14    C    9.953    9.925    14.917
    15    H    10.364    9.622    15.877
    16    C    9.011    10.717    12.441
    17    O    8.554    11.069    11.345
    18    N    10.334    10.484    12.602
    19    C    10.816    10.118    13.802
    20    N    12.129    9.933    13.941
    21    H    12.727    10.023    13.141
    22    H    12.528    9.610    14.802
    23    C    5.937    9.779    12.622
    24    H    6.589    9.190    11.949
    25    O    4.877    10.354    11.880
    26    H    4.389    9.624    11.477
    27    C    5.410    8.935    13.777
    28    H    6.244    8.362    14.242
    29    O    4.261    8.112    13.469
    30    P    4.459    6.606    13.038
    31    O    5.455    5.972    13.930
    32    O    3.130    5.955    12.953
    33    O    5.070    6.707    11.589
    34    C    4.272    7.262    10.512
    35    H    3.859    8.264    10.768
    36    H    3.401    6.614    10.283
    37    C    5.092    7.396    9.224
    38    H    4.448    7.764    8.393
    39    O    6.146    8.380    9.423
    40    C    7.310    7.953    8.726
    41    H    7.568    8.791    8.037
    42    N    8.469    7.699    9.629
    43    C    8.260    7.451    10.963
    44    H    7.222    7.437    11.289
    45    C    9.281    7.264    11.810
    46    H    9.131    7.103    12.875
    47    C    9.765    7.679    9.121
    48    O    9.944    7.854    7.908
    49    N    10.810    7.474    9.958
    50    C    10.598    7.293    11.272
    51    N    11.646    7.135    12.078
    52    H    12.572    7.121    11.692
    53    H    11.538    6.930    13.050
    54    C    6.928    6.740    7.902
    55    H    7.771    6.032    7.768
    56    O    6.443    7.155    6.638
    57    H    6.137    6.359    6.188
    58    C    5.817    6.131    8.746
    59    H    6.236    5.639    9.653
    60    O    4.898    5.289    8.018
    61    P    5.122    3.737    7.960
    62    O    5.530    3.251    9.300
    63    O    3.915    3.120    7.380
    64    O    6.326    3.549    6.968
    65    C    6.243    3.880    5.565
    66    H    5.830    4.900    5.414
    67    H    5.576    3.161    5.034
    68    C    7.620    3.822    4.881
    69    H    7.528    4.087    3.807
    70    O    8.528    4.794    5.480
    71    C    9.846    4.258    5.505
    72    H    10.479    4.972    4.925
    73    N    10.364    4.129    6.902
    74    C    9.494    4.017    7.963
    75    H    8.438    4.006    7.701
    76    C    11.727    4.117    7.108
    77    O    12.538    4.178    6.193
    78    N    12.111    4.038    8.424
    79    H    13.109    3.992    8.597
    80    C    11.298    3.997    9.535
    81    O    11.787    3.987    10.662
    82    C    9.899    3.967    9.240
    83    H    9.192    3.923    10.063
    84    C    9.804    2.924    4.774
    85    H    10.512    2.188    5.204
    86    O    10.088    3.100    3.399
    87    H    10.000    2.224    3.006
    88    C    8.361    2.484    4.988
    89    H    8.213    2.133    6.035
    90    O    7.859    1.554    3.999
    91    P    7.955    0.005    4.280
    92    O    7.490    -0.247    5.663
    93    O    7.230    -0.707    3.207
    94    O    9.494    -0.323    4.176
    95    C    10.194    -0.297    2.909
    96    H    10.030    0.662    2.364
    97    H    9.825    -1.109    2.244
    98    C    11.711    -0.487    3.096
    99    H    12.238    -0.429    2.121
    100    O    12.233    0.580    3.936
    101    C    13.273    0.078    4.758
    102    H    14.175    0.684    4.498
    103    N    12.953    0.225    6.205
    104    C    11.649    0.301    6.641
    105    H    10.896    0.247    5.859
    106    C    13.998    0.268    7.098
    107    O    15.172    0.170    6.757
    108    N    13.623    0.439    8.404
    109    H    14.387    0.446    9.070
    110    C    12.352    0.572    8.912
    111    O    12.184    0.764    10.114
    112    C    11.318    0.490    7.927
    113    H    10.284    0.604    8.244
    114    C    13.514    -1.368    4.360
    115    H    13.789    -2.001    5.230
    116    O    14.526    -1.450    3.372
    117    H    14.539    -2.370    3.064
    118    C    12.155    -1.781    3.798
    119    H    11.430    -1.958    4.624
    120    O    12.201    -2.877    2.851
    121    P    12.225    -4.354    3.412
    122    O    11.066    -4.518    4.319
    123    O    12.292    -5.283    2.261
    124    O    13.577    -4.466    4.213
    125    C    13.707    -5.430    5.283
    126    H    13.835    -6.454    4.871
    127    H    12.808    -5.432    5.945
    128    C    14.924    -5.108    6.162
    129    H    15.866    -5.136    5.577
    130    O    14.784    -3.767    6.711
    131    C    15.223    -3.751    8.056
    132    H    15.993    -2.952    8.124
    133    N    14.117    -3.424    8.966
    134    C    14.220    -3.147    10.303
    135    N    16.140    -2.725    13.146
    136    H    15.988    -2.455    14.099
    137    H    17.023    -3.061    12.851
    138    N    15.359    -3.141    11.022
    139    C    15.138    -2.804    12.292
    140    N    13.898    -2.502    12.796
    141    H    13.824    -2.225    13.760
    142    C    12.711    -2.499    12.075
    143    O    11.631    -2.217    12.605
    144    C    12.929    -2.872    10.721
    145    N    12.029    -2.990    9.667
    146    C    12.780    -3.312    8.642
    147    H    12.424    -3.488    7.623
    148    C    15.847    -5.108    8.350
    149    H    15.694    -5.432    9.402
    150    O    17.232    -5.104    8.039
    151    H    17.718    -4.610    8.704
    152    C    15.074    -6.004    7.396
    153    H    14.035    -6.149    7.772
    154    O    15.743    -7.238    7.048
    155    P    15.323    -8.582    7.752
    156    O    14.082    -8.368    8.525
    157    O    15.288    -9.642    6.721
    158    O    16.503    -8.932    8.739
    159    C    16.612    -8.330    10.050
    160    H    15.616    -8.214    10.527
    161    H    17.067    -7.319    9.953
    162    C    17.477    -9.153    11.031
    163    H    16.947    -10.080    11.342
    164    O    18.714    -9.563    10.386
    165    C    19.802    -9.424    11.285
    166    H    20.283    -10.429    11.321
    167    N    20.806    -8.432    10.809
    168    C    20.480    -7.551    9.800
    169    H    19.461    -7.610    9.409
    170    C    21.378    -6.688    9.312
    171    H    21.136    -5.985    8.518
    172    C    22.093    -8.422    11.351
    173    O    22.383    -9.237    12.239
    174    N    23.010    -7.549    10.871
    175    C    22.688    -6.710    9.872
    176    N    23.618    -5.892    9.389
    177    H    24.504    -5.853    9.855
    178    H    23.395    -5.174    8.732
    179    C    19.231    -9.100    12.654
    180    H    19.897    -8.443    13.254
    181    O    18.980    -10.306    13.354
    182    H    18.495    -10.087    14.167
    183    C    17.935    -8.385    12.288
    184    H    18.159    -7.347    11.954
    185    O    16.912    -8.440    13.306
    186    P    16.719    -7.253    14.321
    187    O    16.524    -6.009    13.546
    188    O    15.650    -7.625    15.272
    189    O    18.066    -7.145    15.124
    190    C    18.439    -5.902    15.789
    191    H    18.173    -5.962    16.868
    192    H    17.888    -5.018    15.381
    193    C    19.951    -5.585    15.681
    194    H    20.514    -6.051    16.516
    195    O    20.493    -6.156    14.447
    196    C    21.337    -5.218    13.813
    197    H    22.286    -5.763    13.601
    198    N    20.770    -4.712    12.531
    199    C    19.427    -4.850    12.241
    200    H    18.817    -5.363    12.993
    201    C    18.917    -4.404    11.083
    202    H    17.865    -4.528    10.829
    203    C    21.608    -4.053    11.635
    204    O    22.801    -3.889    11.933
    205    N    21.115    -3.627    10.451
    206    C    19.816    -3.781    10.164
    207    N    19.394    -3.358    8.973
    208    H    20.105    -2.967    8.379
    209    H    18.461    -3.077    8.779
    210    C    21.613    -4.114    14.811
    211    H    21.803    -3.138    14.318
    212    O    22.719    -4.457    15.627
    213    H    22.794    -3.779    16.317
    214    C    20.310    -4.084    15.606
    215    H    19.514    -3.586    15.006
    216    O    20.417    -3.529    16.937
    217    P    20.439    -1.961    17.131
    218    O    19.200    -1.408    16.544
    219    O    20.691    -1.672    18.561
    220    O    21.691    -1.427    16.334
    221    C    21.700    -0.082    15.782
    222    H    22.553    0.490    16.210
    223    H    20.778    0.501    16.027
    224    C    21.847    -0.108    14.251
    225    H    22.845    -0.503    13.961
    226    O    20.837    -0.991    13.684
    227    C    20.332    -0.439    12.494
    228    H    20.443    -1.217    11.704
    229    N    18.923    -0.091    12.660
    230    C    16.799    0.308    12.282
    231    N    16.977    0.453    13.652
    232    C    18.251    0.198    13.827
    233    H    18.765    0.192    14.793
    234    N    15.834    0.205    10.131
    235    C    17.053    -0.088    9.677
    236    H    17.121    -0.235    8.595
    237    N    18.195    -0.232    10.354
    238    C    17.993    -0.019    11.663
    239    C    15.658    0.395    11.461
    240    N    14.416    0.615    11.930
    241    H    14.250    0.863    12.891
    242    H    13.649    0.702    11.287
    243    C    21.185    0.757    12.150
    244    H    20.617    1.541    11.608
    245    O    22.303    0.357    11.376
    246    H    22.834    1.150    11.235
    247    C    21.605    1.236    13.534
    248    H    20.750    1.724    14.060
    249    O    22.800    2.044    13.549
    250    P    22.692    3.600    13.329
    251    O    21.633    4.104    14.236
    252    O    24.040    4.202    13.467
    253    O    22.188    3.769    11.853
    254    C    23.063    3.585    10.719
    255    H    23.557    2.586    10.743
    256    H    23.869    4.359    10.716
    257    C    22.273    3.693    9.405
    258    H    22.919    3.446    8.533
    259    O    21.157    2.754    9.404
    260    C    20.054    3.335    8.731
    261    H    19.793    2.644    7.897
    262    N    18.889    3.477    9.622
    263    C    16.829    3.628    10.384
    264    N    17.657    3.616    11.504
    265    C    18.866    3.538    10.997
    266    H    19.791    3.519    11.578
    267    N    14.928    3.725    8.966
    268    C    15.784    3.636    7.944
    269    H    15.336    3.647    6.939
    270    N    17.117    3.558    7.961
    271    C    17.578    3.550    9.223
    272    C    15.426    3.718    10.232
    273    N    14.568    3.791    11.267
    274    H    14.891    3.843    12.217
    275    H    13.581    3.850    11.094
    276    C    20.521    4.657    8.161
    277    H    19.711    5.411    8.120
    278    O    21.050    4.464    6.864
    279    H    21.363    5.326    6.561
    280    C    21.613    5.052    9.149
    281    H    21.164    5.358    10.123
    282    O    22.591    6.000    8.641
    283    P    22.261    7.531    8.838
    284    O    21.791    7.730    10.223
    285    O    23.440    8.331    8.435
    286    O    21.066    7.837    7.862
    287    C    21.292    7.878    6.434
    288    H    21.764    6.937    6.073
    289    H    21.969    8.727    6.175
    290    C    19.972    8.049    5.672
    291    H    20.136    8.014    4.572
    292    O    19.059    6.965    6.011
    293    C    17.733    7.474    6.074
    294    H    17.119    6.866    5.371
    295    N    17.170    7.352    7.426
    296    C    15.841    7.375    7.751
    297    N    12.519    7.701    6.811
    298    H    12.582    7.838    5.826
    299    H    11.616    7.742    7.247
    300    N    14.823    7.535    6.886
    301    C    13.638    7.530    7.495
    302    N    13.491    7.350    8.845
    303    H    12.559    7.356    9.227
    304    C    14.524    7.167    9.757
    305    O    14.292    7.017    10.962
    306    C    15.792    7.197    9.120
    307    N    17.073    7.081    9.651
    308    C    17.857    7.195    8.607
    309    H    18.947    7.170    8.630
    310    C    17.777    8.909    5.602
    311    H    17.010    9.543    6.088
    312    O    17.604    8.951    4.200
    313    H    17.676    9.876    3.936
    314    C    19.189    9.323    6.008
    315    H    19.251    9.442    7.115
    316    O    19.742    10.447    5.283
    317    P    19.586    11.894    5.889
    318    O    19.875    11.846    7.336
    319    O    20.376    12.861    5.091
    320    O    18.054    12.187    5.692
    321    C    17.505    12.330    4.361
    322    H    17.763    11.465    3.707
    323    H    17.912    13.237    3.865
    324    C    15.985    12.516    4.420
    325    H    15.561    12.667    3.402
    326    O    15.357    11.328    4.980
    327    C    14.264    11.727    5.797
    328    H    13.363    11.211    5.398
    329    N    14.459    11.323    7.195
    330    C    13.481    11.186    8.144
    331    N    10.160    11.405    9.098
    332    H    9.719    11.753    8.271
    333    H    9.612    11.280    9.930
    334    N    12.168    11.424    7.967
    335    C    11.465    11.219    9.080
    336    N    12.028    10.808    10.259
    337    H    11.424    10.682    11.056
    338    C    13.375    10.545    10.469
    339    O    13.794    10.178    11.572
    340    C    14.135    10.775    9.291
    341    N    15.501    10.671    9.071
    342    C    15.648    11.016    7.815
    343    H    16.598    11.075    7.283
    344    C    14.089    13.228    5.649
    345    H    13.729    13.705    6.588
    346    O    13.188    13.504    4.588
    347    H    13.203    14.459    4.402
    348    C    15.515    13.663    5.329
    349    H    16.133    13.655    6.252
    350    O    15.615    14.931    4.655
    351    H    15.299    15.643    5.240
 $END
