!*** FMO 5.3 (Gamess) INPUT generated by Facio 22.1.1.32 ***
 $CONTRL RUNTYP=ENERGY NPRINT=-5 ISPHER=1 MAXIT=200 $END
 $SYSTEM MWORDS=63 MEMDDI=63 $END
 $GDDI NGROUP=1 $END
 $SCF DIRSCF=.TRUE. NPUNCH=0 $END
!*** NumCPU : 2  MemPerNode : 512MB
 $PCM SOLVNT=WATER IEF=-10 ICOMP=2 ICAV=1 IDISP=1 IFMO=-1 $END
 $PCMCAV RADII=SUAHF $END
 $TESCAV NTSALL=60 $END
 $FMOPRP
    NAODIR=200
    NGRFMO(1)=1, 1, 0, 0, 0,   0, 0, 0, 0, 0
    IPIEDA=1
    NPRINT=9
 $END
 $FMO
      SCFTYP(1)=RHF
      MODGRD=10
      MODMUL=0
      MAXCAO=5
      MAXBND=10
      NLAYER=1
      MPLEVL(1)=2
      NFRAG=8
      ICHARG(1)=-1, -1, -1, -1, -1, -1, -1, 0
      FRGNAM(1)=F1, F2, F3, F4, F5, F6, F7, F8
      indat(1)=0
               1   -36   0
               37   -67   0
               68   -97   0
               98   -131   0
               132   -164   0
               165   -195   0
               196   -229   0
               230   -257   0
 $END

 $FMOBND
   -37   36       6-31G*    MINI
   -68   67       6-31G*    MINI
   -98   97       6-31G*    MINI
   -132   131       6-31G*    MINI
   -165   164       6-31G*    MINI
   -196   195       6-31G*    MINI
   -230   229       6-31G*    MINI
 $END
 $FMOHYB
 6-31G*      15   5
   1 0  -0.065034   0.288264   0.000000   0.000000   0.604412
         0.290129   0.000000   0.000000   0.319045  -0.017106
        -0.017106   0.057934   0.000000   0.000000   0.000000
   0 1  -0.065040   0.288293   0.569832   0.000000  -0.201456
         0.290147   0.300783   0.000000  -0.106342   0.049598
        -0.017106  -0.008771   0.000000  -0.027223   0.000000
   0 1  -0.065039   0.288293  -0.284916  -0.493490  -0.201455
         0.290145  -0.150392  -0.260486  -0.106340  -0.000427
         0.032923  -0.008771   0.033353   0.013612   0.023576
   0 1  -0.065039   0.288293  -0.284916   0.493490  -0.201455
         0.290145  -0.150392   0.260486  -0.106340  -0.000427
         0.032923  -0.008771  -0.033353   0.013612  -0.023576
   0 1   1.010938  -0.011975   0.000000   0.000000   0.000000
        -0.054085   0.000000   0.000000  -0.000000  -0.003174
        -0.003174  -0.003174   0.000000   0.000000   0.000000
 MINI         5   5
   1 0  -0.104883   0.308874   0.000000   0.000000   0.521806
   0 1  -0.104883   0.308874   0.491961   0.000000  -0.173934
   0 1  -0.104883   0.308876  -0.245980  -0.426050  -0.173933
   0 1  -0.104883   0.308876  -0.245980   0.426050  -0.173933
   0 1   0.988209   0.063992   0.000000   0.000000   0.000000
 $END
 
 $DATA
 FMO calculation
 C1 
 H.1-1    1
      N31 6
   
 O.1-1    8
      N31 6
      d 1
      1 0.800 1.0
   
 C.1-1    6
      N31 6
      d 1
      1 0.800 1.0
   
 N.1-1    7
      N31 6
      d 1
      1 0.800 1.0
   
 P.1-1   15
      N31 6
      d 1
      1 0.550 1.0
   
 $END
 $FMOXYZ
    1    H    -10.988    -5.865    -2.022
    2    O    -10.601    -6.289    -1.233
    3    C    -10.393    -7.666    -1.579
    4    H    -9.735    -7.722    -2.477
    5    H    -11.373    -8.123    -1.835
    6    C    -9.751    -8.476    -0.448
    7    H    -9.620    -9.536    -0.747
    8    O    -8.427    -7.944    -0.151
    9    C    -8.208    -8.001    1.249
    10    H    -7.267    -8.576    1.400
    11    N    -8.030    -6.665    1.824
    12    C    -7.460    -6.380    3.035
    13    N    -5.978    -7.429    5.981
    14    H    -6.002    -8.422    5.902
    15    H    -5.596    -7.014    6.811
    16    N    -6.988    -7.279    3.915
    17    C    -6.469    -6.701    4.996
    18    N    -6.400    -5.343    5.161
    19    H    -5.990    -4.989    6.011
    20    C    -6.864    -4.390    4.263
    21    O    -6.761    -3.181    4.494
    22    C    -7.457    -5.000    3.125
    23    N    -8.039    -4.429    2.000
    24    C    -8.365    -5.458    1.252
    25    H    -8.841    -5.406    0.269
    26    C    -9.364    -8.758    1.861
    27    H    -9.596    -8.425    2.894
    28    O    -9.066    -10.141    1.857
    29    H    -9.862    -10.598    2.157
    30    C    -10.496    -8.432    0.896
    31    H    -10.838    -7.381    1.042
    32    O    -11.586    -9.384    0.891
    33    P    -12.813    -9.134    1.853
    34    O    -13.294    -7.751    1.657
    35    O    -13.805    -10.212    1.639
    36    O    -12.186    -9.275    3.293
    37    C    -11.793    -10.578    3.788
    38    H    -11.072    -11.081    3.105
    39    H    -12.679    -11.246    3.869
    40    C    -11.160    -10.487    5.183
    41    H    -10.832    -11.489    5.526
    42    O    -9.982    -9.636    5.157
    43    C    -9.904    -8.907    6.373
    44    H    -8.922    -9.189    6.815
    45    N    -9.929    -7.432    6.168
    46    C    -10.491    -6.908    5.026
    47    H    -10.906    -7.632    4.324
    48    C    -10.497    -5.589    4.791
    49    H    -10.912    -5.161    3.880
    50    C    -9.403    -6.574    7.134
    51    O    -8.930    -7.048    8.179
    52    N    -9.393    -5.240    6.909
    53    C    -9.918    -4.739    5.778
    54    N    -9.882    -3.424    5.581
    55    H    -9.500    -2.834    6.296
    56    H    -10.222    -2.999    4.743
    57    C    -11.013    -9.407    7.284
    58    H    -11.416    -8.609    7.936
    59    O    -10.541    -10.481    8.084
    60    H    -11.311    -10.867    8.532
    61    C    -12.053    -9.871    6.268
    62    H    -12.556    -8.992    5.803
    63    O    -12.986    -10.859    6.756
    64    P    -14.354    -10.394    7.381
    65    O    -15.041    -9.498    6.427
    66    O    -15.100    -11.592    7.824
    67    O    -13.945    -9.563    8.653
    68    C    -14.804    -8.500    9.141
    69    H    -15.434    -8.886    9.970
    70    H    -15.498    -8.108    8.357
    71    C    -13.997    -7.299    9.655
    72    H    -13.474    -7.565    10.601
    73    O    -12.972    -6.954    8.682
    74    C    -12.880    -5.553    8.544
    75    H    -11.808    -5.292    8.719
    76    N    -13.272    -5.104    7.181
    77    C    -13.790    -5.986    6.251
    78    H    -13.923    -7.018    6.589
    79    C    -12.999    -3.803    6.833
    80    O    -12.468    -3.007    7.604
    81    N    -13.346    -3.455    5.560
    82    H    -13.162    -2.497    5.303
    83    C    -13.869    -4.269    4.581
    84    O    -14.102    -3.812    3.465
    85    C    -14.084    -5.623    4.996
    86    H    -14.470    -6.338    4.274
    87    C    -13.721    -4.954    9.654
    88    H    -14.120    -3.944    9.435
    89    O    -12.939    -4.949    10.813
    90    H    -13.095    -5.817    11.194
    91    C    -14.808    -6.004    9.837
    92    H    -15.532    -5.965    8.990
    93    O    -15.444    -6.004    11.149
    94    P    -16.698    -5.053    11.346
    95    O    -17.469    -5.028    10.085
    96    O    -17.427    -5.530    12.540
    97    O    -16.141    -3.613    11.667
    98    C    -17.062    -2.568    12.091
    99    H    -18.084    -2.951    12.338
    100    H    -17.182    -1.837    11.263
    101    C    -16.565    -1.803    13.328
    102    H    -17.297    -1.021    13.627
    103    O    -16.454    -2.726    14.448
    104    C    -15.294    -2.422    15.207
    105    H    -15.628    -2.250    16.255
    106    N    -14.347    -3.546    15.228
    107    C    -13.255    -3.676    16.049
    108    N    -11.162    -2.406    18.500
    109    H    -10.347    -2.688    19.006
    110    H    -11.601    -1.538    18.724
    111    N    -12.836    -2.777    16.958
    112    C    -11.734    -3.179    17.595
    113    N    -11.133    -4.394    17.370
    114    H    -10.319    -4.631    17.914
    115    C    -11.572    -5.357    16.466
    116    O    -10.996    -6.442    16.330
    117    C    -12.716    -4.914    15.750
    118    N    -13.445    -5.545    14.750
    119    C    -14.401    -4.692    14.465
    120    H    -15.179    -4.837    13.717
    121    C    -14.694    -1.148    14.658
    122    H    -13.585    -1.159    14.703
    123    O    -15.191    -0.027    15.367
    124    H    -14.936    0.733    14.829
    125    C    -15.181    -1.140    13.212
    126    H    -14.549    -1.817    12.588
    127    O    -15.312    0.191    12.670
    128    P    -14.556    0.731    11.411
    129    O    -14.461    -0.336    10.399
    130    O    -15.202    1.988    10.983
    131    O    -13.126    1.067    11.960
    132    C    -12.902    2.092    12.951
    133    H    -13.744    2.174    13.674
    134    H    -12.802    3.076    12.438
    135    C    -11.634    1.799    13.768
    136    H    -11.448    2.593    14.521
    137    O    -11.817    0.555    14.499
    138    C    -10.619    -0.193    14.489
    139    H    -10.359    -0.394    15.553
    140    N    -10.805    -1.466    13.788
    141    C    -10.693    -3.550    13.114
    142    N    -11.654    -2.934    12.344
    143    C    -11.690    -1.716    12.777
    144    H    -12.387    -0.964    12.429
    145    N    -9.217    -5.148    14.032
    146    C    -8.776    -4.169    14.823
    147    H    -7.981    -4.460    15.522
    148    N    -9.210    -2.907    14.931
    149    C    -10.159    -2.656    14.017
    150    C    -10.202    -4.869    13.147
    151    N    -10.636    -5.827    12.307
    152    H    -11.319    -5.554    11.623
    153    H    -10.341    -6.780    12.413
    154    C    -9.543    0.674    13.859
    155    H    -8.843    0.073    13.252
    156    O    -8.825    1.394    14.845
    157    H    -8.152    1.911    14.376
    158    C    -10.347    1.600    12.951
    159    H    -10.618    1.027    12.032
    160    O    -9.699    2.879    12.685
    161    P    -9.868    3.522    11.258
    162    O    -9.914    2.468    10.230
    163    O    -10.996    4.479    11.288
    164    O    -8.530    4.324    11.072
    165    C    -8.360    5.655    11.597
    166    H    -9.053    5.875    12.444
    167    H    -8.573    6.399    10.795
    168    C    -6.916    5.843    12.054
    169    H    -6.234    5.840    11.177
    170    O    -6.786    7.097    12.774
    171    C    -6.738    6.855    14.183
    172    H    -5.687    7.073    14.478
    173    N    -7.673    7.742    14.963
    174    C    -8.459    8.658    14.287
    175    H    -8.380    8.664    13.199
    176    C    -9.282    9.495    14.931
    177    H    -9.893    10.229    14.407
    178    C    -7.700    7.738    16.365
    179    O    -6.941    6.991    16.999
    180    N    -8.547    8.559    17.028
    181    C    -9.323    9.420    16.350
    182    N    -10.128    10.228    17.039
    183    H    -10.130    10.162    18.035
    184    H    -10.691    10.927    16.597
    185    C    -7.004    5.362    14.377
    186    H    -8.095    5.172    14.472
    187    O    -6.305    4.800    15.468
    188    H    -5.360    4.881    15.266
    189    C    -6.483    4.774    13.067
    190    H    -7.031    3.821    12.880
    191    O    -5.055    4.565    13.054
    192    P    -4.420    3.485    12.103
    193    O    -4.904    3.704    10.724
    194    O    -2.954    3.558    12.289
    195    O    -4.964    2.106    12.633
    196    C    -4.664    1.692    13.990
    197    H    -5.266    2.284    14.722
    198    H    -3.582    1.829    14.225
    199    C    -4.997    0.211    14.213
    200    H    -4.842    -0.083    15.273
    201    O    -6.390    -0.022    13.895
    202    C    -6.526    -1.269    13.235
    203    H    -7.278    -1.850    13.806
    204    N    -7.005    -1.095    11.854
    205    C    -7.431    -2.086    11.009
    206    N    -8.018    -5.435    10.334
    207    H    -7.757    -5.881    11.187
    208    H    -8.361    -5.991    9.572
    209    N    -7.473    -3.400    11.288
    210    C    -7.952    -4.119    10.271
    211    N    -8.364    -3.561    9.089
    212    H    -8.725    -4.175    8.375
    213    C    -8.331    -2.210    8.773
    214    O    -8.716    -1.789    7.677
    215    C    -7.801    -1.442    9.843
    216    N    -7.614    -0.072    9.952
    217    C    -7.151    0.094    11.166
    218    H    -6.913    1.056    11.628
    219    C    -5.193    -1.970    13.302
    220    H    -5.013    -2.633    12.430
    221    O    -5.114    -2.727    14.495
    222    H    -4.209    -3.056    14.574
    223    C    -4.242    -0.782    13.319
    224    H    -4.207    -0.311    12.308
    225    O    -2.939    -1.057    13.874
    226    P    -1.716    -1.231    12.896
    227    O    -1.795    -0.242    11.802
    228    O    -0.481    -1.229    13.713
    229    O    -1.941    -2.668    12.291
    230    C    -1.832    -3.832    13.140
    231    H    -2.532    -3.769    14.003
    232    H    -0.795    -3.924    13.541
    233    C    -2.155    -5.119    12.370
    234    H    -1.985    -6.014    13.009
    235    O    -3.560    -5.122    11.992
    236    C    -3.691    -5.680    10.690
    237    H    -4.415    -6.521    10.797
    238    N    -4.223    -4.701    9.700
    239    C    -4.144    -3.347    9.943
    240    H    -3.704    -3.060    10.897
    241    C    -4.612    -2.449    9.068
    242    H    -4.575    -1.375    9.252
    243    C    -4.780    -5.152    8.508
    244    O    -4.823    -6.371    8.286
    245    N    -5.260    -4.261    7.612
    246    C    -5.181    -2.942    7.860
    247    N    -5.662    -2.091    6.959
    248    H    -6.115    -2.445    6.137
    249    H    -5.674    -1.104    7.114
    250    C    -2.335    -6.244    10.291
    251    H    -2.161    -6.174    9.195
    252    O    -2.222    -7.595    10.716
    253    H    -1.296    -7.880    10.612
    254    C    -1.395    -5.313    11.050
    255    H    -1.334    -4.330    10.540
    256    O    -0.079    -5.844    11.289
    257    H    0.397    -5.927    10.445
 $END
