!*** FMO 5.3 (Gamess) INPUT generated by Facio 22.1.1.32 ***
 $CONTRL RUNTYP=ENERGY NPRINT=-5 ISPHER=1 MAXIT=200 $END
 $SYSTEM MWORDS=63 MEMDDI=63 $END
 $GDDI NGROUP=1 $END
 $SCF DIRSCF=.TRUE. NPUNCH=0 $END
!*** NumCPU : 2  MemPerNode : 512MB
 $PCM SOLVNT=WATER IEF=-10 ICOMP=2 ICAV=1 IDISP=1 IFMO=-1 $END
 $PCMCAV RADII=SUAHF $END
 $TESCAV NTSALL=60 $END
 $FMOPRP
    NAODIR=200
    NGRFMO(1)=1, 1, 0, 0, 0,   0, 0, 0, 0, 0
    IPIEDA=1
    NPRINT=9
 $END
 $FMO
      SCFTYP(1)=RHF
      MODGRD=10
      MODMUL=0
      MAXCAO=5
      MAXBND=18
      NLAYER=1
      MPLEVL(1)=2
      NFRAG=16
      ICHARG(1)=-1, -1, -1, -1, -1, -1, -1, 0, -1, -1, -1, -1, -1, -1,
-1, 0
      FRGNAM(1)=F1, F2, F3, F4, F5, F6, F7, F8, F9, F10, F11, F12, F13,
F14, F15, F16
      indat(1)=0
               1   -35   0
               36   -66   0
               67   -100   0
               101   -133   0
               134   -167   0
               168   -197   0
               198   -231   0
               232   -260   0
               261   -293   0
               294   -324   0
               325   -358   0
               359   -391   0
               392   -425   0
               426   -455   0
               456   -489   0
               490   -516   0
 $END

 $FMOBND
   -36   35       6-31G*    MINI
   -67   66       6-31G*    MINI
   -101   100       6-31G*    MINI
   -134   133       6-31G*    MINI
   -168   167       6-31G*    MINI
   -198   197       6-31G*    MINI
   -232   231       6-31G*    MINI
   -261   260       6-31G*    MINI
   -294   293       6-31G*    MINI
   -325   324       6-31G*    MINI
   -359   358       6-31G*    MINI
   -392   391       6-31G*    MINI
   -426   425       6-31G*    MINI
   -456   455       6-31G*    MINI
   -490   489       6-31G*    MINI
 $END
 $FMOHYB
 6-31G*      15   5
   1 0  -0.065034   0.288264   0.000000   0.000000   0.604412
         0.290129   0.000000   0.000000   0.319045  -0.017106
        -0.017106   0.057934   0.000000   0.000000   0.000000
   0 1  -0.065040   0.288293   0.569832   0.000000  -0.201456
         0.290147   0.300783   0.000000  -0.106342   0.049598
        -0.017106  -0.008771   0.000000  -0.027223   0.000000
   0 1  -0.065039   0.288293  -0.284916  -0.493490  -0.201455
         0.290145  -0.150392  -0.260486  -0.106340  -0.000427
         0.032923  -0.008771   0.033353   0.013612   0.023576
   0 1  -0.065039   0.288293  -0.284916   0.493490  -0.201455
         0.290145  -0.150392   0.260486  -0.106340  -0.000427
         0.032923  -0.008771  -0.033353   0.013612  -0.023576
   0 1   1.010938  -0.011975   0.000000   0.000000   0.000000
        -0.054085   0.000000   0.000000  -0.000000  -0.003174
        -0.003174  -0.003174   0.000000   0.000000   0.000000
 MINI         5   5
   1 0  -0.104883   0.308874   0.000000   0.000000   0.521806
   0 1  -0.104883   0.308874   0.491961   0.000000  -0.173934
   0 1  -0.104883   0.308876  -0.245980  -0.426050  -0.173933
   0 1  -0.104883   0.308876  -0.245980   0.426050  -0.173933
   0 1   0.988209   0.063992   0.000000   0.000000   0.000000
 $END
 
 $DATA
 FMO calculation
 C1 
 H.1-1    1
      N31 6
   
 O.1-1    8
      N31 6
      d 1
      1 0.800 1.0
   
 C.1-1    6
      N31 6
      d 1
      1 0.800 1.0
   
 N.1-1    7
      N31 6
      d 1
      1 0.800 1.0
   
 P.1-1   15
      N31 6
      d 1
      1 0.550 1.0
   
 $END
 $FMOXYZ
    1    H    8.886    8.407    5.342
    2    O    7.935    8.602    5.444
    3    C    7.843    9.965    5.888
    4    H    8.339    10.635    5.147
    5    H    8.382    10.075    6.856
    6    C    6.401    10.451    6.094
    7    H    6.381    11.550    6.262
    8    O    5.571    10.165    4.925
    9    C    4.266    9.812    5.369
    10    H    3.557    10.511    4.867
    11    N    3.917    8.434    4.998
    12    C    2.767    6.615    4.528
    13    N    4.102    6.312    4.259
    14    C    4.742    7.427    4.547
    15    H    5.820    7.582    4.448
    16    N    0.405    6.489    4.747
    17    C    0.461    7.731    5.238
    18    H    -0.502    8.169    5.531
    19    N    1.522    8.529    5.387
    20    C    2.649    7.910    5.000
    21    C    1.561    5.886    4.370
    22    N    1.479    4.648    3.844
    23    H    2.293    4.165    3.509
    24    H    0.580    4.231    3.706
    25    C    4.215    10.036    6.863
    26    H    3.519    9.344    7.385
    27    O    3.846    11.377    7.126
    28    H    3.938    11.511    8.078
    29    C    5.661    9.774    7.255
    30    H    5.902    8.688    7.193
    31    O    6.059    10.366    8.507
    32    P    5.900    9.547    9.843
    33    O    6.472    10.354    10.944
    34    O    6.476    8.203    9.637
    35    O    4.350    9.397    10.050
    36    C    3.547    10.520    10.479
    37    H    3.686    11.397    9.805
    38    H    3.838    10.840    11.507
    39    C    2.048    10.168    10.500
    40    H    1.437    11.077    10.681
    41    O    1.626    9.616    9.220
    42    C    0.645    8.608    9.447
    43    H    -0.265    8.975    8.921
    44    N    1.012    7.288    8.864
    45    C    2.334    6.970    8.650
    46    H    3.059    7.722    8.971
    47    C    2.683    5.816    8.061
    48    H    3.719    5.557    7.850
    49    C    0.018    6.366    8.533
    50    O    -1.168    6.641    8.759
    51    N    0.352    5.201    7.944
    52    C    1.636    4.924    7.678
    53    N    1.917    3.797    7.034
    54    H    1.153    3.268    6.661
    55    H    2.851    3.528    6.802
    56    C    0.348    8.562    10.936
    57    H    0.143    7.533    11.307
    58    O    -0.744    9.416    11.231
    59    H    -0.765    9.481    12.193
    60    C    1.636    9.110    11.538
    61    H    2.430    8.333    11.523
    62    O    1.468    9.728    12.830
    63    P    1.823    8.991    14.174
    64    O    1.640    9.964    15.275
    65    O    3.158    8.374    14.047
    66    O    0.750    7.859    14.317
    67    C    -0.648    8.157    14.491
    68    H    -1.007    8.894    13.741
    69    H    -0.831    8.595    15.499
    70    C    -1.510    6.894    14.363
    71    H    -2.579    7.191    14.427
    72    O    -1.321    6.233    13.072
    73    C    -1.147    4.845    13.285
    74    H    -2.172    4.405    13.291
    75    N    -0.295    4.203    12.258
    76    C    1.010    4.493    11.895
    77    N    3.923    6.337    12.317
    78    H    4.867    6.340    11.999
    79    H    3.607    7.044    12.962
    80    N    1.792    5.466    12.403
    81    C    3.028    5.447    11.924
    82    N    3.457    4.528    11.004
    83    H    4.417    4.572    10.703
    84    C    2.686    3.498    10.475
    85    O    3.154    2.698    9.660
    86    C    1.351    3.534    10.962
    87    N    0.282    2.681    10.708
    88    C    -0.671    3.116    11.501
    89    H    -1.670    2.678    11.579
    90    C    -0.537    4.699    14.656
    91    H    0.551    4.947    14.624
    92    O    -0.740    3.400    15.203
    93    H    -0.672    2.729    14.509
    94    C    -1.243    5.818    15.433
    95    H    -0.490    6.253    16.136
    96    O    -2.475    5.419    16.088
    97    P    -2.632    5.741    17.622
    98    O    -3.915    5.179    18.089
    99    O    -2.430    7.194    17.836
    100    O    -1.440    4.930    18.251
    101    C    -1.278    4.778    19.674
    102    H    -2.108    4.179    20.113
    103    H    -1.252    5.762    20.187
    104    C    0.045    4.084    20.001
    105    H    0.181    4.050    21.102
    106    O    0.037    2.706    19.539
    107    C    1.239    2.473    18.853
    108    H    2.021    2.266    19.621
    109    N    1.108    1.348    17.932
    110    C    1.556    -0.357    16.626
    111    N    0.180    -0.183    16.580
    112    C    -0.039    0.843    17.368
    113    H    -1.018    1.282    17.589
    114    N    3.756    -1.142    16.235
    115    C    4.165    -0.202    17.089
    116    H    5.246    -0.160    17.266
    117    N    3.440    0.704    17.753
    118    C    2.134    0.572    17.468
    119    C    2.433    -1.243    15.967
    120    N    2.041    -2.155    15.069
    121    H    1.075    -2.427    15.005
    122    H    2.738    -2.730    14.638
    123    C    1.534    3.786    18.175
    124    H    0.779    3.987    17.379
    125    O    2.848    3.878    17.652
    126    H    3.066    3.065    17.177
    127    C    1.295    4.730    19.356
    128    H    1.028    5.739    18.965
    129    O    2.409    4.771    20.274
    130    P    2.707    6.025    21.168
    131    O    2.683    7.267    20.362
    132    O    3.956    5.757    21.913
    133    O    1.502    6.064    22.182
    134    C    1.448    5.169    23.316
    135    H    2.272    5.406    24.030
    136    H    1.552    4.105    22.999
    137    C    0.110    5.344    24.051
    138    H    -0.061    6.429    24.229
    139    O    -0.992    4.834    23.254
    140    C    -1.604    3.751    23.932
    141    H    -2.489    4.184    24.449
    142    N    -2.040    2.715    22.974
    143    C    -1.327    1.729    22.315
    144    N    1.661    0.085    21.627
    145    H    2.299    0.554    22.237
    146    H    2.004    -0.649    21.037
    147    N    -0.011    1.450    22.449
    148    C    0.390    0.470    21.644
    149    N    -0.452    -0.200    20.798
    150    H    -0.076    -0.934    20.217
    151    C    -1.802    0.070    20.623
    152    O    -2.493    -0.560    19.815
    153    C    -2.243    1.116    21.478
    154    N    -3.501    1.690    21.606
    155    C    -3.334    2.629    22.507
    156    H    -4.126    3.292    22.871
    157    C    -0.624    3.276    24.989
    158    H    0.164    2.611    24.572
    159    O    -1.276    2.653    26.080
    160    H    -1.814    3.333    26.505
    161    C    0.014    4.604    25.401
    162    H    1.040    4.411    25.789
    163    O    -0.794    5.329    26.344
    164    P    -0.184    6.379    27.333
    165    O    0.452    7.484    26.579
    166    O    0.640    5.685    28.349
    167    O    -1.498    6.911    28.014
    168    C    -2.300    6.063    28.874
    169    H    -2.300    6.511    29.895
    170    H    -1.888    5.032    28.984
    171    C    -3.777    5.928    28.437
    172    H    -4.345    5.498    29.292
    173    O    -4.372    7.218    28.102
    174    C    -4.797    7.192    26.755
    175    H    -5.873    6.902    26.794
    176    N    -4.586    8.511    26.115
    177    C    -3.309    8.988    25.924
    178    H    -2.505    8.354    26.303
    179    C    -5.684    9.266    25.770
    180    O    -6.837    8.900    25.979
    181    N    -5.398    10.467    25.174
    182    H    -6.199    11.024    24.913
    183    C    -4.152    10.998    24.914
    184    O    -4.052    12.101    24.375
    185    C    -3.060    10.168    25.334
    186    H    -2.045    10.524    25.173
    187    C    -4.040    6.068    26.072
    188    H    -3.007    6.382    25.813
    189    O    -4.705    5.579    24.922
    190    H    -5.505    5.131    25.238
    191    C    -3.997    5.033    27.192
    192    H    -3.104    4.388    27.046
    193    O    -5.205    4.243    27.272
    194    P    -5.226    2.901    28.096
    195    O    -6.491    2.884    28.862
    196    O    -3.991    2.776    28.906
    197    O    -5.272    1.780    26.983
    198    C    -6.455    1.707    26.142
    199    H    -6.582    2.651    25.566
    200    H    -7.372    1.547    26.765
    201    C    -6.389    0.558    25.120
    202    H    -7.295    0.567    24.478
    203    O    -5.246    0.715    24.237
    204    C    -4.808    -0.575    23.816
    205    H    -4.909    -0.603    22.710
    206    N    -3.395    -0.816    24.154
    207    C    -2.560    -1.753    23.590
    208    N    -1.987    -4.359    21.364
    209    H    -2.897    -4.556    21.006
    210    H    -1.230    -4.982    21.152
    211    N    -2.887    -2.640    22.628
    212    C    -1.852    -3.393    22.255
    213    N    -0.589    -3.227    22.754
    214    H    0.147    -3.822    22.402
    215    C    -0.216    -2.310    23.726
    216    O    0.955    -2.226    24.108
    217    C    -1.331    -1.557    24.187
    218    N    -1.402    -0.559    25.148
    219    C    -2.644    -0.136    25.087
    220    H    -3.070    0.687    25.667
    221    C    -5.736    -1.596    24.437
    222    H    -5.219    -2.539    24.708
    223    O    -6.807    -1.865    23.549
    224    H    -7.432    -2.420    24.031
    225    C    -6.229    -0.861    25.679
    226    H    -5.429    -0.802    26.454
    227    O    -7.494    -1.343    26.196
    228    P    -7.474    -2.440    27.328
    229    O    -8.865    -2.774    27.703
    230    O    -6.616    -1.943    28.424
    231    O    -6.794    -3.709    26.673
    232    C    -7.536    -4.528    25.733
    233    H    -7.938    -3.918    24.895
    234    H    -8.396    -5.024    26.243
    235    C    -6.666    -5.633    25.104
    236    H    -7.251    -6.202    24.349
    237    O    -5.516    -5.068    24.414
    238    C    -4.415    -5.962    24.526
    239    H    -4.148    -6.231    23.477
    240    N    -3.246    -5.330    25.206
    241    C    -3.403    -4.300    26.111
    242    H    -4.435    -3.994    26.296
    243    C    -1.993    -5.827    24.919
    244    O    -1.811    -6.770    24.158
    245    N    -0.956    -5.196    25.553
    246    H    -0.028    -5.536    25.327
    247    C    -1.030    -4.155    26.448
    248    O    0.002    -3.693    26.931
    249    C    -2.366    -3.712    26.729
    250    H    -2.505    -2.894    27.433
    251    C    -4.911    -7.210    25.249
    252    H    -4.128    -7.645    25.905
    253    O    -5.350    -8.179    24.309
    254    H    -5.812    -8.887    24.788
    255    C    -6.062    -6.645    26.077
    256    H    -5.673    -6.084    26.951
    257    O    -7.047    -7.613    26.480
    258    H    -6.651    -8.236    27.119
    259    H    10.206    -8.410    24.572
    260    O    9.255    -8.519    24.380
    261    C    9.106    -9.841    23.841
    262    H    9.495    -10.578    24.581
    263    H    9.717    -9.927    22.914
    264    C    7.652    -10.211    23.509
    265    H    7.594    -11.288    23.228
    266    O    6.775    -10.008    24.660
    267    C    5.504    -9.577    24.195
    268    H    4.756    -10.310    24.575
    269    N    5.169    -8.238    24.696
    270    C    4.043    -6.438    25.278
    271    N    5.373    -6.190    25.611
    272    C    5.999    -7.292    25.253
    273    H    7.071    -7.481    25.370
    274    N    1.699    -6.225    24.968
    275    C    1.747    -7.423    24.376
    276    H    0.788    -7.801    24.006
    277    N    2.789    -8.244    24.222
    278    C    3.913    -7.687    24.697
    279    C    2.852    -5.689    25.443
    280    N    2.781    -4.491    26.052
    281    H    3.589    -4.053    26.455
    282    H    1.886    -4.058    26.168
    283    C    5.529    -9.619    22.681
    284    H    4.897    -8.831    22.218
    285    O    5.116    -10.889    22.217
    286    H    5.156    -10.845    21.253
    287    C    7.006    -9.378    22.394
    288    H    7.284    -8.320    22.588
    289    O    7.466    -9.840    21.112
    290    P    7.330    -8.934    19.833
    291    O    7.963    -9.650    18.704
    292    O    7.840    -7.579    20.138
    293    O    5.784    -8.826    19.582
    294    C    5.017    -9.922    19.037
    295    H    5.188    -10.864    19.610
    296    H    5.319    -10.126    17.984
    297    C    3.504    -9.618    19.040
    298    H    2.932    -10.540    18.793
    299    O    3.054    -9.178    20.358
    300    C    2.052    -8.172    20.198
    301    H    1.162    -8.570    20.728
    302    N    2.406    -6.864    20.830
    303    C    3.726    -6.524    21.026
    304    H    4.461    -7.243    20.660
    305    C    4.068    -5.391    21.659
    306    H    5.104    -5.124    21.860
    307    C    1.404    -5.961    21.197
    308    O    0.220    -6.231    20.948
    309    N    1.732    -4.822    21.844
    310    C    3.015    -4.550    22.127
    311    N    3.287    -3.488    22.880
    312    H    2.519    -2.989    23.287
    313    H    4.216    -3.237    23.145
    314    C    1.722    -8.075    18.719
    315    H    1.441    -7.049    18.401
    316    O    0.669    -8.969    18.396
    317    H    0.588    -8.919    17.437
    318    C    3.039    -8.514    18.080
    319    H    3.794    -7.701    18.139
    320    O    2.925    -9.067    16.761
    321    P    2.986    -8.209    15.454
    322    O    2.945    -9.151    14.310
    323    O    4.155    -7.302    15.504
    324    O    1.672    -7.356    15.454
    325    C    0.376    -7.931    15.207
    326    H    0.194    -8.817    15.858
    327    H    0.304    -8.274    14.148
    328    C    -0.751    -6.904    15.446
    329    H    -1.730    -7.432    15.395
    330    O    -0.652    -6.249    16.758
    331    C    -0.716    -4.837    16.567
    332    H    -1.798    -4.572    16.591
    333    N    0.024    -4.063    17.583
    334    C    1.365    -4.089    17.911
    335    N    4.571    -5.303    17.414
    336    H    5.504    -5.093    17.696
    337    H    4.406    -6.011    16.714
    338    N    2.316    -4.866    17.360
    339    C    3.527    -4.610    17.831
    340    N    3.777    -3.646    18.774
    341    H    4.729    -3.479    19.047
    342    C    2.822    -2.802    19.333
    343    O    3.101    -1.927    20.159
    344    C    1.522    -3.104    18.866
    345    N    0.314    -2.497    19.162
    346    C    -0.545    -3.087    18.368
    347    H    -1.611    -2.849    18.319
    348    C    -0.186    -4.577    15.183
    349    H    0.925    -4.667    15.175
    350    O    -0.604    -3.321    14.663
    351    H    -0.607    -3.387    13.698
    352    C    -0.784    -5.749    14.425
    353    H    -0.071    -6.018    13.605
    354    O    -2.130    -5.491    13.965
    355    P    -2.439    -5.714    12.446
    356    O    -3.856    -5.371    12.195
    357    O    -2.005    -7.082    12.086
    358    O    -1.500    -4.646    11.774
    359    C    -1.554    -4.464    10.339
    360    H    -2.494    -3.946    10.037
    361    H    -1.516    -5.441    9.801
    362    C    -0.364    -3.635    9.841
    363    H    -0.407    -3.548    8.735
    364    O    -0.407    -2.280    10.381
    365    C    0.861    -1.989    10.914
    366    H    1.495    -1.671    10.058
    367    N    0.791    -0.925    11.916
    368    C    1.333    0.740    13.244
    369    N    -0.026    0.520    13.442
    370    C    -0.297    -0.486    12.636
    371    H    -1.274    -0.965    12.512
    372    N    3.529    1.632    13.366
    373    C    3.849    0.770    12.401
    374    H    4.892    0.813    12.061
    375    N    3.089    -0.153    11.806
    376    C    1.836    -0.126    12.289
    377    C    2.254    1.643    13.823
    378    N    1.987    2.517    14.807
    379    H    1.053    2.707    15.121
    380    H    2.681    3.223    14.961
    381    C    1.360    -3.312    11.442
    382    H    0.770    -3.620    12.332
    383    O    2.739    -3.333    11.740
    384    H    3.221    -3.255    10.902
    385    C    1.016    -4.209    10.254
    386    H    0.871    -5.249    10.635
    387    O    1.994    -4.142    9.177
    388    P    2.147    -5.410    8.245
    389    O    2.359    -6.616    9.077
    390    O    3.187    -5.101    7.238
    391    O    0.755    -5.531    7.521
    392    C    0.448    -4.706    6.372
    393    H    1.125    -4.964    5.524
    394    H    0.565    -3.623    6.604
    395    C    -0.995    -4.964    5.923
    396    H    -1.171    -6.063    5.892
    397    O    -1.952    -4.387    6.860
    398    C    -2.718    -3.398    6.188
    399    H    -3.665    -3.916    5.906
    400    N    -3.013    -2.248    7.063
    401    C    -2.188    -1.271    7.595
    402    N    0.955    0.135    8.080
    403    H    1.361    0.874    8.611
    404    H    1.536    -0.443    7.505
    405    N    -0.858    -1.127    7.387
    406    C    -0.339    -0.142    8.120
    407    N    -1.081    0.661    8.945
    408    H    -0.599    1.361    9.485
    409    C    -2.445    0.541    9.175
    410    O    -3.037    1.297    9.954
    411    C    -3.015    -0.505    8.402
    412    N    -4.329    -0.957    8.347
    413    C    -4.276    -1.985    7.535
    414    H    -5.135    -2.590    7.237
    415    C    -1.981    -3.027    4.923
    416    H    -1.177    -2.287    5.123
    417    O    -2.870    -2.561    3.923
    418    H    -3.438    -3.317    3.728
    419    C    -1.368    -4.377    4.546
    420    H    -0.442    -4.198    3.946
    421    O    -2.306    -5.224    3.859
    422    P    -1.823    -6.359    2.897
    423    O    -1.119    -7.409    3.663
    424    O    -1.115    -5.766    1.739
    425    O    -3.210    -6.925    2.427
    426    C    -4.079    -6.194    1.533
    427    H    -4.188    -6.787    0.596
    428    H    -3.667    -5.199    1.234
    429    C    -5.498    -5.979    2.090
    430    H    -6.140    -5.641    1.243
    431    O    -6.082    -7.202    2.616
    432    C    -6.416    -6.998    3.970
    433    H    -7.478    -6.664    3.955
    434    N    -6.218    -8.238    4.747
    435    C    -4.956    -8.765    4.890
    436    H    -4.159    -8.223    4.375
    437    C    -7.318    -8.865    5.283
    438    O    -8.461    -8.440    5.142
    439    N    -7.044    -10.004    5.994
    440    H    -7.848    -10.460    6.396
    441    C    -5.812    -10.593    6.191
    442    O    -5.723    -11.631    6.849
    443    C    -4.719    -9.890    5.583
    444    H    -3.712    -10.279    5.716
    445    C    -5.577    -5.838    4.466
    446    H    -4.537    -6.165    4.684
    447    O    -6.139    -5.188    5.592
    448    H    -6.942    -4.743    5.280
    449    C    -5.593    -4.943    3.233
    450    H    -4.666    -4.330    3.233
    451    O    -6.780    -4.118    3.139
    452    P    -6.762    -2.877    2.165
    453    O    -8.024    -2.881    1.398
    454    O    -5.527    -2.867    1.349
    455    O    -6.763    -1.636    3.139
    456    C    -7.929    -1.432    3.979
    457    H    -8.074    -2.298    4.668
    458    H    -8.857    -1.317    3.363
    459    C    -7.808    -0.178    4.859
    460    H    -8.721    -0.073    5.486
    461    O    -6.679    -0.296    5.765
    462    C    -6.215    1.010    6.088
    463    H    -6.361    1.136    7.186
    464    N    -4.790    1.180    5.781
    465    C    -3.953    2.137    6.303
    466    N    -3.402    4.950    8.264
    467    H    -4.310    5.168    8.616
    468    H    -2.630    5.554    8.481
    469    N    -4.296    3.107    7.176
    470    C    -3.258    3.885    7.498
    471    N    -1.983    3.652    7.057
    472    H    -1.245    4.257    7.386
    473    C    -1.597    2.644    6.188
    474    O    -0.418    2.508    5.847
    475    C    -2.711    1.872    5.762
    476    N    -2.772    0.804    4.880
    477    C    -4.025    0.415    4.927
    478    H    -4.452    -0.436    4.386
    479    C    -7.092    2.001    5.345
    480    H    -6.527    2.893    5.001
    481    O    -8.176    2.405    6.170
    482    H    -8.748    2.953    5.620
    483    C    -7.567    1.163    4.160
    484    H    -6.740    0.988    3.434
    485    O    -8.782    1.632    3.535
    486    P    -8.672    2.609    2.304
    487    O    -10.031    2.934    1.828
    488    O    -7.749    2.018    1.315
    489    O    -8.016    3.914    2.893
    490    C    -8.806    4.802    3.725
    491    H    -9.279    4.255    4.573
    492    H    -9.627    5.267    3.130
    493    C    -7.949    5.941    4.309
    494    H    -8.548    6.572    4.997
    495    O    -6.825    5.410    5.074
    496    C    -5.710    6.282    4.936
    497    H    -5.480    6.629    5.971
    498    N    -4.524    5.588    4.351
    499    C    -4.662    4.494    3.523
    500    H    -5.690    4.186    3.322
    501    C    -3.276    6.094    4.644
    502    O    -3.111    7.086    5.345
    503    N    -2.226    5.403    4.101
    504    H    -1.305    5.769    4.318
    505    C    -2.282    4.300    3.279
    506    O    -1.241    3.801    2.853
    507    C    -3.612    3.842    2.998
    508    H    -3.739    2.977    2.350
    509    C    -6.159    7.476    4.097
    510    H    -5.346    7.841    3.438
    511    O    -6.605    8.527    4.938
    512    H    -7.078    9.180    4.396
    513    C    -7.296    6.867    3.281
    514    H    -6.895    6.231    2.469
    515    O    -8.250    7.819    2.776
    516    H    -7.817    8.399    2.120
 $END
