!*** FMO 5.3 (Gamess) INPUT generated by Facio 22.1.1.32 ***
 $CONTRL RUNTYP=ENERGY NPRINT=-5 ISPHER=1 MAXIT=200 $END
 $SYSTEM MWORDS=63 MEMDDI=63 $END
 $GDDI NGROUP=1 $END
 $SCF DIRSCF=.TRUE. NPUNCH=0 $END
!*** NumCPU : 2  MemPerNode : 512MB
 $PCM SOLVNT=WATER IEF=-10 ICOMP=2 ICAV=1 IDISP=1 IFMO=-1 $END
 $PCMCAV RADII=SUAHF $END
 $TESCAV NTSALL=60 $END
 $FMOPRP
    NAODIR=200
    NGRFMO(1)=1, 1, 0, 0, 0,   0, 0, 0, 0, 0
    IPIEDA=1
    NPRINT=9
 $END
 $FMO
      SCFTYP(1)=RHF
      MODGRD=10
      MODMUL=0
      MAXCAO=5
      MAXBND=14
      NLAYER=1
      MPLEVL(1)=2
      NFRAG=12
      ICHARG(1)=-1, -1, -1, -1, -1, 0, -1, -1, -1, -1, -1, 0
      FRGNAM(1)=F1, F2, F3, F4, F5, F6, F7, F8, F9, F10, F11, F12
      indat(1)=0
               1   -33   0
               34   -67   0
               68   -101   0
               102   -134   0
               135   -165   0
               166   -198   0
               199   -229   0
               230   -263   0
               264   -297   0
               298   -330   0
               331   -361   0
               362   -392   0
 $END

 $FMOBND
   -34   33       6-31G*    MINI
   -68   67       6-31G*    MINI
   -102   101       6-31G*    MINI
   -135   134       6-31G*    MINI
   -166   165       6-31G*    MINI
   -199   198       6-31G*    MINI
   -230   229       6-31G*    MINI
   -264   263       6-31G*    MINI
   -298   297       6-31G*    MINI
   -331   330       6-31G*    MINI
   -362   361       6-31G*    MINI
 $END
 $FMOHYB
 6-31G*      15   5
   1 0  -0.065034   0.288264   0.000000   0.000000   0.604412
         0.290129   0.000000   0.000000   0.319045  -0.017106
        -0.017106   0.057934   0.000000   0.000000   0.000000
   0 1  -0.065040   0.288293   0.569832   0.000000  -0.201456
         0.290147   0.300783   0.000000  -0.106342   0.049598
        -0.017106  -0.008771   0.000000  -0.027223   0.000000
   0 1  -0.065039   0.288293  -0.284916  -0.493490  -0.201455
         0.290145  -0.150392  -0.260486  -0.106340  -0.000427
         0.032923  -0.008771   0.033353   0.013612   0.023576
   0 1  -0.065039   0.288293  -0.284916   0.493490  -0.201455
         0.290145  -0.150392   0.260486  -0.106340  -0.000427
         0.032923  -0.008771  -0.033353   0.013612  -0.023576
   0 1   1.010938  -0.011975   0.000000   0.000000   0.000000
        -0.054085   0.000000   0.000000  -0.000000  -0.003174
        -0.003174  -0.003174   0.000000   0.000000   0.000000
 MINI         5   5
   1 0  -0.104883   0.308874   0.000000   0.000000   0.521806
   0 1  -0.104883   0.308874   0.491961   0.000000  -0.173934
   0 1  -0.104883   0.308876  -0.245980  -0.426050  -0.173933
   0 1  -0.104883   0.308876  -0.245980   0.426050  -0.173933
   0 1   0.988209   0.063992   0.000000   0.000000   0.000000
 $END
 
 $DATA
 FMO calculation
 C1 
 H.1-1    1
      N31 6
   
 O.1-1    8
      N31 6
      d 1
      1 0.800 1.0
   
 C.1-1    6
      N31 6
      d 1
      1 0.800 1.0
   
 N.1-1    7
      N31 6
      d 1
      1 0.800 1.0
   
 P.1-1   15
      N31 6
      d 1
      1 0.550 1.0
   
 $END
 $FMOXYZ
    1    H    -39.230    112.576    -49.810
    2    O    -39.250    113.294    -50.471
    3    C    -38.237    114.235    -50.096
    4    H    -37.272    113.704    -49.947
    5    H    -38.516    114.702    -49.122
    6    C    -38.044    115.348    -51.130
    7    H    -37.273    116.068    -50.779
    8    O    -37.599    114.814    -52.422
    9    C    -38.201    115.594    -53.461
    10    H    -37.367    115.971    -54.098
    11    N    -39.165    114.817    -54.296
    12    C    -39.663    113.611    -53.847
    13    H    -39.281    113.252    -52.888
    14    C    -40.550    112.912    -54.565
    15    H    -40.942    111.953    -54.232
    16    C    -39.622    115.342    -55.504
    17    O    -39.213    116.454    -55.877
    18    N    -40.491    114.632    -56.261
    19    C    -40.970    113.455    -55.813
    20    N    -41.833    112.770    -56.566
    21    H    -42.101    113.106    -57.466
    22    H    -42.201    111.890    -56.263
    23    C    -38.872    116.773    -52.780
    24    H    -39.732    117.171    -53.359
    25    O    -37.927    117.803    -52.536
    26    H    -38.352    118.447    -51.952
    27    C    -39.320    116.125    -51.481
    28    H    -40.115    115.366    -51.669
    29    O    -39.664    117.044    -50.421
    30    P    -41.169    117.526    -50.327
    31    O    -41.253    118.454    -49.175
    32    O    -42.053    116.341    -50.309
    33    O    -41.421    118.329    -51.654
    34    C    -40.862    119.654    -51.810
    35    H    -39.751    119.632    -51.735
    36    H    -41.249    120.345    -51.021
    37    C    -41.240    120.244    -53.172
    38    H    -40.719    121.211    -53.349
    39    O    -40.866    119.334    -54.247
    40    C    -41.847    119.401    -55.271
    41    H    -41.312    119.708    -56.197
    42    N    -42.507    118.109    -55.506
    43    C    -43.243    117.754    -56.615
    44    N    -44.544    118.463    -59.757
    45    H    -44.247    119.404    -59.923
    46    H    -45.050    117.966    -60.465
    47    N    -43.476    118.527    -57.703
    48    C    -44.191    117.878    -58.626
    49    N    -44.592    116.575    -58.493
    50    H    -45.085    116.136    -59.256
    51    C    -44.353    115.758    -57.396
    52    O    -44.734    114.584    -57.359
    53    C    -43.634    116.448    -56.386
    54    N    -43.192    116.007    -55.143
    55    C    -42.523    117.024    -54.658
    56    H    -41.997    117.044    -53.701
    57    C    -42.843    120.467    -54.880
    58    H    -43.873    120.230    -55.222
    59    O    -42.448    121.719    -55.401
    60    H    -43.179    122.313    -55.192
    61    C    -42.744    120.455    -53.356
    62    H    -43.230    119.541    -52.944
    63    O    -43.171    121.674    -52.678
    64    P    -44.739    121.844    -52.497
    65    O    -44.981    122.997    -51.603
    66    O    -45.317    120.554    -52.074
    67    O    -45.277    122.182    -53.930
    68    C    -45.063    123.470    -54.541
    69    H    -43.978    123.706    -54.629
    70    H    -45.537    124.271    -53.929
    71    C    -45.689    123.517    -55.939
    72    H    -45.430    124.473    -56.451
    73    O    -45.190    122.428    -56.773
    74    C    -46.250    121.965    -57.602
    75    H    -45.901    122.014    -58.660
    76    N    -46.611    120.572    -57.269
    77    C    -47.124    119.620    -58.111
    78    N    -48.195    118.669    -61.262
    79    H    -48.389    117.844    -61.778
    80    H    -48.089    119.532    -61.759
    81    N    -47.423    119.788    -59.410
    82    C    -47.838    118.662    -59.988
    83    N    -47.937    117.467    -59.312
    84    H    -48.214    116.626    -59.791
    85    C    -47.627    117.269    -57.973
    86    O    -47.719    116.171    -57.425
    87    C    -47.218    118.470    -57.352
    88    N    -46.823    118.702    -56.045
    89    C    -46.475    119.961    -56.041
    90    H    -46.105    120.501    -55.172
    91    C    -47.401    122.923    -57.410
    92    H    -48.370    122.420    -57.539
    93    O    -47.296    124.027    -58.294
    94    H    -48.003    124.650    -58.061
    95    C    -47.215    123.353    -55.963
    96    H    -47.466    122.520    -55.269
    97    O    -47.868    124.588    -55.584
    98    P    -49.430    124.603    -55.350
    99    O    -49.861    126.000    -55.139
    100    O    -49.734    123.649    -54.264
    101    O    -50.065    124.092    -56.697
    102    C    -51.193    123.185    -56.668
    103    H    -52.127    123.725    -56.368
    104    H    -51.033    122.349    -55.945
    105    C    -51.416    122.562    -58.051
    106    H    -51.488    123.339    -58.841
    107    O    -50.314    121.676    -58.390
    108    C    -50.815    120.472    -58.930
    109    H    -50.244    120.265    -59.865
    110    N    -50.656    119.377    -57.968
    111    C    -50.720    117.406    -57.000
    112    N    -50.200    118.282    -56.057
    113    C    -50.165    119.430    -56.686
    114    H    -49.781    120.364    -56.264
    115    N    -51.620    115.499    -58.070
    116    C    -51.831    116.282    -59.122
    117    H    -52.281    115.794    -59.993
    118    N    -51.515    117.559    -59.297
    119    C    -51.005    118.076    -58.175
    120    C    -51.021    116.026    -56.968
    121    N    -50.762    115.228    -55.918
    122    H    -50.272    115.544    -55.103
    123    H    -51.002    114.260    -56.008
    124    C    -52.268    120.720    -59.250
    125    H    -52.888    119.799    -59.234
    126    O    -52.391    121.359    -60.505
    127    H    -53.279    121.744    -60.548
    128    C    -52.648    121.659    -58.121
    129    H    -52.704    121.109    -57.150
    130    O    -53.808    122.456    -58.395
    131    P    -55.195    122.030    -57.809
    132    O    -56.220    122.973    -58.317
    133    O    -55.060    121.901    -56.340
    134    O    -55.416    120.600    -58.416
    135    C    -55.750    120.417    -59.806
    136    H    -54.923    120.755    -60.471
    137    H    -56.665    120.997    -60.067
    138    C    -56.049    118.944    -60.098
    139    H    -56.317    118.806    -61.167
    140    O    -54.887    118.106    -59.830
    141    C    -55.336    116.857    -59.315
    142    H    -54.943    116.086    -60.016
    143    N    -54.840    116.568    -57.941
    144    C    -54.384    117.596    -57.144
    145    H    -54.390    118.591    -57.595
    146    C    -53.926    117.364    -55.907
    147    H    -53.529    118.156    -55.275
    148    C    -54.879    115.266    -57.437
    149    O    -55.337    114.352    -58.140
    150    N    -54.397    115.013    -56.204
    151    C    -53.934    116.015    -55.438
    152    N    -53.453    115.719    -54.234
    153    H    -53.368    114.750    -54.010
    154    H    -53.022    116.405    -53.648
    155    C    -56.846    116.859    -59.386
    156    H    -57.311    116.261    -58.576
    157    O    -57.268    116.385    -60.649
    158    H    -58.219    116.536    -60.694
    159    C    -57.157    118.338    -59.228
    160    H    -56.967    118.672    -58.182
    161    O    -58.455    118.743    -59.721
    162    P    -59.689    118.673    -58.743
    163    O    -60.899    119.122    -59.465
    164    O    -59.359    119.386    -57.493
    165    O    -59.836    117.145    -58.409
    166    C    -60.345    116.231    -59.406
    167    H    -59.781    116.283    -60.362
    168    H    -61.409    116.470    -59.642
    169    C    -60.309    114.790    -58.893
    170    H    -60.703    114.098    -59.670
    171    O    -58.952    114.363    -58.583
    172    C    -58.986    113.495    -57.455
    173    H    -58.525    112.533    -57.777
    174    N    -58.222    114.033    -56.319
    175    C    -57.692    113.309    -55.282
    176    N    -57.078    110.270    -53.717
    177    H    -57.565    109.621    -54.303
    178    H    -56.609    109.932    -52.898
    179    N    -57.782    111.975    -55.121
    180    C    -57.111    111.549    -54.047
    181    N    -56.399    112.382    -53.230
    182    H    -55.929    111.965    -52.443
    183    C    -56.307    113.762    -53.358
    184    O    -55.644    114.425    -52.554
    185    C    -57.056    114.231    -54.473
    186    N    -57.243    115.520    -54.956
    187    C    -57.936    115.352    -56.056
    188    H    -58.267    116.151    -56.724
    189    C    -60.442    113.274    -57.093
    190    H    -60.589    113.160    -55.997
    191    O    -60.950    112.129    -57.764
    192    H    -60.923    112.288    -58.720
    193    C    -61.076    114.572    -57.589
    194    H    -60.837    115.410    -56.899
    195    O    -62.488    114.496    -57.843
    196    H    -62.959    114.372    -57.001
    197    H    -50.999    107.782    -46.394
    198    O    -51.668    107.734    -47.101
    199    C    -52.421    106.533    -46.879
    200    H    -52.877    106.563    -45.863
    201    H    -51.729    105.664    -46.915
    202    C    -53.531    106.303    -47.915
    203    H    -54.028    105.327    -47.734
    204    O    -54.559    107.344    -47.823
    205    C    -55.032    107.638    -49.140
    206    H    -56.137    107.494    -49.112
    207    N    -54.723    109.028    -49.587
    208    C    -53.744    109.759    -48.952
    209    H    -53.262    109.282    -48.094
    210    C    -53.433    110.998    -49.350
    211    H    -52.670    111.592    -48.852
    212    C    -55.377    109.571    -50.696
    213    O    -56.217    108.888    -51.302
    214    N    -55.094    110.833    -51.094
    215    C    -54.135    111.537    -50.464
    216    N    -53.842    112.767    -50.889
    217    H    -54.354    113.184    -51.638
    218    H    -53.131    113.313    -50.445
    219    C    -54.423    106.608    -50.065
    220    H    -54.285    106.987    -51.100
    221    O    -55.226    105.444    -50.085
    222    H    -54.700    104.750    -50.502
    223    C    -53.085    106.352    -49.383
    224    H    -52.421    107.243    -49.485
    225    O    -52.429    105.115    -49.754
    226    P    -51.454    105.148    -51.004
    227    O    -50.912    103.787    -51.216
    228    O    -50.460    106.231    -50.831
    229    O    -52.394    105.528    -52.202
    230    C    -53.298    104.547    -52.756
    231    H    -54.011    104.170    -51.989
    232    H    -52.733    103.671    -53.151
    233    C    -54.102    105.127    -53.924
    234    H    -54.851    104.391    -54.288
    235    O    -54.827    106.325    -53.532
    236    C    -54.850    107.220    -54.635
    237    H    -55.921    107.440    -54.849
    238    N    -54.147    108.475    -54.343
    239    C    -54.246    109.641    -55.060
    240    N    -55.685    111.528    -57.603
    241    H    -56.261    110.861    -58.077
    242    H    -55.709    112.491    -57.878
    243    N    -55.015    109.843    -56.151
    244    C    -54.987    111.115    -56.557
    245    N    -54.243    112.084    -55.936
    246    H    -54.289    113.029    -56.290
    247    C    -53.409    111.893    -54.839
    248    O    -52.756    112.813    -54.337
    249    C    -53.434    110.544    -54.400
    250    N    -52.798    109.943    -53.320
    251    C    -53.248    108.712    -53.326
    252    H    -52.982    107.932    -52.607
    253    C    -54.225    106.508    -55.811
    254    H    -53.692    107.202    -56.497
    255    O    -55.201    105.784    -56.533
    256    H    -54.733    105.435    -57.303
    257    C    -53.248    105.571    -55.111
    258    H    -52.384    106.139    -54.696
    259    O    -52.830    104.411    -55.855
    260    P    -51.732    104.520    -56.970
    261    O    -51.465    103.159    -57.482
    262    O    -50.568    105.262    -56.433
    263    O    -52.412    105.368    -58.105
    264    C    -53.349    104.768    -59.030
    265    H    -54.222    104.329    -58.494
    266    H    -52.862    103.948    -59.607
    267    C    -53.876    105.800    -60.036
    268    H    -54.668    105.365    -60.678
    269    O    -54.455    106.947    -59.341
    270    C    -54.150    108.131    -60.069
    271    H    -55.112    108.653    -60.289
    272    N    -53.271    109.030    -59.300
    273    C    -53.193    110.397    -59.382
    274    N    -54.242    113.399    -60.761
    275    H    -54.201    114.371    -60.567
    276    H    -54.931    113.081    -61.414
    277    N    -53.904    111.190    -60.206
    278    C    -53.642    112.485    -60.016
    279    N    -52.771    112.937    -59.052
    280    H    -52.646    113.924    -58.896
    281    C    -52.040    112.134    -58.184
    282    O    -51.278    112.587    -57.328
    283    C    -52.266    110.765    -58.428
    284    N    -51.720    109.656    -57.804
    285    C    -52.349    108.650    -58.352
    286    H    -52.178    107.604    -58.111
    287    C    -53.517    107.690    -61.367
    288    H    -52.787    108.426    -61.736
    289    O    -54.502    107.444    -62.353
    290    H    -54.049    107.049    -63.114
    291    C    -52.810    106.405    -60.958
    292    H    -51.922    106.622    -60.325
    293    O    -52.496    105.496    -62.039
    294    P    -51.249    105.784    -62.964
    295    O    -51.247    104.794    -64.064
    296    O    -50.032    105.822    -62.122
    297    O    -51.548    107.202    -63.582
    298    C    -50.497    108.173    -63.771
    299    H    -49.849    107.867    -64.625
    300    H    -49.853    108.267    -62.864
    301    C    -51.080    109.555    -64.088
    302    H    -51.804    109.513    -64.931
    303    O    -51.783    110.065    -62.924
    304    C    -51.453    111.418    -62.713
    305    H    -52.408    111.973    -62.565
    306    N    -50.596    111.551    -61.537
    307    C    -49.347    112.392    -59.941
    308    N    -49.299    111.015    -59.785
    309    C    -50.063    110.559    -60.744
    310    H    -50.310    109.507    -60.912
    311    N    -48.888    114.699    -59.775
    312    C    -49.660    114.854    -60.843
    313    H    -49.754    115.885    -61.192
    314    N    -50.393    113.957    -61.494
    315    C    -50.138    112.728    -61.025
    316    C    -48.728    113.454    -59.252
    317    N    -47.992    113.298    -58.136
    318    H    -47.889    112.416    -57.670
    319    H    -47.595    114.124    -57.734
    320    C    -50.765    111.896    -63.966
    321    H    -50.048    112.727    -63.788
    322    O    -51.731    112.299    -64.924
    323    H    -51.297    112.311    -65.791
    324    C    -50.034    110.634    -64.384
    325    H    -49.182    110.434    -63.691
    326    O    -49.664    110.608    -65.775
    327    P    -48.178    110.922    -66.169
    328    O    -48.070    110.902    -67.644
    329    O    -47.298    109.990    -65.426
    330    O    -47.966    112.385    -65.629
    331    C    -48.602    113.502    -66.296
    332    H    -49.712    113.448    -66.218
    333    H    -48.335    113.518    -67.377
    334    C    -48.149    114.835    -65.691
    335    H    -48.612    115.691    -66.228
    336    O    -48.546    114.929    -64.291
    337    C    -47.521    115.620    -63.579
    338    H    -48.025    116.499    -63.118
    339    N    -46.886    114.806    -62.510
    340    C    -46.979    113.432    -62.535
    341    H    -47.565    113.008    -63.355
    342    C    -46.413    112.680    -61.581
    343    H    -46.502    111.595    -61.562
    344    C    -46.145    115.432    -61.507
    345    O    -46.014    116.666    -61.524
    346    N    -45.597    114.695    -60.524
    347    C    -45.700    113.354    -60.545
    348    N    -45.135    112.661    -59.561
    349    H    -44.729    113.189    -58.816
    350    H    -45.195    111.666    -59.498
    351    C    -46.518    116.111    -64.593
    352    H    -45.488    116.165    -64.186
    353    O    -46.913    117.378    -65.082
    354    H    -46.295    117.591    -65.792
    355    C    -46.629    115.038    -65.665
    356    H    -46.173    114.083    -65.318
    357    O    -46.170    115.428    -66.969
    358    P    -44.670    115.263    -67.395
    359    O    -44.544    115.746    -68.790
    360    O    -44.228    113.880    -67.127
    361    O    -43.894    116.208    -66.414
    362    C    -43.907    117.642    -66.548
    363    H    -44.943    118.055    -66.580
    364    H    -43.398    117.948    -67.494
    365    C    -43.150    118.291    -65.382
    366    H    -43.137    119.396    -65.482
    367    O    -43.774    117.983    -64.102
    368    C    -42.758    117.904    -63.104
    369    H    -43.000    118.666    -62.330
    370    N    -42.708    116.576    -62.476
    371    C    -42.176    116.278    -61.248
    372    N    -40.559    117.262    -58.342
    373    H    -40.454    118.242    -58.482
    374    H    -40.256    116.856    -57.477
    375    N    -41.593    117.150    -60.406
    376    C    -41.188    116.572    -59.275
    377    N    -41.383    115.247    -59.001
    378    H    -41.060    114.905    -58.110
    379    C    -41.967    114.319    -59.856
    380    O    -42.079    113.137    -59.518
    381    C    -42.355    114.919    -61.087
    382    N    -42.938    114.360    -62.221
    383    C    -43.129    115.384    -63.017
    384    H    -43.577    115.339    -64.013
    385    C    -41.439    118.248    -63.771
    386    H    -40.585    117.684    -63.336
    387    O    -41.204    119.644    -63.682
    388    H    -40.472    119.873    -64.279
    389    C    -41.712    117.806    -65.203
    390    H    -41.709    116.693    -65.284
    391    O    -40.841    118.402    -66.181
    392    H    -39.940    118.036    -66.093
 $END
