!*** FMO 5.3 (Gamess) INPUT generated by Facio 22.1.1.32 ***
 $CONTRL RUNTYP=ENERGY NPRINT=-5 ISPHER=1 MAXIT=200 $END
 $SYSTEM MWORDS=63 MEMDDI=63 $END
 $GDDI NGROUP=1 $END
 $SCF DIRSCF=.TRUE. NPUNCH=0 $END
!*** NumCPU : 2  MemPerNode : 512MB
 $PCM SOLVNT=WATER IEF=-10 ICOMP=2 ICAV=1 IDISP=1 IFMO=-1 $END
 $PCMCAV RADII=SUAHF $END
 $TESCAV NTSALL=60 $END
 $FMOPRP
    NAODIR=200
    NGRFMO(1)=1, 1, 0, 0, 0,   0, 0, 0, 0, 0
    IPIEDA=1
    NPRINT=9
 $END
 $FMO
      SCFTYP(1)=RHF
      MODGRD=10
      MODMUL=0
      MAXCAO=5
      MAXBND=12
      NLAYER=1
      MPLEVL(1)=2
      NFRAG=10
      ICHARG(1)=-1, -1, -1, -1, 0, -1, -1, -1, -1, 0
      FRGNAM(1)=F1, F2, F3, F4, F5, F6, F7, F8, F9, F10
      indat(1)=0
               1   -33   0
               34   -66   0
               67   -100   0
               101   -134   0
               135   -164   0
               165   -198   0
               199   -229   0
               230   -263   0
               264   -293   0
               294   -324   0
 $END

 $FMOBND
   -34   33       6-31G*    MINI
   -67   66       6-31G*    MINI
   -101   100       6-31G*    MINI
   -135   134       6-31G*    MINI
   -165   164       6-31G*    MINI
   -199   198       6-31G*    MINI
   -230   229       6-31G*    MINI
   -264   263       6-31G*    MINI
   -294   293       6-31G*    MINI
 $END
 $FMOHYB
 6-31G*      15   5
   1 0  -0.065034   0.288264   0.000000   0.000000   0.604412
         0.290129   0.000000   0.000000   0.319045  -0.017106
        -0.017106   0.057934   0.000000   0.000000   0.000000
   0 1  -0.065040   0.288293   0.569832   0.000000  -0.201456
         0.290147   0.300783   0.000000  -0.106342   0.049598
        -0.017106  -0.008771   0.000000  -0.027223   0.000000
   0 1  -0.065039   0.288293  -0.284916  -0.493490  -0.201455
         0.290145  -0.150392  -0.260486  -0.106340  -0.000427
         0.032923  -0.008771   0.033353   0.013612   0.023576
   0 1  -0.065039   0.288293  -0.284916   0.493490  -0.201455
         0.290145  -0.150392   0.260486  -0.106340  -0.000427
         0.032923  -0.008771  -0.033353   0.013612  -0.023576
   0 1   1.010938  -0.011975   0.000000   0.000000   0.000000
        -0.054085   0.000000   0.000000  -0.000000  -0.003174
        -0.003174  -0.003174   0.000000   0.000000   0.000000
 MINI         5   5
   1 0  -0.104883   0.308874   0.000000   0.000000   0.521806
   0 1  -0.104883   0.308874   0.491961   0.000000  -0.173934
   0 1  -0.104883   0.308876  -0.245980  -0.426050  -0.173933
   0 1  -0.104883   0.308876  -0.245980   0.426050  -0.173933
   0 1   0.988209   0.063992   0.000000   0.000000   0.000000
 $END
 
 $DATA
 FMO calculation
 C1 
 H.1-1    1
      N31 6
   
 O.1-1    8
      N31 6
      d 1
      1 0.800 1.0
   
 C.1-1    6
      N31 6
      d 1
      1 0.800 1.0
   
 N.1-1    7
      N31 6
      d 1
      1 0.800 1.0
   
 P.1-1   15
      N31 6
      d 1
      1 0.550 1.0
   
 $END
 $FMOXYZ
    1    H    -5.553    11.257    -6.601
    2    O    -4.605    11.183    -6.825
    3    C    -4.475    11.566    -8.201
    4    H    -4.813    12.622    -8.316
    5    H    -5.133    10.920    -8.823
    6    C    -3.040    11.452    -8.724
    7    H    -2.978    11.824    -9.768
    8    O    -2.121    12.253    -7.923
    9    C    -0.858    11.598    -7.888
    10    H    -0.129    12.312    -8.335
    11    N    -0.417    11.232    -6.515
    12    C    -1.336    11.109    -5.496
    13    H    -2.373    11.349    -5.748
    14    C    -0.958    10.754    -4.259
    15    H    -1.659    10.682    -3.431
    16    C    0.925    10.935    -6.275
    17    O    1.745    11.010    -7.203
    18    N    1.320    10.570    -5.038
    19    C    0.424    10.480    -4.041
    20    N    0.860    10.136    -2.832
    21    H    1.844    9.989    -2.708
    22    H    0.258    10.117    -2.032
    23    C    -0.957    10.370    -8.777
    24    H    -0.344    9.527    -8.399
    25    O    -0.571    10.683    -10.102
    26    H    -0.632    9.861    -10.603
    27    C    -2.443    10.038    -8.688
    28    H    -2.695    9.603    -7.693
    29    O    -2.971    9.259    -9.781
    30    P    -2.921    7.686    -9.764
    31    O    -3.520    7.189    -11.025
    32    O    -3.488    7.183    -8.492
    33    O    -1.388    7.332    -9.770
    34    C    -0.612    7.373    -10.988
    35    H    -0.771    8.325    -11.545
    36    H    -0.912    6.540    -11.665
    37    C    0.892    7.231    -10.700
    38    H    1.492    7.526    -11.587
    39    O    1.292    8.096    -9.602
    40    C    2.276    7.448    -8.824
    41    H    3.171    8.111    -8.853
    42    N    1.856    7.292    -7.422
    43    C    1.901    7.075    -5.231
    44    N    0.565    7.265    -5.577
    45    C    0.592    7.385    -6.886
    46    H    -0.281    7.552    -7.522
    47    N    3.900    6.703    -4.003
    48    C    4.516    6.645    -5.186
    49    H    5.594    6.464    -5.141
    50    N    4.023    6.852    -6.411
    51    C    2.698    7.062    -6.362
    52    C    2.563    6.924    -3.988
    53    N    1.967    6.991    -2.785
    54    H    0.991    7.198    -2.685
    55    H    2.549    7.024    -1.969
    56    C    2.609    6.135    -9.496
    57    H    2.825    5.337    -8.761
    58    O    3.716    6.306    -10.358
    59    H    3.840    5.468    -10.822
    60    C    1.339    5.825    -10.280
    61    H    0.541    5.436    -9.605
    62    O    1.545    4.999    -11.450
    63    P    1.341    3.441    -11.395
    64    O    1.656    2.879    -12.725
    65    O    -0.005    3.166    -10.852
    66    O    2.407    2.934    -10.357
    67    C    3.778    2.670    -10.739
    68    H    4.200    3.512    -11.338
    69    H    3.844    1.743    -11.356
    70    C    4.670    2.483    -9.501
    71    H    5.744    2.438    -9.785
    72    O    4.495    3.621    -8.617
    73    C    4.541    3.187    -7.273
    74    H    5.338    3.799    -6.788
    75    N    3.272    3.391    -6.564
    76    C    3.165    3.463    -5.204
    77    N    4.665    3.421    -2.104
    78    H    5.625    3.355    -2.360
    79    H    4.441    3.580    -1.141
    80    N    4.181    3.365    -4.337
    81    C    3.781    3.476    -3.078
    82    N    2.470    3.647    -2.710
    83    H    2.260    3.743    -1.731
    84    C    1.398    3.757    -3.589
    85    O    0.247    3.936    -3.180
    86    C    1.820    3.638    -4.945
    87    N    1.087    3.652    -6.132
    88    C    1.992    3.484    -7.069
    89    H    1.787    3.422    -8.141
    90    C    4.928    1.736    -7.273
    91    H    4.478    1.174    -6.427
    92    O    6.336    1.618    -7.223
    93    H    6.520    0.703    -6.954
    94    C    4.359    1.267    -8.609
    95    H    3.248    1.181    -8.562
    96    O    4.974    0.078    -9.145
    97    P    4.619    -1.331    -8.532
    98    O    5.187    -2.376    -9.413
    99    O    3.161    -1.390    -8.296
    100    O    5.348    -1.371    -7.133
    101    C    6.762    -1.658    -7.035
    102    H    7.353    -0.959    -7.670
    103    H    6.982    -2.694    -7.387
    104    C    7.268    -1.535    -5.585
    105    H    8.377    -1.528    -5.555
    106    O    6.804    -0.297    -4.977
    107    C    6.571    -0.519    -3.589
    108    H    7.237    0.191    -3.047
    109    N    5.178    -0.242    -3.199
    110    C    4.718    0.008    -1.927
    111    N    5.261    0.262    1.492
    112    H    6.217    -0.008    1.592
    113    H    4.732    0.512    2.307
    114    N    5.460    0.026    -0.802
    115    C    4.735    0.315    0.281
    116    N    3.404    0.636    0.227
    117    H    2.947    0.909    1.082
    118    C    2.621    0.656    -0.920
    119    O    1.426    0.965    -0.876
    120    C    3.365    0.259    -2.067
    121    N    2.969    0.116    -3.394
    122    C    4.081    -0.184    -4.028
    123    H    4.174    -0.373    -5.100
    124    C    6.986    -1.934    -3.276
    125    H    6.360    -2.395    -2.484
    126    O    8.345    -1.958    -2.884
    127    H    8.569    -2.887    -2.741
    128    C    6.788    -2.630    -4.620
    129    H    5.704    -2.788    -4.829
    130    O    7.577    -3.830    -4.801
    131    P    7.021    -5.200    -4.247
    132    O    8.031    -6.247    -4.512
    133    O    5.669    -5.418    -4.801
    134    O    6.891    -4.999    -2.690
    135    C    8.045    -5.125    -1.827
    136    H    8.867    -4.448    -2.146
    137    H    8.448    -6.165    -1.852
    138    C    7.696    -4.799    -0.366
    139    H    8.611    -4.768    0.262
    140    O    7.037    -3.507    -0.247
    141    C    6.084    -3.567    0.811
    142    H    6.417    -2.799    1.548
    143    N    4.695    -3.247    0.375
    144    C    4.311    -3.463    -0.930
    145    H    5.088    -3.830    -1.604
    146    C    3.062    -3.192    -1.340
    147    H    2.742    -3.328    -2.372
    148    C    3.751    -2.821    1.311
    149    O    4.077    -2.720    2.505
    150    N    2.497    -2.516    0.909
    151    C    2.137    -2.693    -0.374
    152    N    0.895    -2.377    -0.736
    153    H    0.283    -1.954    -0.063
    154    H    0.571    -2.482    -1.679
    155    C    6.186    -4.946    1.450
    156    H    5.194    -5.329    1.779
    157    O    7.079    -4.913    2.553
    158    H    7.229    -5.822    2.869
    159    C    6.717    -5.778    0.284
    160    H    5.906    -5.988    -0.449
    161    O    7.389    -6.994    0.658
    162    H    6.764    -7.588    1.112
    163    H    -6.462    1.747    7.042
    164    O    -5.503    1.558    7.002
    165    C    -5.077    1.308    8.350
    166    H    -5.767    0.574    8.826
    167    H    -5.139    2.255    8.931
    168    C    -3.647    0.760    8.452
    169    H    -3.423    0.452    9.495
    170    O    -3.475    -0.410    7.596
    171    C    -2.136    -0.431    7.118
    172    H    -1.685    -1.383    7.486
    173    N    -2.069    -0.410    5.648
    174    C    -0.988    -0.770    4.877
    175    N    2.316    -1.778    4.591
    176    H    2.617    -1.820    5.543
    177    H    2.962    -2.019    3.863
    178    N    0.210    -1.190    5.332
    179    C    1.061    -1.455    4.341
    180    N    0.711    -1.407    3.018
    181    H    1.392    -1.696    2.334
    182    C    -0.529    -1.026    2.521
    183    O    -0.759    -1.020    1.307
    184    C    -1.410    -0.636    3.568
    185    N    -2.712    -0.152    3.513
    186    C    -3.068    -0.031    4.773
    187    H    -4.042    0.317    5.133
    188    C    -1.406    0.735    7.744
    189    H    -0.635    1.170    7.076
    190    O    -0.814    0.323    8.961
    191    H    -0.454    1.117    9.377
    192    C    -2.541    1.719    7.992
    193    H    -2.895    2.178    7.040
    194    O    -2.272    2.697    9.019
    195    P    -1.547    4.042    8.637
    196    O    -1.475    4.876    9.858
    197    O    -2.249    4.641    7.481
    198    O    -0.108    3.626    8.160
    199    C    0.927    3.238    9.086
    200    H    0.580    2.421    9.755
    201    H    1.212    4.100    9.732
    202    C    2.184    2.738    8.353
    203    H    2.924    2.335    9.077
    204    O    1.851    1.662    7.425
    205    C    2.713    1.742    6.295
    206    H    3.269    0.774    6.273
    207    N    1.996    1.906    4.998
    208    C    0.731    2.446    4.965
    209    H    0.302    2.715    5.934
    210    C    0.065    2.584    3.809
    211    H    -0.953    2.962    3.766
    212    C    2.632    1.564    3.803
    213    O    3.790    1.118    3.830
    214    N    1.972    1.693    2.630
    215    C    0.721    2.177    2.608
    216    N    0.102    2.265    1.431
    217    H    0.565    1.900    0.621
    218    H    -0.847    2.572    1.338
    219    C    3.693    2.865    6.553
    220    H    3.986    3.400    5.630
    221    O    4.851    2.374    7.199
    222    H    5.453    3.131    7.198
    223    C    2.896    3.776    7.480
    224    H    2.099    4.307    6.909
    225    O    3.692    4.657    8.310
    226    P    4.110    6.065    7.740
    227    O    4.647    6.888    8.851
    228    O    2.955    6.615    6.991
    229    O    5.275    5.753    6.735
    230    C    6.553    5.236    7.162
    231    H    6.442    4.449    7.943
    232    H    7.166    6.055    7.597
    233    C    7.377    4.661    5.995
    234    H    8.298    4.178    6.391
    235    O    6.642    3.642    5.253
    236    C    7.136    3.614    3.921
    237    H    7.616    2.615    3.833
    238    N    6.125    3.733    2.850
    239    C    4.878    4.326    2.793
    240    N    2.229    5.938    4.342
    241    H    1.342    6.319    4.092
    242    H    2.620    6.154    5.245
    243    N    4.245    4.980    3.780
    244    C    3.014    5.349    3.456
    245    N    2.474    5.140    2.212
    246    H    1.556    5.499    2.017
    247    C    3.123    4.518    1.150
    248    O    2.601    4.354    0.043
    249    C    4.430    4.106    1.506
    250    N    5.388    3.455    0.749
    251    C    6.379    3.264    1.582
    252    H    7.319    2.768    1.328
    253    C    8.178    4.692    3.792
    254    H    8.120    5.225    2.821
    255    O    9.464    4.129    3.961
    256    H    10.082    4.870    3.946
    257    C    7.817    5.654    4.919
    258    H    6.917    6.256    4.658
    259    O    8.915    6.462    5.397
    260    P    9.293    7.804    4.661
    261    O    10.574    8.287    5.215
    262    O    8.141    8.730    4.731
    263    O    9.511    7.422    3.147
    264    C    10.772    6.892    2.676
    265    H    11.097    6.017    3.284
    266    H    11.577    7.660    2.753
    267    C    10.697    6.448    1.202
    268    H    11.622    5.896    0.925
    269    O    9.570    5.547    0.969
    270    C    9.070    5.758    -0.343
    271    H    9.156    4.774    -0.859
    272    N    7.650    6.233    -0.352
    273    C    7.125    6.970    0.687
    274    H    7.807    7.154    1.519
    275    C    6.886    5.953    -1.463
    276    O    7.325    5.311    -2.413
    277    N    5.599    6.429    -1.434
    278    H    5.051    6.290    -2.269
    279    C    4.992    7.122    -0.411
    280    O    3.801    7.420    -0.488
    281    C    5.855    7.406    0.700
    282    H    5.447    7.953    1.547
    283    C    10.003    6.754    -1.012
    284    H    9.472    7.389    -1.744
    285    O    11.075    6.090    -1.654
    286    H    11.678    6.780    -1.956
    287    C    10.501    7.569    0.179
    288    H    9.696    8.226    0.580
    289    O    11.749    8.270    -0.031
    290    P    11.715    9.727    -0.632
    291    O    13.103    10.244    -0.693
    292    O    10.739    10.539    0.127
    293    O    11.180    9.514    -2.099
    294    C    12.080    9.062    -3.140
    295    H    12.468    8.040    -2.923
    296    H    12.957    9.747    -3.233
    297    C    11.375    9.019    -4.506
    298    H    12.055    8.608    -5.286
    299    O    10.192    8.169    -4.452
    300    C    9.152    8.764    -5.226
    301    H    8.824    7.996    -5.962
    302    N    7.999    9.138    -4.380
    303    C    6.730    9.466    -4.789
    304    N    4.422    10.075    -7.307
    305    H    4.986    10.032    -8.131
    306    H    3.476    10.400    -7.372
    307    N    6.305    9.549    -6.063
    308    C    5.011    9.880    -6.141
    309    N    4.216    10.068    -5.039
    310    H    3.240    10.278    -5.178
    311    C    4.623    9.965    -3.715
    312    O    3.836    10.158    -2.782
    313    C    6.010    9.678    -3.624
    314    N    6.821    9.538    -2.507
    315    C    7.990    9.226    -3.006
    316    H    8.897    9.061    -2.427
    317    C    9.751    9.947    -5.966
    318    H    9.017    10.771    -6.121
    319    O    10.266    9.520    -7.219
    320    H    10.859    10.207    -7.566
    321    C    10.852    10.372    -5.000
    322    H    10.418    10.912    -4.130
    323    O    11.909    11.138    -5.606
    324    H    11.563    11.996    -5.908
 $END
