!*** FMO 5.3 (Gamess) INPUT generated by Facio 22.1.1.32 ***
 $CONTRL RUNTYP=ENERGY NPRINT=-5 ISPHER=1 MAXIT=200 $END
 $SYSTEM MWORDS=63 MEMDDI=63 $END
 $GDDI NGROUP=1 $END
 $SCF DIRSCF=.TRUE. NPUNCH=0 $END
!*** NumCPU : 2  MemPerNode : 512MB
 $PCM SOLVNT=WATER IEF=-10 ICOMP=2 ICAV=1 IDISP=1 IFMO=-1 $END
 $PCMCAV RADII=SUAHF $END
 $TESCAV NTSALL=60 $END
 $FMOPRP
    NAODIR=200
    NGRFMO(1)=1, 1, 0, 0, 0,   0, 0, 0, 0, 0
    IPIEDA=1
    NPRINT=9
 $END
 $FMO
      SCFTYP(1)=RHF
      MODGRD=10
      MODMUL=0
      MAXCAO=5
      MAXBND=12
      NLAYER=1
      MPLEVL(1)=2
      NFRAG=10
      ICHARG(1)=-1, -1, -1, -1, 0, -1, -1, -1, -1, 0
      FRGNAM(1)=F1, F2, F3, F4, F5, F6, F7, F8, F9, F10
      indat(1)=0
               1   -33   0
               34   -66   0
               67   -100   0
               101   -134   0
               135   -164   0
               165   -198   0
               199   -229   0
               230   -263   0
               264   -293   0
               294   -324   0
 $END

 $FMOBND
   -34   33       6-31G*    MINI
   -67   66       6-31G*    MINI
   -101   100       6-31G*    MINI
   -135   134       6-31G*    MINI
   -165   164       6-31G*    MINI
   -199   198       6-31G*    MINI
   -230   229       6-31G*    MINI
   -264   263       6-31G*    MINI
   -294   293       6-31G*    MINI
 $END
 $FMOHYB
 6-31G*      15   5
   1 0  -0.065034   0.288264   0.000000   0.000000   0.604412
         0.290129   0.000000   0.000000   0.319045  -0.017106
        -0.017106   0.057934   0.000000   0.000000   0.000000
   0 1  -0.065040   0.288293   0.569832   0.000000  -0.201456
         0.290147   0.300783   0.000000  -0.106342   0.049598
        -0.017106  -0.008771   0.000000  -0.027223   0.000000
   0 1  -0.065039   0.288293  -0.284916  -0.493490  -0.201455
         0.290145  -0.150392  -0.260486  -0.106340  -0.000427
         0.032923  -0.008771   0.033353   0.013612   0.023576
   0 1  -0.065039   0.288293  -0.284916   0.493490  -0.201455
         0.290145  -0.150392   0.260486  -0.106340  -0.000427
         0.032923  -0.008771  -0.033353   0.013612  -0.023576
   0 1   1.010938  -0.011975   0.000000   0.000000   0.000000
        -0.054085   0.000000   0.000000  -0.000000  -0.003174
        -0.003174  -0.003174   0.000000   0.000000   0.000000
 MINI         5   5
   1 0  -0.104883   0.308874   0.000000   0.000000   0.521806
   0 1  -0.104883   0.308874   0.491961   0.000000  -0.173934
   0 1  -0.104883   0.308876  -0.245980  -0.426050  -0.173933
   0 1  -0.104883   0.308876  -0.245980   0.426050  -0.173933
   0 1   0.988209   0.063992   0.000000   0.000000   0.000000
 $END
 
 $DATA
 FMO calculation
 C1 
 H.1-1    1
      N31 6
   
 O.1-1    8
      N31 6
      d 1
      1 0.800 1.0
   
 C.1-1    6
      N31 6
      d 1
      1 0.800 1.0
   
 N.1-1    7
      N31 6
      d 1
      1 0.800 1.0
   
 P.1-1   15
      N31 6
      d 1
      1 0.550 1.0
   
 $END
 $FMOXYZ
    1    H    -5.946    11.017    -6.667
    2    O    -5.027    10.963    -6.992
    3    C    -5.044    11.389    -8.363
    4    H    -5.469    12.416    -8.415
    5    H    -5.708    10.713    -8.947
    6    C    -3.656    11.380    -9.015
    7    H    -3.725    11.658    -10.088
    8    O    -2.781    12.356    -8.370
    9    C    -1.473    11.806    -8.264
    10    H    -0.790    12.532    -8.762
    11    N    -1.036    11.627    -6.851
    12    C    -1.964    11.589    -5.834
    13    H    -3.008    11.707    -6.126
    14    C    -1.592    11.459    -4.553
    15    H    -2.313    11.455    -3.736
    16    C    0.317    11.484    -6.554
    17    O    1.145    11.500    -7.476
    18    N    0.712    11.366    -5.266
    19    C    -0.200    11.352    -4.278
    20    N    0.221    11.240    -3.019
    21    H    1.199    11.117    -2.832
    22    H    -0.417    11.242    -2.247
    23    C    -1.463    10.514    -9.058
    24    H    -0.741    9.772    -8.658
    25    O    -1.167    10.794    -10.412
    26    H    -1.221    9.956    -10.886
    27    C    -2.907    10.044    -8.900
    28    H    -3.074    9.665    -7.865
    29    O    -3.392    9.125    -9.911
    30    P    -3.083    7.584    -9.748
    31    O    -3.555    7.118    -8.423
    32    O    -3.669    6.893    -10.921
    33    O    -1.518    7.487    -9.803
    34    C    -0.809    7.547    -11.062
    35    H    -0.885    8.554    -11.526
    36    H    -1.225    6.818    -11.795
    37    C    0.679    7.232    -10.854
    38    H    1.228    7.277    -11.817
    39    O    1.281    8.215    -9.959
    40    C    2.206    7.554    -9.102
    41    H    3.179    8.083    -9.230
    42    N    1.805    7.632    -7.697
    43    C    1.839    7.721    -5.502
    44    N    0.507    7.846    -5.874
    45    C    0.541    7.789    -7.183
    46    H    -0.330    7.868    -7.834
    47    N    3.824    7.552    -4.224
    48    C    4.460    7.368    -5.381
    49    H    5.537    7.207    -5.286
    50    N    3.977    7.393    -6.627
    51    C    2.646    7.572    -6.616
    52    C    2.479    7.728    -4.245
    53    N    1.823    7.880    -3.082
    54    H    0.822    7.949    -3.034
    55    H    2.342    7.886    -2.223
    56    C    2.351    6.125    -9.589
    57    H    2.564    5.404    -8.767
    58    O    3.367    6.043    -10.574
    59    H    3.352    5.131    -10.903
    60    C    0.973    5.878    -10.195
    61    H    0.215    5.738    -9.391
    62    O    0.917    4.832    -11.188
    63    P    0.877    3.334    -10.704
    64    O    0.061    3.270    -9.460
    65    O    0.448    2.500    -11.839
    66    O    2.382    2.995    -10.369
    67    C    2.646    1.928    -9.418
    68    H    2.308    0.944    -9.819
    69    H    2.094    2.093    -8.467
    70    C    4.148    1.810    -9.091
    71    H    4.711    1.572    -10.017
    72    O    4.692    3.073    -8.590
    73    C    5.562    2.806    -7.494
    74    H    6.504    3.357    -7.722
    75    N    5.034    3.273    -6.189
    76    C    3.743    3.609    -5.825
    77    N    0.419    4.003    -6.691
    78    H    -0.458    4.220    -6.261
    79    H    0.428    3.700    -7.648
    80    N    2.660    3.586    -6.614
    81    C    1.551    3.959    -6.010
    82    N    1.512    4.315    -4.688
    83    H    0.628    4.571    -4.285
    84    C    2.612    4.329    -3.831
    85    O    2.514    4.651    -2.643
    86    C    3.809    3.955    -4.496
    87    N    5.109    3.860    -4.023
    88    C    5.802    3.450    -5.059
    89    H    6.880    3.263    -5.057
    90    C    5.831    1.317    -7.486
    91    H    6.031    0.917    -6.469
    92    O    6.921    1.025    -8.340
    93    H    6.879    0.080    -8.550
    94    C    4.522    0.758    -8.032
    95    H    3.729    0.806    -7.250
    96    O    4.632    -0.550    -8.644
    97    P    4.339    -1.861    -7.819
    98    O    2.895    -1.883    -7.475
    99    O    4.844    -3.014    -8.596
    100    O    5.189    -1.702    -6.499
    101    C    6.612    -1.987    -6.501
    102    H    7.168    -1.236    -7.104
    103    H    6.835    -2.989    -6.938
    104    C    7.196    -1.957    -5.085
    105    H    8.280    -2.203    -5.095
    106    O    7.055    -0.619    -4.528
    107    C    6.748    -0.717    -3.145
    108    H    7.523    -0.129    -2.600
    109    N    5.420    -0.149    -2.853
    110    C    4.908    0.157    -1.619
    111    N    5.214    0.227    1.833
    112    H    6.123    -0.161    1.988
    113    H    4.660    0.486    2.628
    114    N    5.525    -0.031    -0.439
    115    C    4.785    0.372    0.593
    116    N    3.545    0.937    0.447
    117    H    3.046    1.197    1.283
    118    C    2.884    1.159    -0.758
    119    O    1.764    1.681    -0.792
    120    C    3.658    0.698    -1.858
    121    N    3.376    0.705    -3.217
    122    C    4.454    0.201    -3.770
    123    H    4.610    0.052    -4.841
    124    C    6.859    -2.180    -2.758
    125    H    6.159    -2.462    -1.948
    126    O    8.185    -2.469    -2.359
    127    H    8.248    -3.429    -2.266
    128    C    6.506    -2.872    -4.069
    129    H    5.411    -2.779    -4.264
    130    O    7.009    -4.226    -4.201
    131    P    6.018    -5.423    -3.960
    132    O    4.712    -5.110    -4.574
    133    O    6.671    -6.683    -4.376
    134    O    5.852    -5.428    -2.395
    135    C    6.958    -5.843    -1.561
    136    H    7.864    -5.224    -1.757
    137    H    7.213    -6.911    -1.758
    138    C    6.613    -5.710    -0.072
    139    H    7.454    -6.050    0.568
    140    O    6.369    -4.310    0.249
    141    C    5.290    -4.221    1.172
    142    H    5.692    -3.664    2.050
    143    N    4.123    -3.473    0.623
    144    C    3.982    -3.310    -0.734
    145    H    4.765    -3.745    -1.350
    146    C    2.958    -2.625    -1.259
    147    H    2.855    -2.464    -2.330
    148    C    3.155    -2.960    1.480
    149    O    3.267    -3.145    2.700
    150    N    2.112    -2.262    0.971
    151    C    1.997    -2.090    -0.357
    152    N    0.971    -1.386    -0.828
    153    H    0.297    -1.007    -0.189
    154    H    0.848    -1.213    -1.806
    155    C    4.938    -5.635    1.605
    156    H    3.854    -5.753    1.820
    157    O    5.705    -5.987    2.747
    158    H    5.611    -6.943    2.896
    159    C    5.339    -6.440    0.372
    160    H    4.576    -6.326    -0.429
    161    O    5.608    -7.832    0.632
    162    H    4.778    -8.295    0.843
    163    H    -6.182    3.482    6.161
    164    O    -5.359    2.969    6.263
    165    C    -5.343    2.490    7.617
    166    H    -6.249    1.865    7.788
    167    H    -5.386    3.359    8.311
    168    C    -4.102    1.656    7.959
    169    H    -4.107    1.362    9.030
    170    O    -4.088    0.432    7.167
    171    C    -2.750    0.129    6.801
    172    H    -2.533    -0.903    7.156
    173    N    -2.563    0.193    5.344
    174    C    -1.531    -0.363    4.640
    175    N    1.449    -2.124    4.554
    176    H    1.618    -2.337    5.515
    177    H    2.096    -2.455    3.861
    178    N    -0.507    -1.061    5.161
    179    C    0.350    -1.473    4.227
    180    N    0.156    -1.264    2.886
    181    H    0.837    -1.635    2.243
    182    C    -0.903    -0.568    2.318
    183    O    -0.998    -0.427    1.095
    184    C    -1.785    -0.068    3.313
    185    N    -2.940    0.694    3.188
    186    C    -3.368    0.829    4.423
    187    H    -4.277    1.355    4.730
    188    C    -1.852    1.107    7.524
    189    H    -0.934    1.339    6.949
    190    O    -1.496    0.601    8.796
    191    H    -0.945    1.277    9.211
    192    C    -2.756    2.327    7.644
    193    H    -2.871    2.828    6.654
    194    O    -2.401    3.242    8.706
    195    P    -1.424    4.436    8.377
    196    O    -1.881    5.088    7.130
    197    O    -1.345    5.298    9.580
    198    O    -0.039    3.752    8.094
    199    C    0.724    3.114    9.139
    200    H    0.111    2.375    9.702
    201    H    1.078    3.866    9.878
    202    C    1.953    2.387    8.568
    203    H    2.510    1.872    9.376
    204    O    1.539    1.371    7.607
    205    C    2.487    1.315    6.544
    206    H    2.850    0.260    6.516
    207    N    1.904    1.666    5.215
    208    C    0.740    2.394    5.134
    209    H    0.279    2.657    6.084
    210    C    0.192    2.712    3.952
    211    H    -0.758    3.238    3.874
    212    C    2.581    1.326    4.048
    213    O    3.674    0.746    4.131
    214    N    2.035    1.612    2.844
    215    C    0.871    2.280    2.777
    216    N    0.343    2.521    1.580
    217    H    0.824    2.216    0.756
    218    H    -0.542    2.975    1.465
    219    C    3.639    2.217    6.926
    220    H    4.127    2.681    6.047
    221    O    4.596    1.493    7.675
    222    H    5.223    2.148    8.007
    223    C    2.945    3.262    7.788
    224    H    2.341    3.956    7.157
    225    O    3.822    3.944    8.708
    226    P    4.477    5.313    8.308
    227    O    3.438    6.190    7.720
    228    O    5.177    5.868    9.487
    229    O    5.504    4.945    7.173
    230    C    6.703    4.180    7.410
    231    H    6.489    3.248    7.979
    232    H    7.424    4.774    8.018
    233    C    7.393    3.786    6.092
    234    H    8.294    3.167    6.295
    235    O    6.498    2.976    5.278
    236    C    6.639    3.336    3.912
    237    H    6.873    2.399    3.357
    238    N    5.401    3.905    3.367
    239    C    5.075    3.998    2.040
    240    N    5.856    3.518    -1.294
    241    H    6.783    3.149    -1.233
    242    H    5.458    3.702    -2.199
    243    N    5.836    3.588    1.007
    244    C    5.251    3.825    -0.168
    245    N    3.996    4.364    -0.293
    246    H    3.594    4.473    -1.212
    247    C    3.175    4.751    0.758
    248    O    2.048    5.218    0.571
    249    C    3.819    4.574    2.010
    250    N    3.377    4.862    3.294
    251    C    4.349    4.450    4.068
    252    H    4.357    4.514    5.157
    253    C    7.804    4.296    3.805
    254    H    7.665    5.051    2.999
    255    O    9.001    3.575    3.577
    256    H    9.716    4.229    3.600
    257    C    7.806    4.958    5.184
    258    H    6.994    5.717    5.252
    259    O    9.086    5.477    5.613
    260    P    9.575    6.872    5.073
    261    O    8.471    7.845    5.220
    262    O    10.851    7.215    5.741
    263    O    9.857    6.630    3.538
    264    C    9.870    7.787    2.661
    265    H    10.668    8.501    2.965
    266    H    8.898    8.332    2.706
    267    C    10.123    7.419    1.189
    268    H    11.149    7.017    1.058
    269    O    9.186    6.392    0.749
    270    C    8.727    6.695    -0.564
    271    H    8.897    5.776    -1.168
    272    N    7.275    7.058    -0.575
    273    C    6.604    7.337    0.598
    274    H    7.201    7.294    1.512
    275    C    6.616    7.086    -1.789
    276    O    7.173    6.836    -2.848
    277    N    5.282    7.411    -1.711
    278    H    4.790    7.458    -2.597
    279    C    4.550    7.699    -0.580
    280    O    3.350    7.950    -0.663
    281    C    5.299    7.643    0.638
    282    H    4.783    7.839    1.573
    283    C    9.612    7.814    -1.091
    284    H    9.092    8.461    -1.828
    285    O    10.792    7.288    -1.674
    286    H    11.386    8.034    -1.826
    287    C    9.913    8.570    0.193
    288    H    9.001    9.113    0.532
    289    O    11.090    9.402    0.138
    290    P    10.930    10.959    -0.010
    291    O    9.854    11.434    0.887
    292    O    12.257    11.591    0.162
    293    O    10.470    11.129    -1.506
    294    C    11.421    10.857    -2.565
    295    H    11.802    9.811    -2.501
    296    H    12.302    11.546    -2.497
    297    C    10.762    11.029    -3.940
    298    H    11.498    10.864    -4.759
    299    O    9.716    10.024    -4.108
    300    C    8.615    10.610    -4.793
    301    H    8.417    9.978    -5.687
    302    N    7.403    10.636    -3.959
    303    C    6.117    10.776    -4.409
    304    N    3.867    11.192    -7.006
    305    H    4.468    11.241    -7.803
    306    H    2.878    11.309    -7.130
    307    N    5.740    10.924    -5.694
    308    C    4.419    11.024    -5.820
    309    N    3.556    11.002    -4.755
    310    H    2.571    11.105    -4.939
    311    C    3.916    10.868    -3.420
    312    O    3.066    10.871    -2.524
    313    C    5.325    10.753    -3.274
    314    N    6.103    10.606    -2.130
    315    C    7.330    10.540    -2.588
    316    H    8.228    10.427    -1.978
    317    C    9.029    12.002    -5.240
    318    H    8.177    12.713    -5.232
    319    O    9.599    11.953    -6.539
    320    H    10.001    12.818    -6.735
    321    C    10.054    12.372    -4.173
    322    H    9.538    12.668    -3.233
    323    O    10.995    13.385    -4.577
    324    H    10.551    14.254    -4.629
 $END
