!*** FMO 5.3 (Gamess) INPUT generated by Facio 22.1.1.32 ***
 $CONTRL RUNTYP=ENERGY NPRINT=-5 ISPHER=1 MAXIT=200 $END
 $SYSTEM MWORDS=63 MEMDDI=63 $END
 $GDDI NGROUP=1 $END
 $SCF DIRSCF=.TRUE. NPUNCH=0 $END
!*** NumCPU : 2  MemPerNode : 512MB
 $PCM SOLVNT=WATER IEF=-10 ICOMP=2 ICAV=1 IDISP=1 IFMO=-1 $END
 $PCMCAV RADII=SUAHF $END
 $TESCAV NTSALL=60 $END
 $FMOPRP
    NAODIR=200
    NGRFMO(1)=1, 1, 0, 0, 0,   0, 0, 0, 0, 0
    IPIEDA=1
    NPRINT=9
 $END
 $FMO
      SCFTYP(1)=RHF
      MODGRD=10
      MODMUL=0
      MAXCAO=5
      MAXBND=10
      NLAYER=1
      MPLEVL(1)=2
      NFRAG=8
      ICHARG(1)=-1, -1, -1, -1, -1, -1, -1, 0
      FRGNAM(1)=F1, F2, F3, F4, F5, F6, F7, F8
      indat(1)=0
               1   -36   0
               37   -67   0
               68   -97   0
               98   -128   0
               129   -161   0
               162   -192   0
               193   -226   0
               227   -254   0
 $END

 $FMOBND
   -37   36       6-31G*    MINI
   -68   67       6-31G*    MINI
   -98   97       6-31G*    MINI
   -129   128       6-31G*    MINI
   -162   161       6-31G*    MINI
   -193   192       6-31G*    MINI
   -227   226       6-31G*    MINI
 $END
 $FMOHYB
 6-31G*      15   5
   1 0  -0.065034   0.288264   0.000000   0.000000   0.604412
         0.290129   0.000000   0.000000   0.319045  -0.017106
        -0.017106   0.057934   0.000000   0.000000   0.000000
   0 1  -0.065040   0.288293   0.569832   0.000000  -0.201456
         0.290147   0.300783   0.000000  -0.106342   0.049598
        -0.017106  -0.008771   0.000000  -0.027223   0.000000
   0 1  -0.065039   0.288293  -0.284916  -0.493490  -0.201455
         0.290145  -0.150392  -0.260486  -0.106340  -0.000427
         0.032923  -0.008771   0.033353   0.013612   0.023576
   0 1  -0.065039   0.288293  -0.284916   0.493490  -0.201455
         0.290145  -0.150392   0.260486  -0.106340  -0.000427
         0.032923  -0.008771  -0.033353   0.013612  -0.023576
   0 1   1.010938  -0.011975   0.000000   0.000000   0.000000
        -0.054085   0.000000   0.000000  -0.000000  -0.003174
        -0.003174  -0.003174   0.000000   0.000000   0.000000
 MINI         5   5
   1 0  -0.104883   0.308874   0.000000   0.000000   0.521806
   0 1  -0.104883   0.308874   0.491961   0.000000  -0.173934
   0 1  -0.104883   0.308876  -0.245980  -0.426050  -0.173933
   0 1  -0.104883   0.308876  -0.245980   0.426050  -0.173933
   0 1   0.988209   0.063992   0.000000   0.000000   0.000000
 $END
 
 $DATA
 FMO calculation
 C1 
 H.1-1    1
      N31 6
   
 O.1-1    8
      N31 6
      d 1
      1 0.800 1.0
   
 C.1-1    6
      N31 6
      d 1
      1 0.800 1.0
   
 N.1-1    7
      N31 6
      d 1
      1 0.800 1.0
   
 P.1-1   15
      N31 6
      d 1
      1 0.550 1.0
   
 $END
 $FMOXYZ
    1    H    -5.290    -7.441    7.465
    2    O    -5.600    -6.593    7.830
    3    C    -5.521    -6.706    9.259
    4    H    -4.473    -6.943    9.555
    5    H    -6.170    -7.544    9.593
    6    C    -5.955    -5.431    9.985
    7    H    -5.904    -5.570    11.087
    8    O    -5.049    -4.336    9.645
    9    C    -5.799    -3.134    9.539
    10    H    -5.332    -2.400    10.238
    11    N    -5.754    -2.589    8.174
    12    C    -6.077    -1.310    7.808
    13    N    -7.125    1.878    8.645
    14    H    -7.274    1.810    9.627
    15    H    -7.285    2.756    8.186
    16    N    -6.501    -0.338    8.633
    17    C    -6.693    0.815    7.998
    18    N    -6.454    0.985    6.659
    19    H    -6.619    1.896    6.261
    20    C    -6.005    0.005    5.783
    21    O    -5.814    0.244    4.586
    22    C    -5.834    -1.240    6.449
    23    N    -5.409    -2.468    5.959
    24    C    -5.372    -3.241    7.021
    25    H    -5.070    -4.292    7.035
    26    C    -7.208    -3.434    9.995
    27    H    -7.965    -2.807    9.484
    28    O    -7.303    -3.247    11.393
    29    H    -8.189    -3.530    11.647
    30    C    -7.354    -4.905    9.624
    31    H    -7.468    -5.022    8.521
    32    O    -8.359    -5.623    10.373
    33    P    -9.829    -5.736    9.822
    34    O    -9.772    -6.249    8.434
    35    O    -10.627    -6.533    10.777
    36    O    -10.364    -4.248    9.822
    37    C    -10.661    -3.612    11.096
    38    H    -9.785    -3.634    11.779
    39    H    -11.501    -4.135    11.615
    40    C    -11.077    -2.145    10.918
    41    H    -11.309    -1.675    11.897
    42    O    -9.994    -1.384    10.318
    43    C    -10.545    -0.430    9.415
    44    H    -10.178    0.554    9.782
    45    N    -10.085    -0.605    8.012
    46    C    -9.589    -1.817    7.598
    47    H    -9.572    -2.605    8.350
    48    C    -9.131    -1.995    6.352
    49    H    -8.696    -2.937    6.020
    50    C    -10.175    0.451    7.107
    51    O    -10.646    1.534    7.479
    52    N    -9.734    0.281    5.839
    53    C    -9.213    -0.894    5.453
    54    N    -8.759    -1.019    4.208
    55    H    -8.787    -0.228    3.591
    56    H    -8.319    -1.857    3.883
    57    C    -12.055    -0.478    9.552
    58    H    -12.576    -0.268    8.593
    59    O    -12.492    0.436    10.547
    60    H    -13.443    0.285    10.663
    61    C    -12.272    -1.926    9.985
    62    H    -12.134    -2.611    9.119
    63    O    -13.497    -2.193    10.700
    64    P    -14.840    -2.345    9.884
    65    O    -14.634    -3.385    8.849
    66    O    -15.930    -2.569    10.855
    67    O    -15.066    -0.949    9.186
    68    C    -15.804    -0.927    7.940
    69    H    -16.874    -1.188    8.114
    70    H    -15.386    -1.656    7.202
    71    C    -15.752    0.463    7.299
    72    H    -16.118    1.237    8.006
    73    O    -14.390    0.809    6.944
    74    C    -14.386    1.526    5.721
    75    H    -13.891    2.500    5.937
    76    N    -13.619    0.793    4.666
    77    C    -13.180    -0.500    4.870
    78    H    -13.466    -0.965    5.818
    79    C    -13.309    1.466    3.505
    80    O    -13.660    2.620    3.309
    81    N    -12.568    0.751    2.592
    82    H    -12.347    1.241    1.726
    83    C    -12.068    -0.527    2.752
    84    O    -11.374    -1.041    1.880
    85    C    -12.430    -1.162    3.981
    86    H    -12.082    -2.175    4.169
    87    C    -15.844    1.781    5.341
    88    H    -15.995    1.767    4.244
    89    O    -16.291    3.019    5.870
    90    H    -17.233    3.104    5.658
    91    C    -16.539    0.598    5.999
    92    H    -16.334    -0.323    5.407
    93    O    -17.932    0.792    6.311
    94    P    -19.077    0.277    5.376
    95    O    -20.252    -0.052    6.219
    96    O    -19.295    1.262    4.302
    97    O    -18.535    -1.058    4.746
    98    C    -18.348    -2.262    5.524
    99    H    -18.943    -2.267    6.469
    100    H    -17.274    -2.353    5.799
    101    C    -18.728    -3.508    4.717
    102    H    -18.378    -4.434    5.223
    103    O    -20.176    -3.595    4.634
    104    C    -20.548    -4.074    3.348
    105    H    -21.148    -4.993    3.539
    106    N    -21.381    -3.102    2.590
    107    C    -21.383    -1.773    2.949
    108    H    -20.730    -1.499    3.779
    109    C    -22.170    -0.886    2.328
    110    H    -22.215    0.160    2.622
    111    C    -22.170    -3.535    1.525
    112    O    -22.174    -4.740    1.225
    113    N    -22.935    -2.639    0.852
    114    C    -22.971    -1.354    1.247
    115    N    -23.778    -0.510    0.607
    116    H    -24.322    -0.850    -0.158
    117    H    -23.807    0.465    0.825
    118    C    -19.277    -4.457    2.611
    119    H    -19.341    -4.269    1.516
    120    O    -18.967    -5.821    2.839
    121    H    -18.073    -5.977    2.494
    122    C    -18.256    -3.531    3.256
    123    H    -18.389    -2.501    2.854
    124    O    -16.896    -3.999    3.190
    125    P    -15.875    -3.488    2.109
    126    O    -14.517    -3.583    2.691
    127    O    -16.080    -4.218    0.835
    128    O    -16.240    -1.980    1.866
    129    C    -15.258    -1.017    1.419
    130    H    -14.244    -1.455    1.268
    131    H    -15.162    -0.245    2.214
    132    C    -15.678    -0.301    0.121
    133    H    -15.749    -1.010    -0.728
    134    O    -16.992    0.292    0.303
    135    C    -17.051    1.545    -0.345
    136    H    -17.893    1.482    -1.071
    137    N    -17.325    2.617    0.615
    138    C    -17.946    4.517    1.529
    139    N    -17.543    3.696    2.573
    140    C    -17.200    2.579    1.984
    141    H    -16.866    1.670    2.491
    142    N    -18.846    6.324    0.284
    143    C    -18.605    5.587    -0.804
    144    H    -18.883    6.053    -1.756
    145    N    -18.121    4.343    -0.897
    146    C    -17.817    3.861    0.319
    147    C    -18.497    5.817    1.496
    148    N    -18.718    6.563    2.594
    149    H    -18.504    6.226    3.514
    150    H    -19.063    7.498    2.491
    151    C    -15.749    1.745    -1.099
    152    H    -15.419    2.808    -1.113
    153    O    -15.880    1.268    -2.426
    154    H    -15.004    1.327    -2.840
    155    C    -14.781    0.885    -0.290
    156    H    -14.512    1.408    0.657
    157    O    -13.621    0.413    -1.027
    158    P    -12.374    1.377    -1.159
    159    O    -12.205    2.068    0.136
    160    O    -11.220    0.611    -1.671
    161    O    -12.790    2.415    -2.271
    162    C    -12.004    3.620    -2.497
    163    H    -11.196    3.419    -3.238
    164    H    -11.506    3.966    -1.559
    165    C    -12.853    4.803    -3.023
    166    H    -13.006    4.720    -4.121
    167    O    -14.176    4.759    -2.412
    168    C    -14.561    6.052    -1.995
    169    H    -15.583    6.207    -2.413
    170    N    -14.619    6.166    -0.512
    171    C    -13.927    5.282    0.292
    172    H    -13.330    4.517    -0.213
    173    C    -13.998    5.360    1.626
    174    H    -13.449    4.683    2.275
    175    C    -15.379    7.180    0.067
    176    O    -15.991    7.967    -0.672
    177    N    -15.440    7.284    1.413
    178    C    -14.795    6.398    2.188
    179    N    -14.882    6.519    3.511
    180    H    -14.449    5.865    4.126
    181    H    -15.457    7.238    3.899
    182    C    -13.603    7.046    -2.632
    183    H    -13.460    7.957    -2.013
    184    O    -14.060    7.402    -3.929
    185    H    -13.338    7.873    -4.382
    186    C    -12.326    6.223    -2.696
    187    H    -11.870    6.158    -1.681
    188    O    -11.406    6.682    -3.708
    189    P    -10.023    7.326    -3.336
    190    O    -9.164    6.264    -2.765
    191    O    -9.498    8.042    -4.521
    192    O    -10.352    8.410    -2.238
    193    C    -9.417    8.644    -1.144
    194    H    -8.931    9.638    -1.260
    195    H    -8.581    7.901    -1.103
    196    C    -10.119    8.622    0.218
    197    H    -10.759    9.520    0.352
    198    O    -10.992    7.462    0.301
    199    C    -10.882    6.878    1.579
    200    H    -11.912    6.792    1.984
    201    N    -10.277    5.543    1.497
    202    C    -10.288    4.611    2.495
    203    N    -11.139    3.683    5.719
    204    H    -11.614    4.490    6.063
    205    H    -11.002    2.897    6.329
    206    N    -10.837    4.771    3.711
    207    C    -10.686    3.696    4.479
    208    N    -10.047    2.559    4.060
    209    H    -9.960    1.795    4.711
    210    C    -9.491    2.357    2.805
    211    O    -8.940    1.290    2.517
    212    C    -9.622    3.514    1.986
    213    N    -9.182    3.760    0.688
    214    C    -9.605    4.976    0.432
    215    H    -9.476    5.510    -0.514
    216    C    -10.089    7.825    2.451
    217    H    -9.512    7.296    3.236
    218    O    -10.957    8.760    3.061
    219    H    -10.401    9.437    3.469
    220    C    -9.179    8.482    1.426
    221    H    -8.390    7.756    1.110
    222    O    -8.658    9.779    1.821
    223    P    -7.153    9.867    2.289
    224    O    -6.327    8.975    1.449
    225    O    -6.743    11.285    2.344
    226    O    -7.201    9.289    3.753
    227    C    -7.948    9.988    4.779
    228    H    -9.006    10.156    4.472
    229    H    -7.492    10.986    4.981
    230    C    -7.960    9.200    6.095
    231    H    -8.438    9.787    6.908
    232    O    -8.742    7.984    5.924
    233    C    -8.119    6.924    6.641
    234    H    -8.899    6.527    7.333
    235    N    -7.659    5.825    5.747
    236    C    -7.438    6.068    4.410
    237    H    -7.655    7.077    4.066
    238    C    -7.019    5.104    3.581
    239    H    -6.870    5.273    2.517
    240    C    -7.388    4.566    6.272
    241    O    -7.524    4.373    7.490
    242    N    -6.978    3.574    5.447
    243    C    -6.784    3.817    4.138
    244    N    -6.382    2.823    3.349
    245    H    -6.242    1.909    3.736
    246    H    -6.294    2.937    2.361
    247    C    -6.983    7.523    7.459
    248    H    -6.132    6.817    7.573
    249    O    -7.463    7.917    8.737
    250    H    -6.782    8.446    9.193
    251    C    -6.589    8.714    6.592
    252    H    -5.991    8.375    5.717
    253    O    -5.900    9.762    7.298
    254    H    -5.038    9.436    7.602
 $END
