!*** FMO 5.2 (Gamess) INPUT generated by Facio 21.1.1.32 ***
 $CONTRL RUNTYP=OPTFMO NPRINT=-5 ISPHER=-1 MAXIT=50 $END
 $SYSTEM MWORDS=29 $END
 $GDDI NGROUP=1 $END
 $INTGRL NINTIC=-9000000 $END
 $SCF DIRSCF=.FALSE. NPUNCH=0 $END
!*** NumCPU : 2  MemPerNode : 512MB
 $FMOPRP
    NAODIR=210
    NGRFMO(1)=1, 1, 0, 0, 0,   0, 0, 0, 0, 0
    NPRINT=9
 $END
 $FMO
      SCFTYP(1)=RHF
      MODGRD=10
      MODMUL=0
      MAXCAO=5
      MAXBND=34
      NLAYER=1
      NFRAG=32
      ICHARG(1)=-1, -1, -1, -1, -1, -1, -1, -1, -1, -1, 
-1, -1, -1, -1, -1, -1, -1, -1, -1, -1, 
-1, -1, -1, -1, -1, -1, -1, -1, -1, -1, 
-1, 0
      FRGNAM(1)=Frag1, Frag2, Frag3, Frag4, Frag5, Frag6, Frag7, Frag8, Frag9, Frag10, Frag11, Frag12, Frag13, Frag14, Frag15, Frag16, Frag17, Frag18, Frag19, Frag20, Frag21, Frag22, Frag23, Frag24, Frag25, Frag26, Frag27, Frag28, Frag29, Frag30, Frag31, Frag32
      indat(1)=0
               1   -36   0
               37   -69   0
               70   -103   0
               104   -134   0
               135   -167   0
               168   -201   0
               202   -231   0
               232   -261   0
               262   -292   0
               293   -323   0
               324   -354   0
               355   -385   0
               386   -415   0
               416   -449   0
               450   -480   0
               481   -513   0
               514   -543   0
               544   -576   0
               577   -609   0
               610   -643   0
               644   -677   0
               678   -710   0
               711   -740   0
               741   -774   0
               775   -807   0
               808   -840   0
               841   -871   0
               872   -902   0
               903   -936   0
               937   -966   0
               967   -996   0
               997   -1024   0
 $END

 $FMOBND
   -37   36       3-21G    MINI
   -70   69       3-21G    MINI
   -104   103       3-21G    MINI
   -135   134       3-21G    MINI
   -168   167       3-21G    MINI
   -202   201       3-21G    MINI
   -232   231       3-21G    MINI
   -262   261       3-21G    MINI
   -293   292       3-21G    MINI
   -324   323       3-21G    MINI
   -355   354       3-21G    MINI
   -386   385       3-21G    MINI
   -416   415       3-21G    MINI
   -450   449       3-21G    MINI
   -481   480       3-21G    MINI
   -514   513       3-21G    MINI
   -544   543       3-21G    MINI
   -577   576       3-21G    MINI
   -610   609       3-21G    MINI
   -644   643       3-21G    MINI
   -678   677       3-21G    MINI
   -711   710       3-21G    MINI
   -741   740       3-21G    MINI
   -775   774       3-21G    MINI
   -808   807       3-21G    MINI
   -841   840       3-21G    MINI
   -872   871       3-21G    MINI
   -903   902       3-21G    MINI
   -937   936       3-21G    MINI
   -967   966       3-21G    MINI
   -997   996       3-21G    MINI
 $END
 $FMOHYB
 3-21G        9   5
   1 0  -0.070459   0.164841   0.000000   0.000000   0.502116
         0.466939   0.000000   0.000000   0.418036
   0 1  -0.070465   0.164857   0.473392   0.000000  -0.167359
         0.466967   0.394111   0.000000  -0.139327
   0 1  -0.070465   0.164857  -0.236695  -0.409969  -0.167359
         0.466967  -0.197055  -0.341311  -0.139327
   0 1  -0.070465   0.164857  -0.236695   0.409969  -0.167359
         0.466967  -0.197055   0.341311  -0.139327
   0 1   1.006716   0.074826   0.000000   0.000000   0.000000
        -0.143830   0.000000   0.000000  -0.000003
 MINI         5   5
   1 0  -0.104883   0.308874   0.000000   0.000000   0.521806
   0 1  -0.104883   0.308874   0.491961   0.000000  -0.173934
   0 1  -0.104883   0.308876  -0.245980  -0.426050  -0.173933
   0 1  -0.104883   0.308876  -0.245980   0.426050  -0.173933
   0 1   0.988209   0.063992   0.000000   0.000000   0.000000
 $END

 $DATA
 FMO calculation : XXNAMEXX
 C1 
 C.1-1    6
      N21 3
   
 O.1-1    8
      N21 3
   
 N.1-1    7
      N21 3
   
 H.1-1    1
      N21 3
   
 P.1-1   15
      N21 3
   
 $END
 $FMOXYZ
    1    H    6.948    -20.640    -1.812
    2    O    6.200    -20.460    -2.451
    3    C    6.515    -21.054    -3.717
    4    H    6.548    -22.048    -3.611
    5    H    7.317    -20.597    -4.101
    6    C    5.410    -20.815    -4.744
    7    H    5.717    -21.152    -5.634
    8    O    4.218    -21.485    -4.385
    9    C    3.153    -20.868    -5.137
    10    H    3.037    -21.413    -5.967
    11    N    1.944    -20.877    -4.283
    12    C    0.641    -20.787    -4.717
    13    N    -1.662    -20.544    -7.302
    14    H    -2.650    -20.482    -7.501
    15    H    -1.041    -20.545    -8.099
    16    N    0.236    -20.699    -6.006
    17    C    -1.092    -20.623    -6.108
    18    N    -1.944    -20.633    -5.033
    19    H    -2.954    -20.571    -5.228
    20    C    -1.558    -20.720    -3.710
    21    O    -2.406    -20.717    -2.822
    22    C    -0.143    -20.802    -3.584
    23    N    0.649    -20.904    -2.443
    24    C    1.855    -20.943    -2.921
    25    H    2.503    -21.017    -2.163
    26    C    3.626    -19.464    -5.525
    27    H    3.024    -18.804    -5.076
    28    O    3.674    -19.287    -6.946
    29    H    3.010    -19.776    -7.438
    30    C    5.022    -19.352    -4.923
    31    H    4.952    -18.921    -4.023
    32    O    5.928    -18.726    -5.854
    33    P    6.217    -17.133    -5.901
    34    O    7.249    -16.773    -6.905
    35    O    6.428    -16.769    -4.485
    36    O    4.822    -16.504    -6.404
    37    C    4.382    -16.697    -7.752
    38    H    4.374    -17.676    -7.955
    39    H    4.908    -16.098    -8.355
    40    C    2.937    -16.259    -7.954
    41    H    2.701    -16.349    -8.922
    42    O    2.043    -17.085    -7.172
    43    C    0.800    -16.357    -7.119
    44    H    0.276    -16.621    -7.929
    45    N    0.110    -16.726    -5.866
    46    C    -1.441    -17.224    -4.391
    47    N    -0.232    -17.233    -3.701
    48    C    0.634    -16.932    -4.621
    49    H    1.547    -16.911    -4.214
    50    N    -3.718    -17.368    -4.926
    51    C    -3.401    -17.059    -6.184
    52    H    -4.070    -16.974    -6.922
    53    N    -2.186    -16.817    -6.670
    54    C    -1.245    -16.917    -5.708
    55    C    -2.758    -17.460    -3.991
    56    N    -3.089    -17.772    -2.741
    57    H    -4.061    -17.935    -2.518
    58    H    -2.361    -17.839    -2.044
    59    C    1.153    -14.872    -7.217
    60    H    1.010    -14.473    -6.311
    61    O    0.413    -14.219    -8.253
    62    H    -0.467    -14.572    -8.407
    63    C    2.637    -14.823    -7.551
    64    H    3.144    -14.606    -6.717
    65    O    2.874    -13.941    -8.666
    66    P    2.719    -12.333    -8.553
    67    O    3.292    -11.650    -9.738
    68    O    3.231    -12.003    -7.208
    69    O    1.130    -12.066    -8.574
    70    C    0.368    -12.220    -9.778
    71    H    0.520    -13.138    -10.144
    72    H    0.547    -11.441    -10.378
    73    C    -1.131    -12.160    -9.518
    74    H    -1.667    -12.287    -10.352
    75    O    -1.486    -13.176    -8.577
    76    C    -2.825    -12.911    -8.105
    77    H    -3.472    -13.442    -8.652
    78    N    -2.871    -13.260    -6.670
    79    C    -3.995    -13.297    -5.879
    80    N    -7.426    -12.925    -5.505
    81    H    -8.175    -12.980    -4.830
    82    H    -7.686    -12.675    -6.448
    83    N    -5.261    -13.033    -6.282
    84    C    -6.138    -13.145    -5.286
    85    N    -5.800    -13.492    -4.003
    86    H    -6.562    -13.555    -3.313
    87    C    -4.518    -13.764    -3.564
    88    O    -4.326    -14.062    -2.389
    89    C    -3.568    -13.646    -4.617
    90    N    -2.188    -13.833    -4.604
    91    C    -1.845    -13.592    -5.832
    92    H    -0.855    -13.703    -5.921
    93    C    -2.990    -11.423    -8.442
    94    H    -3.297    -10.969    -7.605
    95    O    -3.874    -11.223    -9.550
    96    H    -4.569    -11.880    -9.638
    97    C    -1.609    -10.902    -8.810
    98    H    -1.050    -10.756    -7.994
    99    O    -1.690    -9.745    -9.665
    100    P    -1.541    -8.220    -9.125
    101    O    -1.647    -7.220    -10.212
    102    O    -0.331    -8.222    -8.279
    103    O    -2.816    -7.999    -8.168
    104    C    -4.123    -7.838    -8.728
    105    H    -4.328    -8.626    -9.308
    106    H    -4.193    -6.927    -9.134
    107    C    -5.221    -7.859    -7.671
    108    H    -6.108    -7.671    -8.092
    109    O    -5.271    -9.138    -7.030
    110    C    -5.904    -8.947    -5.753
    111    H    -6.826    -9.325    -5.832
    112    N    -5.087    -9.644    -4.740
    113    C    -3.755    -9.865    -4.940
    114    H    -3.175    -9.654    -5.727
    115    C    -3.007    -10.454    -3.991
    116    H    -2.040    -10.703    -3.935
    117    C    -5.712    -10.021    -3.563
    118    O    -6.915    -9.827    -3.411
    119    N    -4.963    -10.615    -2.597
    120    C    -3.655    -10.833    -2.779
    121    N    -2.942    -11.385    -1.803
    122    H    -3.404    -11.630    -0.939
    123    H    -1.954    -11.558    -1.921
    124    C    -6.003    -7.434    -5.518
    125    H    -5.665    -7.234    -4.598
    126    O    -7.331    -6.946    -5.744
    127    H    -8.033    -7.555    -5.502
    128    C    -5.029    -6.866    -6.538
    129    H    -4.094    -6.945    -6.191
    130    O    -5.471    -5.565    -6.972
    131    P    -5.121    -4.202    -6.185
    132    O    -5.660    -3.017    -6.902
    133    O    -3.666    -4.340    -5.970
    134    O    -5.876    -4.299    -4.763
    135    C    -7.298    -4.144    -4.673
    136    H    -7.739    -4.862    -5.212
    137    H    -7.535    -3.194    -4.875
    138    C    -7.798    -4.371    -3.251
    139    H    -8.780    -4.191    -3.197
    140    O    -7.540    -5.748    -2.814
    141    C    -7.576    -5.714    -1.375
    142    H    -8.452    -6.113    -1.103
    143    N    -6.425    -6.504    -0.893
    144    C    -5.111    -7.766    0.333
    145    N    -4.438    -7.559    -0.869
    146    C    -5.260    -6.811    -1.541
    147    H    -4.857    -6.603    -2.432
    148    N    -5.671    -8.478    2.492
    149    C    -6.821    -7.815    2.371
    150    H    -7.521    -7.777    3.084
    151    N    -7.233    -7.109    1.320
    152    C    -6.319    -7.128    0.330
    153    C    -4.783    -8.479    1.489
    154    N    -3.643    -9.148    1.629
    155    H    -3.469    -9.644    2.492
    156    H    -2.977    -9.145    0.870
    157    C    -7.546    -4.238    -0.952
    158    H    -6.838    -4.129    -0.254
    159    O    -8.836    -3.780    -0.525
    160    H    -9.374    -4.440    -0.082
    161    C    -7.113    -3.509    -2.213
    162    H    -6.123    -3.587    -2.327
    163    O    -7.741    -2.216    -2.260
    164    P    -7.169    -0.976    -1.421
    165    O    -8.071    0.203    -1.554
    166    O    -5.810    -0.988    -1.993
    167    O    -7.120    -1.431    0.131
    168    C    -8.317    -1.521    0.910
    169    H    -9.015    -2.003    0.380
    170    H    -8.543    -0.614    1.266
    171    C    -8.105    -2.383    2.149
    172    H    -8.967    -2.628    2.592
    173    O    -7.425    -3.569    1.777
    174    C    -6.848    -4.139    2.966
    175    H    -7.443    -4.886    3.262
    176    N    -5.489    -4.604    2.618
    177    C    -4.647    -5.330    3.428
    178    N    -3.986    -6.896    6.456
    179    H    -3.288    -7.427    6.956
    180    H    -4.844    -6.700    6.952
    181    N    -4.912    -5.738    4.691
    182    C    -3.898    -6.428    5.219
    183    N    -2.727    -6.692    4.558
    184    H    -2.010    -7.233    5.062
    185    C    -2.432    -6.290    3.268
    186    O    -1.354    -6.590    2.763
    187    C    -3.504    -5.552    2.693
    188    N    -3.613    -4.971    1.432
    189    C    -4.794    -4.434    1.455
    190    H    -4.964    -3.984    0.578
    191    C    -6.899    -3.016    4.010
    192    H    -5.990    -2.930    4.418
    193    O    -7.929    -3.235    4.982
    194    H    -8.095    -4.156    5.196
    195    C    -7.193    -1.770    3.190
    196    H    -6.359    -1.448    2.743
    197    O    -7.963    -0.853    3.984
    198    P    -7.242    0.265    4.885
    199    O    -8.277    1.128    5.509
    200    O    -6.266    0.804    3.915
    201    O    -6.450    -0.522    6.054
    202    C    -7.145    -1.100    7.167
    203    H    -7.843    -1.729    6.824
    204    H    -7.436    -0.369    7.784
    205    C    -6.220    -1.972    8.010
    206    H    -6.687    -2.387    8.791
    207    O    -5.698    -2.992    7.194
    208    C    -4.410    -3.395    7.701
    209    H    -4.495    -4.333    8.037
    210    N    -3.435    -3.266    6.592
    211    C    -3.709    -2.475    5.509
    212    H    -4.523    -1.930    5.309
    213    C    -2.241    -3.955    6.696
    214    O    -1.971    -4.667    7.656
    215    N    -1.357    -3.790    5.650
    216    H    -0.460    -4.293    5.710
    217    C    -1.554    -3.015    4.526
    218    O    -0.689    -2.944    3.660
    219    C    -2.825    -2.332    4.497
    220    H    -2.887    -1.796    3.655
    221    C    -4.153    -2.466    8.882
    222    H    -3.186    -2.211    8.882
    223    O    -4.582    -3.038    10.121
    224    H    -4.475    -3.990    10.187
    225    C    -4.985    -1.247    8.532
    226    H    -4.563    -0.740    7.780
    227    O    -5.207    -0.428    9.691
    228    P    -4.285    0.878    9.941
    229    O    -4.792    1.637    11.103
    230    O    -4.170    1.553    8.633
    231    O    -2.821    0.334    10.332
    232    C    -2.598    -0.345    11.575
    233    H    -3.222    -1.124    11.637
    234    H    -2.608    0.324    12.318
    235    C    -1.217    -0.980    11.681
    236    H    -1.090    -1.474    12.541
    237    O    -1.081    -1.890    10.601
    238    C    0.324    -2.070    10.310
    239    H    0.581    -2.989    10.609
    240    N    0.502    -1.887    8.847
    241    C    -0.446    -1.238    8.104
    242    H    -1.323    -0.850    8.388
    243    C    1.667    -2.362    8.271
    244    O    2.528    -2.951    8.915
    245    N    1.807    -2.137    6.919
    246    H    2.668    -2.483    6.472
    247    C    0.905    -1.492    6.099
    248    O    1.144    -1.344    4.905
    249    C    -0.283    -1.032    6.778
    250    H    -0.882    -0.581    6.116
    251    C    1.043    -1.036    11.195
    252    H    1.750    -0.594    10.643
    253    O    1.567    -1.646    12.373
    254    H    1.863    -2.553    12.263
    255    C    -0.044    -0.016    11.520
    256    H    -0.214    0.574    10.731
    257    O    0.234    1.095    12.433
    258    P    0.582    2.626    12.071
    259    O    0.648    3.520    13.247
    260    O    -0.049    3.309    10.933
    261    O    2.105    2.542    11.590
    262    C    3.036    1.935    12.470
    263    H    2.663    1.063    12.787
    264    H    3.316    2.603    13.159
    265    C    4.348    1.538    11.811
    266    H    4.972    1.047    12.419
    267    O    4.031    0.690    10.672
    268    C    5.135    0.668    9.747
    269    H    5.636    -0.190    9.857
    270    N    4.580    0.815    8.378
    271    C    3.333    1.336    8.179
    272    H    2.653    1.656    8.838
    273    C    2.843    1.487    6.937
    274    H    1.977    1.838    6.580
    275    C    5.377    0.427    7.310
    276    O    6.500    -0.035    7.509
    277    N    4.889    0.576    6.051
    278    C    3.668    1.087    5.844
    279    N    3.223    1.226    4.600
    280    H    3.817    0.942    3.834
    281    H    2.306    1.609    4.420
    282    C    6.004    1.828    10.276
    283    H    6.287    2.363    9.480
    284    O    7.114    1.328    11.027
    285    H    7.440    0.470    10.745
    286    C    5.103    2.684    11.154
    287    H    4.465    3.218    10.599
    288    O    5.560    3.907    11.810
    289    P    5.295    5.447    11.398
    290    O    5.876    6.370    12.392
    291    O    4.065    6.014    10.864
    292    O    6.243    5.583    10.122
    293    C    7.569    5.129    10.273
    294    H    7.560    4.252    10.754
    295    H    8.124    5.867    10.655
    296    C    8.256    4.809    8.956
    297    H    9.171    4.417    9.049
    298    O    7.431    3.897    8.231
    299    C    7.646    4.086    6.818
    300    H    8.071    3.256    6.456
    301    N    6.320    4.353    6.208
    302    C    5.265    4.741    6.982
    303    H    5.215    4.901    7.968
    304    C    4.058    4.972    6.439
    305    H    3.177    5.254    6.820
    306    C    6.183    4.191    4.833
    307    O    7.147    3.852    4.152
    308    N    4.961    4.423    4.274
    309    C    3.921    4.802    5.029
    310    N    2.740    5.016    4.458
    311    H    2.650    4.888    3.460
    312    H    1.944    5.302    5.010
    313    C    8.658    5.236    6.749
    314    H    8.447    5.810    5.958
    315    O    10.003    4.758    6.747
    316    H    10.139    3.934    6.274
    317    C    8.331    6.001    8.016
    318    H    7.426    6.422    7.951
    319    O    9.097    7.173    8.342
    320    P    8.555    8.680    8.118
    321    O    9.467    9.609    8.803
    322    O    7.146    9.070    8.189
    323    O    8.883    8.775    6.564
    324    C    10.203    8.439    6.188
    325    H    10.427    7.537    6.558
    326    H    10.810    9.202    6.412
    327    C    10.380    8.267    4.687
    328    H    11.322    8.057    4.424
    329    O    9.519    7.218    4.220
    330    C    9.157    7.513    2.858
    331    H    9.546    6.790    2.288
    332    N    7.676    7.549    2.800
    333    C    6.941    7.751    3.932
    334    H    7.237    7.902    4.875
    335    C    5.598    7.769    3.887
    336    H    4.891    7.897    4.582
    337    C    7.064    7.357    1.566
    338    O    7.742    7.187    0.556
    339    N    5.702    7.375    1.511
    340    C    4.973    7.572    2.619
    341    N    3.645    7.587    2.533
    342    H    3.213    7.449    1.631
    343    H    3.077    7.734    3.355
    344    C    9.840    8.840    2.515
    345    H    9.233    9.391    1.943
    346    O    11.133    8.650    1.935
    347    H    11.207    7.893    1.350
    348    C    9.922    9.466    3.894
    349    H    9.008    9.730    4.202
    350    O    10.894    10.503    3.950
    351    P    10.356    12.013    3.899
    352    O    11.517    12.862    4.226
    353    O    9.059    12.202    4.601
    354    O    10.079    12.051    2.320
    355    C    11.155    11.765    1.421
    356    H    11.519    10.857    1.627
    357    H    11.792    12.536    1.420
    358    C    10.666    11.667    -0.018
    359    H    11.403    11.474    -0.666
    360    O    9.669    10.641    -0.125
    361    C    8.789    10.968    -1.215
    362    H    8.975    10.312    -1.946
    363    N    7.406    10.866    -0.698
    364    C    7.162    10.950    0.640
    365    H    7.792    11.095    1.403
    366    C    5.913    10.833    1.120
    367    H    5.528    10.862    2.042
    368    C    6.377    10.661    -1.609
    369    O    6.615    10.599    -2.813
    370    N    5.108    10.542    -1.130
    371    C    4.859    10.621    0.183
    372    N    3.613    10.492    0.624
    373    H    2.872    10.336    -0.045
    374    H    3.407    10.549    1.611
    375    C    9.187    12.367    -1.688
    376    H    8.357    12.907    -1.827
    377    O    10.012    12.328    -2.855
    378    H    9.812    11.617    -3.469
    379    C    9.940    12.916    -0.483
    380    H    9.286    13.194    0.221
    381    O    10.850    13.962    -0.825
    382    P    10.437    15.477    -0.475
    383    O    11.571    16.366    -0.797
    384    O    9.771    15.593    0.843
    385    O    9.320    15.644    -1.609
    386    C    9.692    15.432    -2.974
    387    H    10.140    14.541    -3.055
    388    H    10.185    16.236    -3.306
    389    C    8.484    15.329    -3.890
    390    H    8.759    15.129    -4.830
    391    O    7.620    14.309    -3.437
    392    C    6.320    14.591    -3.985
    393    H    6.208    13.986    -4.773
    394    N    5.322    14.313    -2.927
    395    C    5.688    14.281    -1.609
    396    H    6.588    14.415    -1.194
    397    C    4.014    14.096    -3.317
    398    O    3.662    14.119    -4.493
    399    N    3.112    13.856    -2.302
    400    H    2.131    13.698    -2.572
    401    C    3.395    13.806    -0.954
    402    O    2.507    13.574    -0.139
    403    C    4.784    14.042    -0.633
    404    H    4.902    13.993    0.359
    405    C    6.329    16.043    -4.469
    406    H    5.569    16.522    -4.031
    407    O    6.273    16.130    -5.896
    408    H    5.767    15.436    -6.325
    409    C    7.642    16.594    -3.926
    410    H    7.504    16.920    -2.991
    411    O    8.189    17.699    -4.672
    412    P    8.158    19.209    -4.100
    413    O    8.709    20.121    -5.119
    414    O    8.653    19.387    -2.721
    415    O    6.584    19.500    -4.033
    416    C    5.804    19.466    -5.227
    417    H    6.015    18.628    -5.730
    418    H    5.904    20.338    -5.706
    419    C    4.306    19.365    -4.956
    420    H    3.781    19.449    -5.803
    421    O    4.013    18.114    -4.352
    422    C    2.867    18.264    -3.488
    423    H    2.126    17.723    -3.886
    424    N    3.250    17.806    -2.136
    425    C    2.398    17.341    -1.157
    426    N    -0.793    16.466    -0.104
    427    H    -1.316    16.114    0.685
    428    H    -1.320    16.659    -0.944
    429    N    1.062    17.170    -1.278
    430    C    0.511    16.702    -0.156
    431    N    1.219    16.430    0.987
    432    H    0.692    16.074    1.798
    433    C    2.583    16.596    1.135
    434    O    3.117    16.323    2.203
    435    C    3.182    17.091    -0.053
    436    N    4.514    17.391    -0.324
    437    C    4.482    17.801    -1.552
    438    H    5.409    18.043    -1.839
    439    C    2.488    19.737    -3.540
    440    H    2.266    20.037    -2.612
    441    O    1.423    19.981    -4.465
    442    H    0.778    19.273    -4.536
    443    C    3.777    20.414    -3.985
    444    H    4.405    20.486    -3.210
    445    O    3.558    21.736    -4.504
    446    P    3.853    23.023    -3.573
    447    O    3.555    24.242    -4.346
    448    O    5.188    22.921    -2.951
    449    O    2.792    22.947    -2.364
    450    C    2.924    23.679    -1.142
    451    H    2.832    24.656    -1.336
    452    H    3.748    23.372    -0.666
    453    C    1.789    23.381    -0.162
    454    H    1.999    23.762    0.739
    455    O    0.600    23.991    -0.658
    456    C    -0.399    22.996    -0.941
    457    H    -1.212    23.265    -0.425
    458    N    -0.637    23.009    -2.404
    459    C    0.368    22.725    -3.285
    460    H    1.322    22.477    -3.118
    461    C    0.149    22.754    -4.611
    462    H    0.732    22.584    -5.406
    463    C    -1.912    23.332    -2.847
    464    O    -2.803    23.578    -2.038
    465    N    -2.141    23.363    -4.190
    466    C    -1.162    23.088    -5.060
    467    N    -1.418    23.133    -6.365
    468    H    -2.349    23.375    -6.672
    469    H    -0.695    22.929    -7.040
    470    C    0.104    21.647    -0.413
    471    H    0.128    21.015    -1.188
    472    O    -0.694    21.158    0.670
    473    H    -1.621    21.407    0.635
    474    C    1.529    21.897    0.067
    475    H    2.137    21.365    -0.522
    476    O    1.629    21.636    1.476
    477    P    1.550    20.127    2.052
    478    O    2.218    20.097    3.375
    479    O    2.026    19.250    0.960
    480    O    -0.030    19.847    2.278
    481    C    -0.800    20.554    3.276
    482    H    -0.819    21.527    3.044
    483    H    -0.471    20.295    4.184
    484    C    -2.282    20.148    3.289
    485    H    -2.740    20.548    4.083
    486    O    -2.891    20.650    2.099
    487    C    -3.604    19.609    1.425
    488    H    -4.572    19.763    1.625
    489    N    -3.331    19.712    -0.022
    490    C    -3.575    20.046    -2.176
    491    N    -2.211    19.857    -1.964
    492    C    -2.140    19.663    -0.683
    493    H    -1.185    19.510    -0.429
    494    N    -5.654    20.425    -3.183
    495    C    -6.214    20.312    -1.979
    496    H    -7.197    20.392    -1.811
    497    N    -5.595    20.081    -0.824
    498    C    -4.263    19.956    -1.001
    499    C    -4.327    20.299    -3.326
    500    N    -3.780    20.460    -4.528
    501    H    -4.378    20.675    -5.313
    502    H    -2.780    20.363    -4.628
    503    C    -3.184    18.281    2.017
    504    H    -2.486    17.891    1.417
    505    O    -4.308    17.423    2.215
    506    H    -5.013    17.524    1.572
    507    C    -2.549    18.628    3.356
    508    H    -1.675    18.146    3.409
    509    O    -3.458    18.257    4.410
    510    P    -3.877    16.718    4.731
    511    O    -4.212    16.599    6.165
    512    O    -2.868    15.785    4.184
    513    O    -5.243    16.459    3.911
    514    C    -6.420    15.890    4.514
    515    H    -6.695    16.457    5.290
    516    H    -6.264    14.916    4.678
    517    C    -7.627    15.927    3.571
    518    H    -8.375    15.378    3.943
    519    O    -8.067    17.288    3.439
    520    C    -8.123    17.641    2.052
    521    H    -9.064    17.493    1.748
    522    N    -7.749    19.082    1.900
    523    C    -6.944    19.695    2.831
    524    H    -6.542    19.321    3.667
    525    C    -8.219    19.787    0.792
    526    O    -8.932    19.284    -0.067
    527    N    -7.825    21.105    0.700
    528    H    -8.166    21.638    -0.113
    529    C    -7.019    21.785    1.587
    530    O    -6.728    22.961    1.389
    531    C    -6.574    20.992    2.706
    532    H    -5.998    21.557    3.297
    533    C    -7.200    16.649    1.325
    534    H    -6.258    16.976    1.394
    535    O    -7.606    16.453    -0.037
    536    H    -7.975    17.229    -0.466
    537    C    -7.353    15.382    2.176
    538    H    -6.477    14.900    2.181
    539    O    -8.517    14.668    1.728
    540    P    -8.396    13.457    0.672
    541    O    -9.736    12.832    0.523
    542    O    -7.243    12.670    1.163
    543    O    -7.997    14.168    -0.729
    544    C    -8.940    14.968    -1.461
    545    H    -9.173    15.775    -0.918
    546    H    -9.687    14.383    -1.776
    547    C    -8.313    15.525    -2.740
    548    H    -9.002    16.013    -3.276
    549    O    -7.221    16.426    -2.445
    550    C    -6.468    16.549    -3.651
    551    H    -6.792    17.382    -4.099
    552    N    -5.045    16.654    -3.289
    553    C    -2.902    17.107    -3.349
    554    N    -3.146    16.554    -2.092
    555    C    -4.422    16.312    -2.123
    556    H    -4.698    15.908    -1.251
    557    N    -1.856    18.062    -5.214
    558    C    -3.039    18.068    -5.825
    559    H    -3.186    18.410    -6.753
    560    N    -4.194    17.638    -5.335
    561    C    -4.050    17.168    -4.080
    562    C    -1.744    17.587    -3.964
    563    N    -0.556    17.589    -3.375
    564    H    0.241    17.949    -3.881
    565    H    -0.475    17.231    -2.434
    566    C    -6.798    15.343    -4.541
    567    H    -5.949    14.854    -4.739
    568    O    -7.492    15.743    -5.731
    569    H    -7.234    16.598    -6.083
    570    C    -7.673    14.475    -3.631
    571    H    -7.085    13.889    -3.073
    572    O    -8.673    13.852    -4.443
    573    P    -8.375    12.378    -5.004
    574    O    -9.498    11.997    -5.897
    575    O    -8.086    11.633    -3.760
    576    O    -7.016    12.491    -5.884
    577    C    -7.009    13.186    -7.138
    578    H    -7.374    14.107    -7.002
    579    H    -7.439    12.609    -7.832
    580    C    -5.597    13.422    -7.675
    581    H    -5.649    13.842    -8.581
    582    O    -4.863    14.307    -6.784
    583    C    -3.459    13.984    -6.899
    584    H    -3.025    14.775    -7.331
    585    N    -2.938    13.745    -5.538
    586    C    -1.611    13.534    -3.803
    587    N    -2.892    13.217    -3.355
    588    C    -3.617    13.357    -4.419
    589    H    -4.568    13.143    -4.195
    590    N    0.696    13.927    -3.898
    591    C    0.552    14.221    -5.192
    592    H    1.307    14.488    -5.791
    593    N    -0.576    14.213    -5.895
    594    C    -1.628    13.856    -5.129
    595    C    -0.371    13.578    -3.162
    596    N    -0.217    13.310    -1.869
    597    H    0.705    13.374    -1.462
    598    H    -1.026    13.048    -1.323
    599    C    -3.326    12.769    -7.831
    600    H    -2.688    12.117    -7.421
    601    O    -2.949    13.156    -9.152
    602    H    -2.355    13.908    -9.200
    603    C    -4.729    12.179    -7.794
    604    H    -4.827    11.633    -6.962
    605    O    -5.009    11.289    -8.893
    606    P    -4.799    9.693    -8.748
    607    O    -5.282    9.041    -9.976
    608    O    -5.225    9.084    -7.475
    609    O    -3.202    9.568    -8.765
    610    C    -2.465    10.202    -9.811
    611    H    -2.744    11.161    -9.871
    612    H    -2.527    9.643    -10.638
    613    C    -0.970    10.274    -9.532
    614    H    -0.478    10.696    -10.294
    615    O    -0.735    11.050    -8.332
    616    C    0.551    10.649    -7.813
    617    H    1.194    11.377    -8.051