!*** FMO 5.2 (Gamess) INPUT generated by Facio 21.1.1.32 ***
 $CONTRL RUNTYP=OPTFMO NPRINT=-5 ISPHER=-1 MAXIT=50 $END
 $SYSTEM MWORDS=29 $END
 $GDDI NGROUP=1 $END
 $INTGRL NINTIC=-9000000 $END
 $SCF DIRSCF=.FALSE. NPUNCH=0 $END
!*** NumCPU : 2  MemPerNode : 512MB
 $FMOPRP
    NAODIR=210
    NGRFMO(1)=1, 1, 0, 0, 0,   0, 0, 0, 0, 0
    NPRINT=9
 $END
 $FMO
      SCFTYP(1)=RHF
      MODGRD=10
      MODMUL=0
      MAXCAO=5
      MAXBND=34
      NLAYER=1
      NFRAG=32
      ICHARG(1)=-1, -1, -1, -1, -1, -1, -1, -1, -1, -1, 
-1, -1, -1, -1, -1, -1, -1, -1, -1, -1, 
-1, -1, -1, -1, -1, -1, -1, -1, -1, -1, 
-1, 0
      FRGNAM(1)=Frag1, Frag2, Frag3, Frag4, Frag5, Frag6, Frag7, Frag8, Frag9, Frag10, Frag11, Frag12, Frag13, Frag14, Frag15, Frag16, Frag17, Frag18, Frag19, Frag20, Frag21, Frag22, Frag23, Frag24, Frag25, Frag26, Frag27, Frag28, Frag29, Frag30, Frag31, Frag32
      indat(1)=0
               1   -36   0
               37   -69   0
               70   -103   0
               104   -134   0
               135   -167   0
               168   -201   0
               202   -231   0
               232   -261   0
               262   -292   0
               293   -323   0
               324   -354   0
               355   -385   0
               386   -415   0
               416   -449   0
               450   -480   0
               481   -513   0
               514   -543   0
               544   -576   0
               577   -609   0
               610   -643   0
               644   -677   0
               678   -710   0
               711   -740   0
               741   -774   0
               775   -807   0
               808   -840   0
               841   -871   0
               872   -902   0
               903   -936   0
               937   -966   0
               967   -996   0
               997   -1024   0
 $END

 $FMOBND
   -37   36       3-21G    MINI
   -70   69       3-21G    MINI
   -104   103       3-21G    MINI
   -135   134       3-21G    MINI
   -168   167       3-21G    MINI
   -202   201       3-21G    MINI
   -232   231       3-21G    MINI
   -262   261       3-21G    MINI
   -293   292       3-21G    MINI
   -324   323       3-21G    MINI
   -355   354       3-21G    MINI
   -386   385       3-21G    MINI
   -416   415       3-21G    MINI
   -450   449       3-21G    MINI
   -481   480       3-21G    MINI
   -514   513       3-21G    MINI
   -544   543       3-21G    MINI
   -577   576       3-21G    MINI
   -610   609       3-21G    MINI
   -644   643       3-21G    MINI
   -678   677       3-21G    MINI
   -711   710       3-21G    MINI
   -741   740       3-21G    MINI
   -775   774       3-21G    MINI
   -808   807       3-21G    MINI
   -841   840       3-21G    MINI
   -872   871       3-21G    MINI
   -903   902       3-21G    MINI
   -937   936       3-21G    MINI
   -967   966       3-21G    MINI
   -997   996       3-21G    MINI
 $END
 $FMOHYB
 3-21G        9   5
   1 0  -0.070459   0.164841   0.000000   0.000000   0.502116
         0.466939   0.000000   0.000000   0.418036
   0 1  -0.070465   0.164857   0.473392   0.000000  -0.167359
         0.466967   0.394111   0.000000  -0.139327
   0 1  -0.070465   0.164857  -0.236695  -0.409969  -0.167359
         0.466967  -0.197055  -0.341311  -0.139327
   0 1  -0.070465   0.164857  -0.236695   0.409969  -0.167359
         0.466967  -0.197055   0.341311  -0.139327
   0 1   1.006716   0.074826   0.000000   0.000000   0.000000
        -0.143830   0.000000   0.000000  -0.000003
 MINI         5   5
   1 0  -0.104883   0.308874   0.000000   0.000000   0.521806
   0 1  -0.104883   0.308874   0.491961   0.000000  -0.173934
   0 1  -0.104883   0.308876  -0.245980  -0.426050  -0.173933
   0 1  -0.104883   0.308876  -0.245980   0.426050  -0.173933
   0 1   0.988209   0.063992   0.000000   0.000000   0.000000
 $END

 $DATA
 FMO calculation : XXNAMEXX
 C1 
 C.1-1    6
      N21 3
   
 O.1-1    8
      N21 3
   
 N.1-1    7
      N21 3
   
 H.1-1    1
      N21 3
   
 P.1-1   15
      N21 3
   
 $END
 $FMOXYZ
    1    H    6.068    -26.302    -0.308
    2    O    5.299    -26.107    -0.917
    3    C    5.327    -27.029    -2.014
    4    H    5.171    -27.954    -1.666
    5    H    6.151    -26.865    -2.556
    6    C    4.177    -26.790    -2.989
    7    H    4.291    -27.381    -3.787
    8    O    2.924    -27.059    -2.393
    9    C    1.926    -26.400    -3.199
    10    H    1.599    -27.078    -3.858
    11    N    0.857    -25.935    -2.288
    12    C    -0.443    -25.647    -2.639
    13    N    -2.946    -25.472    -5.036
    14    H    -3.917    -25.231    -5.175
    15    H    -2.442    -25.797    -5.849
    16    N    -0.976    -25.763    -3.878
    17    C    -2.262    -25.408    -3.902
    18    N    -2.959    -24.977    -2.803
    19    H    -3.950    -24.729    -2.937
    20    C    -2.439    -24.849    -1.529
    21    O    -3.152    -24.450    -0.613
    22    C    -1.067    -25.224    -1.486
    23    N    -0.179    -25.245    -0.413
    24    C    0.924    -25.668    -0.949
    25    H    1.631    -25.715    -0.244
    26    C    2.625    -25.267    -3.955
    27    H    2.236    -24.400    -3.644
    28    O    2.537    -25.433    -5.376
    29    H    1.729    -25.848    -5.686
    30    C    4.071    -25.357    -3.488
    31    H    4.194    -24.733    -2.716
    32    O    4.986    -25.102    -4.568
    33    P    5.578    -23.608    -4.762
    34    O    6.576    -23.684    -5.857
    35    O    5.980    -22.950    -3.483
    36    O    4.299    -22.805    -5.330
    37    C    3.694    -23.237    -6.554
    38    H    3.476    -24.210    -6.484
    39    H    4.262    -22.938    -7.321
    40    C    2.348    -22.570    -6.804
    41    H    2.001    -22.846    -7.700
    42    O    1.391    -22.954    -5.790
    43    C    0.326    -21.987    -5.883
    44    H    -0.315    -22.330    -6.569
    45    N    -0.297    -21.868    -4.550
    46    C    -1.764    -21.630    -2.932
    47    N    -0.519    -21.723    -2.316
    48    C    0.296    -21.858    -3.318
    49    H    1.231    -21.930    -2.970
    50    N    -4.066    -21.413    -3.311
    51    C    -3.819    -21.509    -4.619
    52    H    -4.527    -21.473    -5.325
    53    N    -2.633    -21.664    -5.202
    54    C    -1.641    -21.717    -4.289
    55    C    -3.056    -21.469    -2.427
    56    N    -3.319    -21.375    -1.127
    57    H    -4.277    -21.263    -0.828
    58    H    -2.554    -21.418    -0.468
    59    C    0.951    -20.687    -6.391
    60    H    0.974    -20.046    -5.624
    61    O    0.258    -20.174    -7.533
    62    H    -0.685    -20.355    -7.550
    63    C    2.376    -21.050    -6.776
    64    H    2.987    -20.749    -6.044
    65    O    2.690    -20.529    -8.081
    66    P    2.898    -18.946    -8.343
    67    O    3.505    -18.759    -9.684
    68    O    3.539    -18.310    -7.164
    69    O    1.374    -18.428    -8.420
    70    C    0.528    -18.847    -9.496
    71    H    0.524    -19.846    -9.537
    72    H    0.780    -18.345    -10.323
    73    C    -0.928    -18.473    -9.256
    74    H    -1.531    -18.772    -9.995
    75    O    -1.373    -19.054    -8.029
    76    C    -2.625    -18.436    -7.660
    77    H    -3.376    -19.003    -7.998
    78    N    -2.635    -18.292    -6.190
    79    C    -3.701    -17.890    -5.421
    80    N    -7.007    -16.864    -5.159
    81    H    -7.713    -16.577    -4.497
    82    H    -7.284    -16.891    -6.130
    83    N    -4.934    -17.567    -5.877
    84    C    -5.755    -17.209    -4.891
    85    N    -5.395    -17.176    -3.568
    86    H    -6.113    -16.888    -2.888
    87    C    -4.145    -17.498    -3.076
    88    O    -3.928    -17.430    -1.870
    89    C    -3.255    -17.880    -4.117
    90    N    -1.920    -18.275    -4.056
    91    C    -1.620    -18.500    -5.299
    92    H    -0.665    -18.793    -5.356
    93    C    -2.586    -17.129    -8.461
    94    H    -2.767    -16.385    -7.818
    95    O    -3.493    -17.152    -9.569
    96    H    -4.287    -17.673    -9.432
    97    C    -1.164    -16.998    -8.982
    98    H    -0.545    -16.699    -8.256
    99    O    -1.099    -16.177    -10.165
    100    P    -0.648    -14.617    -10.143
    101    O    -0.664    -14.070    -11.526
    102    O    0.583    -14.444    -9.324
    103    O    -1.862    -13.923    -9.339
    104    C    -3.159    -13.873    -9.941
    105    H    -3.443    -14.802    -10.180
    106    H    -3.156    -13.183    -10.665
    107    C    -4.234    -13.393    -8.974
    108    H    -5.111    -13.292    -9.443
    109    O    -4.386    -14.324    -7.897
    110    C    -4.970    -13.605    -6.795
    111    H    -5.926    -13.895    -6.740
    112    N    -4.201    -13.948    -5.581
    113    C    -2.902    -14.356    -5.663
    114    H    -2.323    -14.513    -6.463
    115    C    -2.193    -14.616    -4.551
    116    H    -1.254    -14.920    -4.391
    117    C    -4.834    -13.793    -4.358
    118    O    -6.009    -13.440    -4.310
    119    N    -4.123    -14.051    -3.228
    120    C    -2.847    -14.447    -3.295
    121    N    -2.169    -14.659    -2.173
    122    H    -2.633    -14.516    -1.288
    123    H    -1.205    -14.958    -2.202
    124    C    -4.920    -12.114    -7.146
    125    H    -4.545    -11.617    -6.363
    126    O    -6.199    -11.620    -7.560
    127    H    -6.951    -12.023    -7.120
    128    C    -3.916    -12.066    -8.291
    129    H    -2.986    -12.102    -7.926
    130    O    -4.175    -10.930    -9.162
    131    P    -3.717    -9.378    -8.972
    132    O    -4.139    -8.497    -10.106
    133    O    -2.274    -9.411    -8.622
    134    O    -4.521    -8.861    -7.671
    135    C    -5.943    -8.689    -7.735
    136    H    -6.366    -9.561    -7.980
    137    H    -6.149    -7.892    -8.303
    138    C    -6.539    -8.349    -6.374
    139    H    -7.518    -8.160    -6.457
    140    O    -6.344    -9.456    -5.429
    141    C    -6.465    -8.876    -4.116
    142    H    -7.366    -9.139    -3.770
    143    N    -5.370    -9.429    -3.291
    144    C    -4.171    -10.130    -1.591
    145    N    -3.419    -10.401    -2.733
    146    C    -4.177    -9.963    -3.694
    147    H    -3.714    -10.112    -4.568
    148    N    -4.882    -9.961    0.633
    149    C    -6.002    -9.391    0.190
    150    H    -6.743    -9.081    0.786
    151    N    -6.329    -9.139    -1.075
    152    C    -5.357    -9.538    -1.919
    153    C    -3.934    -10.349    -0.232
    154    N    -2.825    -10.918    0.230
    155    H    -2.719    -11.047    1.226
    156    H    -2.114    -11.208    -0.426
    157    C    -6.421    -7.352    -4.286
    158    H    -5.757    -6.990    -3.632
    159    O    -7.718    -6.762    -4.153
    160    H    -8.304    -7.206    -3.536
    161    C    -5.890    -7.144    -5.699
    162    H    -4.897    -7.258    -5.714
    163    O    -6.370    -5.892    -6.258
    164    P    -5.857    -4.374    -5.966
    165    O    -6.666    -3.303    -6.626
    166    O    -4.417    -4.466    -6.279
    167    O    -6.015    -4.157    -4.376
    168    C    -7.319    -4.057    -3.793
    169    H    -7.916    -4.742    -4.211
    170    H    -7.614    -3.102    -3.817
    171    C    -7.316    -4.413    -2.312
    172    H    -8.239    -4.541    -1.948
    173    O    -6.578    -5.609    -2.129
    174    C    -6.204    -5.690    -0.740
    175    H    -6.836    -6.323    -0.293
    176    N    -4.804    -6.162    -0.687
    177    C    -4.105    -6.504    0.448
    178    N    -3.951    -6.867    3.898
    179    H    -3.343    -7.145    4.655
    180    H    -4.880    -6.565    4.154
    181    N    -4.575    -6.460    1.717
    182    C    -3.661    -6.856    2.605
    183    N    -2.394    -7.259    2.270
    184    H    -1.768    -7.542    3.038
    185    C    -1.890    -7.316    0.983
    186    O    -0.742    -7.705    0.791
    187    C    -2.854    -6.895    0.026
    188    N    -2.754    -6.800    -1.361
    189    C    -3.925    -6.365    -1.712
    190    H    -3.949    -6.261    -2.706
    191    C    -6.435    -4.280    -0.185
    192    H    -5.609    -4.004    0.307
    193    O    -7.610    -4.211    0.630
    194    H    -7.808    -5.010    1.124
    195    C    -6.587    -3.412    -1.425
    196    H    -5.691    -3.216    -1.824
    197    O    -7.458    -2.290    -1.159
    198    P    -7.166    -0.853    -0.471
    199    O    -8.341    0.060    -0.388
    200    O    -6.010    -0.493    -1.296
    201    O    -6.673    -1.158    1.029
    202    C    -7.607    -1.495    2.061
    203    H    -8.167    -2.265    1.755
    204    H    -8.076    -0.664    2.360
    205    C    -6.899    -2.008    3.311
    206    H    -7.534    -2.238    4.049
    207    O    -6.155    -3.151    2.974
    208    C    -5.030    -3.264    3.867
    209    H    -5.169    -4.079    4.429
    210    N    -3.808    -3.337    3.033
    211    C    -3.819    -2.902    1.735
    212    H    -4.572    -2.519    1.199
    213    C    -2.659    -3.844    3.611
    214    O    -2.622    -4.238    4.771
    215    N    -1.541    -3.877    2.803
    216    H    -0.674    -4.248    3.217
    217    C    -1.467    -3.461    1.491
    218    O    -0.412    -3.536    0.872
    219    C    -2.709    -2.947    0.965
    220    H    -2.569    -2.668    0.015
    221    C    -5.114    -2.028    4.756
    222    H    -4.190    -1.681    4.920
    223    O    -5.831    -2.284    5.969
    224    H    -5.708    -3.163    6.335
    225    C    -5.851    -1.060    3.863
    226    H    -5.258    -0.759    3.116
    227    O    -6.541    -0.103    4.647
    228    P    -5.897    1.225    5.253
    229    O    -6.868    1.964    6.074
    230    O    -5.498    1.636    3.918
    231    O    -4.635    0.776    6.122
    232    C    -4.796    0.271    7.444
    233    H    -5.381    -0.540    7.414
    234    H    -5.065    1.021    8.048
    235    C    -3.481    -0.234    8.031
    236    H    -3.588    -0.608    8.952
    237    O    -2.962    -1.235    7.188
    238    C    -1.530    -1.303    7.358
    239    H    -1.327    -2.148    7.852
    240    N    -0.926    -1.275    6.006
    241    C    -1.639    -0.822    4.930
    242    H    -2.582    -0.492    4.884
    243    C    0.385    -1.696    5.874
    244    O    1.043    -2.111    6.823
    245    N    0.917    -1.628    4.606
    246    H    1.892    -1.938    4.488
    247    C    0.271    -1.184    3.471
    248    O    0.853    -1.162    2.392
    249    C    -1.093    -0.766    3.695
    250    H    -1.487    -0.463    2.827
    251    C    -1.171    -0.107    8.246
    252    H    -0.363    0.345    7.867
    253    O    -1.004    -0.491    9.613
    254    H    -0.619    -1.360    9.746
    255    C    -2.377    0.800    8.063
    256    H    -2.327    1.251    7.172
    257    O    -2.574    1.615    9.219
    258    P    -1.956    3.091    9.339
    259    O    -2.340    3.697    10.629
    260    O    -2.389    3.651    8.056
    261    O    -0.374    2.842    9.317
    262    C    0.285    2.216    10.421
    263    H    -0.132    1.322    10.585
    264    H    0.326    2.861    11.184
    265    C    1.740    1.906    10.106
    266    H    2.214    1.419    10.839
    267    O    1.799    1.114    8.900
    268    C    3.103    1.204    8.300
    269    H    3.617    0.373    8.515
    270    N    2.912    1.388    6.843
    271    C    1.724    1.836    6.342
    272    H    0.875    2.082    6.810
    273    C    1.560    2.010    5.020
    274    H    0.791    2.319    4.460
    275    C    3.984    1.101    6.011
    276    O    5.048    0.704    6.483
    277    N    3.827    1.275    4.672
    278    C    2.666    1.714    4.168
    279    N    2.548    1.880    2.856
    280    H    3.339    1.671    2.264
    281    H    1.682    2.210    2.454
    282    C    3.720    2.383    9.060
    283    H    4.147    2.979    8.380
    284    O    4.630    1.945    10.074
    285    H    5.094    1.128    9.877
    286    C    2.558    3.124    9.710
    287    H    2.049    3.650    9.029
    288    O    2.996    3.940    10.817
    289    P    3.147    5.544    10.627
    290    O    3.616    6.137    11.909
    291    O    1.965    6.180    9.964
    292    O    4.372    5.666    9.578
    293    C    5.663    5.149    9.926
    294    H    5.559    4.214    10.265
    295    H    6.132    5.810    10.512
    296    C    6.557    5.017    8.704
    297    H    7.452    4.614    8.897
    298    O    5.890    4.221    7.730
    299    C    6.327    4.611    6.414
    300    H    6.828    3.843    6.015
    301    N    5.113    4.964    5.641
    302    C    3.937    5.233    6.280
    303    H    3.723    5.250    7.257
    304    C    2.828    5.535    5.584
    305    H    1.890    5.756    5.852
    306    C    5.204    4.999    4.254
    307    O    6.274    4.765    3.699
    308    N    4.082    5.305    3.541
    309    C    2.925    5.568    4.161
    310    N    1.846    5.857    3.441
    311    H    1.921    5.873    2.434
    312    H    0.964    6.058    3.891
    313    C    7.302    5.761    6.672
    314    H    7.197    6.443    5.948
    315    O    8.647    5.302    6.828
    316    H    8.886    4.553    6.277
    317    C    6.769    6.336    7.976
    318    H    5.882    6.775    7.832
    319    O    7.703    7.237    8.607
    320    P    7.553    8.840    8.406
    321    O    8.558    9.511    9.278
    322    O    6.147    9.367    8.455
    323    O    8.052    9.041    6.885
    324    C    9.391    8.662    6.552
    325    H    9.527    7.701    6.793
    326    H    10.024    9.335    6.934
    327    C    9.648    8.713    5.054
    328    H    10.592    8.481    4.818
    329    O    8.760    7.801    4.385
    330    C    8.503    8.316    3.066
    331    H    8.883    7.660    2.414
    332    N    7.033    8.464    2.934
    333    C    6.242    8.549    4.043
    334    H    6.486    8.539    5.013
    335    C    4.908    8.668    3.929
    336    H    4.167    8.741    4.597
    337    C    6.490    8.499    1.655
    338    O    7.219    8.432    0.668
    339    N    5.139    8.621    1.530
    340    C    4.354    8.705    2.615
    341    N    3.038    8.825    2.461
    342    H    2.656    8.850    1.526
    343    H    2.429    8.890    3.264
    344    C    9.287    9.629    2.967
    345    H    8.754    10.298    2.449
    346    O    10.599    9.434    2.432
    347    H    10.662    8.766    1.746
    348    C    9.314    10.042    4.424
    349    H    8.399    10.320    4.716
    350    O    10.414    10.892    4.676
    351    P    10.321    12.456    4.392
    352    O    11.633    13.010    4.737
    353    O    9.102    12.726    5.151
    354    O    10.049    12.577    2.823
    355    C    11.055    12.253    1.864
    356    H    11.307    11.291    1.969
    357    H    11.783    12.937    1.912
    358    C    10.515    12.360    0.441
    359    H    11.201    12.131    -0.250
    360    O    9.384    11.493    0.281
    361    C    8.533    12.038    -0.742
    362    H    8.607    11.433    -1.535
    363    N    7.163    12.082    -0.185
    364    C    6.966    12.076    1.164
    365    H    7.628    12.062    1.913
    366    C    5.726    12.090    1.677
    367    H    5.372    12.088    2.612
    368    C    6.093    12.107    -1.071
    369    O    6.290    12.123    -2.284
    370    N    4.832    12.121    -0.558
    371    C    4.630    12.112    0.766
    372    N    3.389    12.117    1.240
    373    H    2.618    12.128    0.588
    374    H    3.217    12.110    2.235
    375    C    9.113    13.406    -1.104
    376    H    8.365    14.067    -1.167
    377    O    9.895    13.361    -2.300
    378    H    9.581    12.746    -2.967
    379    C    9.955    13.728    0.118
    380    H    9.358    14.020    0.865
    381    O    11.047    14.555    -0.237
    382    P    10.886    16.136    -0.125
    383    O    12.146    16.729    -0.586
    384    O    10.379    16.286    1.240
    385    O    9.724    16.405    -1.187
    386    C    9.936    16.168    -2.580
    387    H    10.224    15.219    -2.709
    388    H    10.523    16.890    -2.947
    389    C    8.644    16.286    -3.374
    390    H    8.795    16.055    -4.335
    391    O    7.659    15.427    -2.845
    392    C    6.386    15.940    -3.272
    393    H    6.101    15.378    -4.049
    394    N    5.457    15.826    -2.127
    395    C    5.932    15.709    -0.849
    396    H    6.876    15.677    -0.520
    397    C    4.102    15.848    -2.394
    398    O    3.654    15.951    -3.531
    399    N    3.269    15.750    -1.299
    400    H    2.255    15.769    -1.477
    401    C    3.661    15.629    0.017
    402    O    2.824    15.541    0.911
    403    C    5.094    15.615    0.207
    404    H    5.292    15.530    1.183
    405    C    6.602    17.377    -3.750
    406    H    5.984    17.973    -3.238
    407    O    6.437    17.501    -5.168
    408    H    5.779    16.917    -5.552
    409    C    8.036    17.676    -3.334
    410    H    8.044    18.008    -2.391
    411    O    8.676    18.583    -4.246
    412    P    8.944    20.094    -3.740
    413    O    9.516    20.835    -4.891
    414    O    9.636    20.198    -2.419
    415    O    7.436    20.627    -3.521
    416    C    6.536    20.697    -4.634
    417    H    6.545    19.821    -5.116
    418    H    6.734    21.524    -5.161
    419    C    5.089    20.869    -4.183
    420    H    4.491    21.031    -4.968
    421    O    4.650    19.707    -3.500
    422    C    3.663    20.081    -2.518
    423    H    2.795    19.678    -2.808
    424    N    4.119    19.587    -1.202
    425    C    3.323    19.304    -0.114
    426    N    0.177    19.044    1.335
    427    H    -0.301    18.808    2.193
    428    H    -0.405    19.314    0.555
    429    N    1.973    19.377    -0.073
    430    C    1.487    19.038    1.123
    431    N    2.267    18.661    2.186
    432    H    1.787    18.421    3.065
    433    C    3.646    18.578    2.169
    434    O    4.248    18.231    3.177
    435    C    4.176    18.934    0.901
    436    N    5.498    18.981    0.466
    437    C    5.392    19.368    -0.766
    438    H    6.306    19.431    -1.167
    439    C    3.551    21.597    -2.581
    440    H    3.506    21.949    -1.646
    441    O    2.444    22.018    -3.389
    442    H    1.677    21.442    -3.357
    443    C    4.878    22.017    -3.207
    444    H    5.599    21.992    -2.514
    445    O    4.810    23.322    -3.811
    446    P    5.523    24.540    -3.013
    447    O    5.356    25.771    -3.828
    448    O    6.906    24.216    -2.538
    449    O    4.624    24.719    -1.674
    450    C    5.048    25.459    -0.522
    451    H    5.115    26.427    -0.763
    452    H    5.855    25.017    -0.130
    453    C    4.003    25.411    0.591
    454    H    4.381    25.779    1.440
    455    O    2.896    26.212    0.192
    456    C    1.705    25.411    0.092
    457    H    1.026    25.849    0.681
    458    N    1.288    25.410    -1.330
    459    C    2.104    24.908    -2.303
    460    H    3.011    24.493    -2.234
    461    C    1.727    24.924    -3.594
    462    H    2.163    24.616    -4.439
    463    C    0.047    25.950    -1.639
    464    O    -0.674    26.391    -0.748
    465    N    -0.342    25.969    -2.945
    466    C    0.452    25.480    -3.906
    467    N    0.044    25.520    -5.172
    468    H    -0.859    25.920    -5.381
    469    H    0.626    25.157    -5.913
    470    C    2.017    24.015    0.642
    471    H    1.825    23.359    -0.088
    472    O    1.289    23.729    1.840
    473    H    0.427    24.147    1.900
    474    C    3.512    24.010    0.932
    475    H    3.934    23.356    0.304
    476    O    3.747    23.768    2.329
    477    P    3.480    22.313    2.986
    478    O    4.305    22.197    4.211
    479    O    3.619    21.307    1.910
    480    O    1.924    22.361    3.432
    481    C    1.460    23.266    4.455
    482    H    1.608    24.207    4.149
    483    H    1.851    22.992    5.334
    484    C    -0.056    23.182    4.679
    485    H    -0.311    23.705    5.492
    486    O    -0.718    23.738    3.543
    487    C    -1.709    22.835    3.048
    488    H    -2.589    23.196    3.356
    489    N    -1.623    22.808    1.575
    490    C    -2.091    23.078    -0.550
    491    N    -0.776    22.621    -0.497
    492    C    -0.568    22.479    0.776
    493    H    0.363    22.143    0.918
    494    N    -4.171    23.831    -1.315
    495    C    -4.570    23.896    -0.045
    496    H    -5.484    24.187    0.237
    497    N    -3.857    23.598    1.037
    498    C    -2.614    23.191    0.705
    499    C    -2.928    23.426    -1.613
    500    N    -2.532    23.410    -2.882
    501    H    -3.178    23.705    -3.600
    502    H    -1.594    23.104    -3.098
    503    C    -1.484    21.479    3.681
    504    H    -0.973    20.920    3.028
    505    O    -2.719    20.883    4.086
    506    H    -3.473    21.097    3.532
    507    C    -0.601    21.758    4.893
    508    H    0.160    21.110    4.864
    509    O    -1.409    21.695    6.084
    510    P    -2.070    20.300    6.592
    511    O    -2.211    20.357    8.070
    512    O    -1.343    19.145    5.995
    513    O    -3.565    20.304    5.965
    514    C    -4.733    20.035    6.764
    515    H    -4.773    20.695    7.514
    516    H    -4.753    19.062    6.994
    517    C    -6.026    20.269    5.979
    518    H    -6.813    19.912    6.482
    519    O    -6.195    21.681    5.788
    520    C    -6.375    21.956    4.393
    521    H    -7.360    21.992    4.225
    522    N    -5.749    23.277    4.071
    523    C    -4.715    23.762    4.836
    524    H    -4.281    23.362    5.643
    525    C    -6.222    23.998    2.975
    526    O    -7.135    23.605    2.259
    527    N    -5.592    25.198    2.721
    528    H    -5.933    25.742    1.916
    529    C    -4.550    25.746    3.436
    530    O    -4.063    26.822    3.101
    531    C    -4.117    24.944    4.554
    532    H    -3.362    25.410    5.016
    533    C    -5.783    20.752    3.644
    534    H    -4.795    20.880    3.561
    535    O    -6.405    20.567    2.367
    536    H    -6.671    21.376    1.925
    537    C    -6.057    19.598    4.614
    538    H    -5.298    18.950    4.552
    539    O    -7.374    19.089    4.377
    540    P    -7.622    17.799    3.447
    541    O    -9.052    17.443    3.538
    542    O    -6.577    16.848    3.857
    543    O    -7.308    18.324    1.955
    544    C    -8.174    19.256    1.289
    545    H    -8.160    20.125    1.784
    546    H    -9.061    18.821    1.131
    547    C    -7.654    19.596    -0.108
    548    H    -8.311    20.179    -0.585
    549    O    -6.380    20.279    -0.041
    550    C    -5.805    20.179    -1.343
    551    H    -6.027    21.033    -1.814
    552    N    -4.349    20.020    -1.187
    553    C    -2.192    20.030    -1.575
    554    N    -2.346    19.610    -0.254
    555    C    -3.635    19.628    -0.091
    556    H    -3.849    19.339    0.842
    557    N    -1.275    20.647    -3.639
    558    C    -2.513    20.854    -4.083
    559    H    -2.730    21.164    -5.009
    560    N    -3.642    20.693    -3.406
    561    C    -3.405    20.277    -2.147
    562    C    -1.069    20.231    -2.381
    563    N    0.172    20.030    -1.960
    564    H    0.938    20.195    -2.597
    565    H    0.323    19.717    -1.012
    566    C    -6.489    19.015    -2.072
    567    H    -5.786    18.356    -2.341
    568    O    -7.262    19.478    -3.188
    569    H    -6.902    20.244    -3.640
    570    C    -7.369    18.389    -0.985
    571    H    -6.829    17.728    -0.464
    572    O    -8.567    17.879    -1.574
    573    P    -8.622    16.312    -1.935
    574    O    -9.926    16.076    -2.583
    575    O    -8.250    15.574    -0.711
    576    O    -7.457    16.106    -3.035
    577    C    -7.547    16.751    -4.310
    578    H    -7.720    17.726    -4.170
    579    H    -8.183    16.241    -4.889
    580    C    -6.234    16.718    -5.088
    581    H    -6.384    17.113    -5.994
    582    O    -5.209    17.485    -4.401
    583    C    -3.929    16.909    -4.737
    584    H    -3.452    17.593    -5.289
    585    N    -3.222    16.622    -3.475
    586    C    -1.659    16.233    -1.983
    587    N    -2.873    16.167    -1.303
    588    C    -3.744    16.400    -2.233
    589    H    -4.661    16.369    -1.835
    590    N    0.626    16.202    -2.498
    591    C    0.303    16.473    -3.765
    592    H    0.971    16.579    -4.501
    593    N    -0.918    16.645    -4.261
    594    C    -1.860    16.509    -3.305
    595    C    -0.335    16.075    -1.569
    596    N    0.002    15.827    -0.307
    597    H    0.980    15.738    -0.070
    598    H    -0.727    15.733    0.385
    599    C    -4.176    15.658    -5.595
    600    H    -3.599    14.916    -5.253
    601    O    -3.987    15.925    -6.986
    602    H    -3.292    16.556    -7.187
    603    C    -5.638    15.332    -5.290
    604    H    -5.684    14.829    -4.427
    605    O    -6.252    14.510    -6.322
    606    P    -6.276    12.880    -6.103
    607    O    -7.089    12.280    -7.210
    608    O    -6.513    12.226    -4.747
    609    O    -4.733    12.505    -6.448
    610    C    -4.165    13.077    -7.634
    611    H    -4.341    14.061    -7.637
    612    H    -4.463    12.545    -8.427
    613    C    -2.648    12.966    -7.656
    614    H    -2.278    13.341    -8.506
    615    O    -2.067    13.671    -6.540
    616    C    -0.769    13.092    -6.302
    617    H    -0.100    13.734    -6.677