!*** FMO 5.2 (Gamess) INPUT generated by Facio 21.1.1.32 ***
 $CONTRL RUNTYP=OPTFMO NPRINT=-5 ISPHER=-1 MAXIT=50 $END
 $SYSTEM MWORDS=29 $END
 $GDDI NGROUP=1 $END
 $INTGRL NINTIC=-9000000 $END
 $SCF DIRSCF=.FALSE. NPUNCH=0 $END
!*** NumCPU : 2  MemPerNode : 512MB
 $FMOPRP
    NAODIR=210
    NGRFMO(1)=1, 1, 0, 0, 0,   0, 0, 0, 0, 0
    NPRINT=9
 $END
 $FMO
      SCFTYP(1)=RHF
      MODGRD=10
      MODMUL=0
      MAXCAO=5
      MAXBND=34
      NLAYER=1
      NFRAG=32
      ICHARG(1)=-1, -1, -1, -1, -1, -1, -1, -1, -1, -1, 
-1, -1, -1, -1, -1, -1, -1, -1, -1, -1, 
-1, -1, -1, -1, -1, -1, -1, -1, -1, -1, 
-1, 0
      FRGNAM(1)=Frag1, Frag2, Frag3, Frag4, Frag5, Frag6, Frag7, Frag8, Frag9, Frag10, Frag11, Frag12, Frag13, Frag14, Frag15, Frag16, Frag17, Frag18, Frag19, Frag20, Frag21, Frag22, Frag23, Frag24, Frag25, Frag26, Frag27, Frag28, Frag29, Frag30, Frag31, Frag32
      indat(1)=0
               1   -36   0
               37   -69   0
               70   -103   0
               104   -134   0
               135   -167   0
               168   -201   0
               202   -231   0
               232   -261   0
               262   -292   0
               293   -323   0
               324   -354   0
               355   -385   0
               386   -415   0
               416   -449   0
               450   -480   0
               481   -513   0
               514   -543   0
               544   -576   0
               577   -609   0
               610   -643   0
               644   -677   0
               678   -710   0
               711   -740   0
               741   -774   0
               775   -807   0
               808   -840   0
               841   -871   0
               872   -902   0
               903   -936   0
               937   -966   0
               967   -996   0
               997   -1024   0
 $END

 $FMOBND
   -37   36       3-21G    MINI
   -70   69       3-21G    MINI
   -104   103       3-21G    MINI
   -135   134       3-21G    MINI
   -168   167       3-21G    MINI
   -202   201       3-21G    MINI
   -232   231       3-21G    MINI
   -262   261       3-21G    MINI
   -293   292       3-21G    MINI
   -324   323       3-21G    MINI
   -355   354       3-21G    MINI
   -386   385       3-21G    MINI
   -416   415       3-21G    MINI
   -450   449       3-21G    MINI
   -481   480       3-21G    MINI
   -514   513       3-21G    MINI
   -544   543       3-21G    MINI
   -577   576       3-21G    MINI
   -610   609       3-21G    MINI
   -644   643       3-21G    MINI
   -678   677       3-21G    MINI
   -711   710       3-21G    MINI
   -741   740       3-21G    MINI
   -775   774       3-21G    MINI
   -808   807       3-21G    MINI
   -841   840       3-21G    MINI
   -872   871       3-21G    MINI
   -903   902       3-21G    MINI
   -937   936       3-21G    MINI
   -967   966       3-21G    MINI
   -997   996       3-21G    MINI
 $END
 $FMOHYB
 3-21G        9   5
   1 0  -0.070459   0.164841   0.000000   0.000000   0.502116
         0.466939   0.000000   0.000000   0.418036
   0 1  -0.070465   0.164857   0.473392   0.000000  -0.167359
         0.466967   0.394111   0.000000  -0.139327
   0 1  -0.070465   0.164857  -0.236695  -0.409969  -0.167359
         0.466967  -0.197055  -0.341311  -0.139327
   0 1  -0.070465   0.164857  -0.236695   0.409969  -0.167359
         0.466967  -0.197055   0.341311  -0.139327
   0 1   1.006716   0.074826   0.000000   0.000000   0.000000
        -0.143830   0.000000   0.000000  -0.000003
 MINI         5   5
   1 0  -0.104883   0.308874   0.000000   0.000000   0.521806
   0 1  -0.104883   0.308874   0.491961   0.000000  -0.173934
   0 1  -0.104883   0.308876  -0.245980  -0.426050  -0.173933
   0 1  -0.104883   0.308876  -0.245980   0.426050  -0.173933
   0 1   0.988209   0.063992   0.000000   0.000000   0.000000
 $END

 $DATA
 FMO calculation : XXNAMEXX
 C1 
 C.1-1    6
      N21 3
   
 O.1-1    8
      N21 3
   
 N.1-1    7
      N21 3
   
 H.1-1    1
      N21 3
   
 P.1-1   15
      N21 3
   
 $END
 $FMOXYZ
    1    H    9.658    -20.610    -1.712
    2    O    8.776    -20.869    -2.106
    3    C    8.971    -21.971    -3.002
    4    H    9.279    -22.765    -2.479
    5    H    9.534    -21.669    -3.771
    6    C    7.661    -22.422    -3.643
    7    H    7.851    -23.118    -4.335
    8    O    6.767    -22.954    -2.689
    9    C    5.454    -22.928    -3.284
    10    H    5.316    -23.824    -3.706
    11    N    4.482    -22.656    -2.201
    12    C    3.139    -22.953    -2.220
    13    N    0.377    -24.311    -3.825
    14    H    -0.614    -24.478    -3.726
    15    H    0.805    -24.632    -4.682
    16    N    2.475    -23.568    -3.227
    17    C    1.177    -23.716    -2.951
    18    N    0.588    -23.292    -1.788
    19    H    -0.423    -23.457    -1.681
    20    C    1.242    -22.661    -0.747
    21    O    0.616    -22.319    0.253
    22    C    2.628    -22.497    -1.025
    23    N    3.632    -21.920    -0.252
    24    C    4.688    -22.045    -0.995
    25    H    5.472    -21.652    -0.515
    26    C    5.468    -21.859    -4.379
    27    H    4.823    -21.139    -4.122
    28    O    5.188    -22.407    -5.673
    29    H    4.575    -23.146    -5.676
    30    C    6.882    -21.305    -4.311
    31    H    6.878    -20.506    -3.710
    32    O    7.396    -21.111    -5.630
    33    P    7.222    -19.656    -6.296
    34    O    7.923    -19.685    -7.595
    35    O    7.614    -18.704    -5.234
    36    O    5.639    -19.532    -6.558
    37    C    5.002    -20.380    -7.517
    38    H    5.187    -21.334    -7.282
    39    H    5.242    -20.069    -8.437
    40    C    3.483    -20.270    -7.469
    41    H    3.082    -20.825    -8.197
    42    O    2.981    -20.734    -6.191
    43    C    1.638    -20.220    -6.097
    44    H    1.041    -20.890    -6.539
    45    N    1.316    -20.048    -4.666
    46    C    0.250    -19.991    -2.746
    47    N    1.539    -19.534    -2.487
    48    C    2.110    -19.590    -3.652
    49    H    3.055    -19.273    -3.567
    50    N    -1.990    -20.638    -2.505
    51    C    -2.010    -20.911    -3.811
    52    H    -2.812    -21.260    -4.296
    53    N    -1.007    -20.775    -4.675
    54    C    0.102    -20.306    -4.067
    55    C    -0.869    -20.173    -1.930
    56    N    -0.863    -19.909    -0.626
    57    H    -1.706    -20.064    -0.091
    58    H    -0.016    -19.560    -0.201
    59    C    1.606    -18.918    -6.899
    60    H    1.555    -18.164    -6.245
    61    O    0.544    -18.910    -7.857
    62    H    -0.243    -19.392    -7.593
    63    C    2.941    -18.860    -7.617
    64    H    3.536    -18.229    -7.120
    65    O    2.752    -18.400    -8.959
    66    P    2.466    -16.822    -9.133
    67    O    2.717    -16.517    -10.552
    68    O    3.023    -15.859    -8.137
    69    O    0.873    -16.789    -8.914
    70    C    0.046    -17.584    -9.770
    71    H    0.382    -18.526    -9.764
    72    H    -0.045    -17.125    -10.654
    73    C    -1.385    -17.698    -9.264
    74    H    -1.960    -18.266    -9.853
    75    O    -1.375    -18.255    -7.944
    76    C    -2.680    -18.060    -7.358
    77    H    -3.230    -18.881    -7.512
    78    N    -2.485    -17.764    -5.924
    79    C    -3.474    -17.662    -4.975
    80    N    -6.831    -17.790    -4.099
    81    H    -7.467    -17.687    -3.322
    82    H    -7.244    -18.017    -4.992
    83    N    -4.801    -17.827    -5.188
    84    C    -5.512    -17.660    -4.073
    85    N    -4.964    -17.359    -2.853
    86    H    -5.609    -17.256    -2.056
    87    C    -3.615    -17.183    -2.608
    88    O    -3.231    -16.911    -1.475
    89    C    -2.842    -17.356    -3.789
    90    N    -1.465    -17.268    -3.981
    91    C    -1.325    -17.516    -5.247
    92    H    -0.354    -17.474    -5.482
    93    C    -3.244    -16.913    -8.212
    94    H    -3.559    -16.205    -7.580
    95    O    -4.262    -17.368    -9.109
    96    H    -4.784    -18.108    -8.789
    97    C    -2.078    -16.372    -9.019
    98    H    -1.489    -15.797    -8.451
    99    O    -2.448    -15.575    -10.160
    100    P    -2.266    -13.966    -10.108
    101    O    -2.601    -13.427    -11.442
    102    O    -1.042    -13.389    -9.476
    103    O    -3.469    -13.527    -9.133
    104    C    -4.807    -13.854    -9.523
    105    H    -4.860    -14.834    -9.713
    106    H    -5.101    -13.221    -10.239
    107    C    -5.831    -13.646    -8.414
    108    H    -6.757    -13.815    -8.752
    109    O    -5.562    -14.538    -7.323
    110    C    -6.164    -13.963    -6.148
    111    H    -6.983    -14.502    -5.953
    112    N    -5.169    -14.028    -5.059
    113    C    -3.831    -14.064    -5.329
    114    H    -3.348    -14.090    -6.204
    115    C    -2.930    -14.069    -4.331
    116    H    -1.931    -14.093    -4.309
    117    C    -5.642    -14.001    -3.757
    118    O    -6.850    -13.985    -3.538
    119    N    -4.737    -14.004    -2.742
    120    C    -3.423    -14.034    -2.994
    121    N    -2.564    -14.002    -1.982
    122    H    -2.922    -13.955    -1.039
    123    H    -1.568    -14.024    -2.150
    124    C    -6.582    -12.531    -6.510
    125    H    -6.252    -11.916    -5.794
    126    O    -7.994    -12.430    -6.730
    127    H    -8.532    -13.005    -6.181
    128    C    -5.811    -12.258    -7.790
    129    H    -4.867    -12.014    -7.569
    130    O    -6.380    -11.188    -8.575
    131    P    -5.858    -9.664    -8.433
    132    O    -6.447    -8.840    -9.513
    133    O    -4.407    -9.431    -8.173
    134    O    -6.604    -9.223    -7.080
    135    C    -8.035    -9.297    -7.036
    136    H    -8.319    -10.232    -7.247
    137    H    -8.416    -8.556    -7.588
    138    C    -8.592    -9.045    -5.641
    139    H    -9.592    -9.027    -5.658
    140    O    -8.148    -10.088    -4.708
    141    C    -8.283    -9.517    -3.391
    142    H    -9.101    -9.925    -2.985
    143    N    -7.058    -9.860    -2.639
    144    C    -5.648    -10.319    -1.020
    145    N    -4.937    -10.474    -2.208
    146    C    -5.819    -10.188    -3.118
    147    H    -5.395    -10.269    -4.020
    148    N    -6.232    -10.240    1.246
    149    C    -7.460    -9.878    0.876
    150    H    -8.203    -9.690    1.519
    151    N    -7.907    -9.706    -0.365
    152    C    -6.937    -9.945    -1.270
    153    C    -5.290    -10.473    0.322
    154    N    -4.071    -10.835    0.711
    155    H    -3.879    -10.927    1.698
    156    H    -3.365    -11.009    0.010
    157    C    -8.513    -8.011    -3.571
    158    H    -7.880    -7.528    -2.966
    159    O    -9.882    -7.651    -3.354
    160    H    -10.339    -8.176    -2.693
    161    C    -8.116    -7.747    -5.015
    162    H    -7.120    -7.695    -5.092
    163    O    -8.862    -6.643    -5.554
    164    P    -8.379    -5.111    -5.388
    165    O    -9.349    -4.198    -6.038
    166    O    -6.969    -5.142    -5.821
    167    O    -8.439    -4.863    -3.800
    168    C    -9.698    -4.845    -3.121
    169    H    -10.258    -5.604    -3.453
    170    H    -10.082    -3.923    -3.171
    171    C    -9.544    -5.111    -1.629
    172    H    -10.419    -5.297    -1.182
    173    O    -8.687    -6.225    -1.447
    174    C    -8.197    -6.191    -0.093
    175    H    -8.731    -6.849    0.438
    176    N    -6.760    -6.535    -0.134
    177    C    -5.944    -6.747    0.954
    178    N    -5.482    -6.890    4.392
    179    H    -4.792    -7.068    5.108
    180    H    -6.412    -6.656    4.710
    181    N    -6.314    -6.669    2.253
    182    C    -5.298    -6.930    3.080
    183    N    -4.031    -7.241    2.660
    184    H    -3.323    -7.423    3.385
    185    C    -3.628    -7.330    1.340
    186    O    -2.468    -7.628    1.071
    187    C    -4.700    -7.052    0.447
    188    N    -4.721    -7.031    -0.946
    189    C    -5.951    -6.722    -1.218
    190    H    -6.065    -6.681    -2.211
    191    C    -8.511    -4.775    0.406
    192    H    -7.677    -4.397    0.808
    193    O    -9.619    -4.761    1.313
    194    H    -9.701    -5.542    1.865
    195    C    -8.843    -4.004    -0.863
    196    H    -8.003    -3.755    -1.346
    197    O    -9.782    -2.953    -0.574
    198    P    -9.341    -1.446    -0.196
    199    O    -10.537    -0.579    -0.080
    200    O    -8.297    -1.160    -1.197
    201    O    -8.656    -1.558    1.258
    202    C    -9.447    -1.796    2.428
    203    H    -9.999    -2.617    2.286
    204    H    -9.919    -0.951    2.679
    205    C    -8.575    -2.123    3.636
    206    H    -9.112    -2.286    4.464
    207    O    -7.817    -3.274    3.348
    208    C    -6.592    -3.236    4.105
    209    H    -6.624    -3.979    4.773
    210    N    -5.473    -3.368    3.143
    211    C    -5.656    -3.098    1.814
    212    H    -6.484    -2.811    1.332
    213    C    -4.240    -3.758    3.634
    214    O    -4.049    -4.004    4.819
    215    N    -3.224    -3.852    2.706
    216    H    -2.298    -4.139    3.052
    217    C    -3.324    -3.599    1.355
    218    O    -2.345    -3.713    0.626
    219    C    -4.643    -3.199    0.926
    220    H    -4.629    -3.035    -0.060
    221    C    -6.635    -1.902    4.844
    222    H    -5.716    -1.509    4.846
    223    O    -7.191    -2.032    6.157
    224    H    -6.989    -2.858    6.603
    225    C    -7.531    -1.059    3.956
    226    H    -7.053    -0.808    3.114
    227    O    -8.065    0.068    4.672
    228    P    -7.363    1.525    4.652
    229    O    -8.179    2.481    5.437
    230    O    -7.017    1.858    3.252
    231    O    -5.984    1.297    5.456
    232    C    -6.019    0.960    6.847
    233    H    -6.601    0.156    6.973
    234    H    -6.234    1.781    7.376
    235    C    -4.661    0.520    7.385
    236    H    -4.697    0.266    8.352
    237    O    -4.215    -0.588    6.636
    238    C    -2.775    -0.652    6.696
    239    H    -2.533    -1.430    7.276
    240    N    -2.283    -0.802    5.307
    241    C    -3.082    -0.479    4.244
    242    H    -4.025    -0.146    4.234
    243    C    -0.989    -1.253    5.123
    244    O    -0.256    -1.553    6.060
    245    N    -0.562    -1.351    3.817
    246    H    0.400    -1.684    3.660
    247    C    -1.299    -1.046    2.691
    248    O    -0.808    -1.167    1.574
    249    C    -2.639    -0.586    2.971
    250    H    -3.103    -0.390    2.107
    251    C    -2.342    0.643    7.393
    252    H    -1.568    1.031    6.892
    253    O    -2.064    0.431    8.779
    254    H    -1.676    -0.422    8.989
    255    C    -3.556    1.545    7.207
    256    H    -3.582    1.892    6.269
    257    O    -3.623    2.566    8.220
    258    P    -2.962    4.032    8.053
    259    O    -3.210    4.819    9.285
    260    O    -3.344    4.606    6.742
    261    O    -1.391    3.695    8.000
    262    C    -0.758    3.072    9.126
    263    H    -1.256    2.236    9.358
    264    H    -0.627    3.755    9.845
    265    C    0.649    2.595    8.797
    266    H    1.097    2.111    9.548
    267    O    0.592    1.727    7.647
    268    C    1.881    1.645    7.014
    269    H    2.314    0.781    7.272
    270    N    1.668    1.755    5.553
    271    C    0.517    2.290    5.051
    272    H    -0.289    2.650    5.521
    273    C    0.333    2.397    3.723
    274    H    -0.416    2.748    3.161
    275    C    2.681    1.308    4.718
    276    O    3.713    0.835    5.191
    277    N    2.504    1.413    3.374
    278    C    1.379    1.936    2.869
    279    N    1.241    2.031    1.551
    280    H    1.990    1.706    0.957
    281    H    0.402    2.422    1.147
    282    C    2.635    2.800    7.681
    283    H    3.104    3.305    6.957
    284    O    3.525    2.337    8.701
    285    H    3.902    1.468    8.546
    286    C    1.566    3.691    8.294
    287    H    1.092    4.212    7.584
    288    O    2.109    4.427    9.395
    289    P    2.624    5.942    9.222
    290    O    3.177    6.380    10.521
    291    O    1.546    6.706    8.555
    292    O    3.832    5.731    8.182
    293    C    4.997    4.985    8.552
    294    H    4.714    4.095    8.910
    295    H    5.581    5.558    9.127
    296    C    5.843    4.664    7.332
    297    H    6.651    4.109    7.529
    298    O    5.042    3.989    6.374
    299    C    5.542    4.265    5.052
    300    H    5.890    3.409    4.669
    301    N    4.414    4.824    4.270
    302    C    3.310    5.320    4.902
    303    H    3.105    5.396    5.878
    304    C    2.275    5.810    4.198
    305    H    1.395    6.207    4.459
    306    C    4.508    4.815    2.883
    307    O    5.514    4.375    2.335
    308    N    3.461    5.310    2.162
    309    C    2.374    5.796    2.775
    310    N    1.366    6.267    2.048
    311    H    1.440    6.249    1.041
    312    H    0.538    6.637    2.493
    313    C    6.713    5.216    5.287
    314    H    6.743    5.892    4.551
    315    O    7.951    4.521    5.457
    316    H    8.052    3.734    4.916
    317    C    6.272    5.900    6.569
    318    H    5.470    6.474    6.402
    319    O    7.409    6.428    7.248
    320    P    7.780    7.988    7.137
    321    O    8.892    8.244    8.075
    322    O    6.462    8.643    7.245
    323    O    8.304    8.014    5.626
    324    C    9.546    7.394    5.287
    325    H    9.486    6.415    5.483
    326    H    10.293    7.911    5.706
    327    C    9.812    7.473    3.793
    328    H    10.694    7.076    3.541
    329    O    8.771    6.789    3.080
    330    C    8.624    7.415    1.792
    331    H    8.874    6.734    1.103
    332    N    7.210    7.848    1.676
    333    C    6.444    8.022    2.793
    334    H    6.677    7.912    3.759
    335    C    5.158    8.401    2.693
    336    H    4.441    8.579    3.367
    337    C    6.691    8.056    0.404
    338    O    7.398    7.904    -0.589
    339    N    5.388    8.441    0.293
    340    C    4.629    8.614    1.385
    341    N    3.360    8.992    1.245
    342    H    2.995    9.141    0.315
    343    H    2.770    9.128    2.054
    344    C    9.644    8.555    1.759
    345    H    9.250    9.341    1.282
    346    O    10.898    8.144    1.208
    347    H    10.837    7.513    0.487
    348    C    9.749    8.877    3.239
    349    H    8.906    9.314    3.554
    350    O    10.990    9.521    3.512
    351    P    10.978    11.111    3.744
    352    O    12.318    11.508    4.222
    353    O    9.749    11.393    4.518
    354    O    10.779    11.579    2.222
    355    C    11.791    11.323    1.245
    356    H    11.942    10.336    1.184
    357    H    12.580    11.907    1.433
    358    C    11.327    11.733    -0.150
    359    H    12.019    11.559    -0.851
    360    O    10.126    11.016    -0.489
    361    C    9.370    11.810    -1.420
    362    H    9.423    11.350    -2.306
    363    N    7.986    11.886    -0.898
    364    C    7.735    11.661    0.423
    365    H    8.362    11.452    1.173
    366    C    6.481    11.703    0.900
    367    H    6.090    11.571    1.811
    368    C    6.960    12.167    -1.791
    369    O    7.208    12.376    -2.977
    370    N    5.686    12.210    -1.315
    371    C    5.429    11.989    -0.019
    372    N    4.176    12.029    0.417
    373    H    3.436    12.227    -0.241
    374    H    3.963    11.865    1.391
    375    C    10.086    13.161    -1.516
    376    H    9.399    13.886    -1.474
    377    O    10.906    13.250    -2.683
    378    H    10.568    12.786    -3.452
    379    C    10.925    13.198    -0.243
    380    H    10.343    13.426    0.538
    381    O    12.010    14.143    -0.279
    382    P    11.886    15.548    0.506
    383    O    13.146    16.318    0.405
    384    O    11.252    15.505    1.853
    385    O    10.826    16.290    -0.446
    386    C    11.139    16.413    -1.839
    387    H    11.407    15.517    -2.193
    388    H    11.774    17.175    -1.964
    389    C    9.932    16.797    -2.681
    390    H    10.166    16.810    -3.653
    391    O    8.880    15.878    -2.473
    392    C    7.666    16.545    -2.856
    393    H    7.438    16.214    -3.772
    394    N    6.632    16.190    -1.859
    395    C    6.983    15.728    -0.620
    396    H    7.891    15.566    -0.233
    397    C    5.308    16.346    -2.222
    398    O    4.970    16.758    -3.328
    399    N    4.375    16.015    -1.262
    400    H    3.382    16.129    -1.511
    401    C    4.641    15.544    0.006
    402    O    3.723    15.273    0.775
    403    C    6.049    15.410    0.303
    404    H    6.154    15.069    1.237
    405    C    7.966    18.046    -2.928
    406    H    7.320    18.521    -2.331
    407    O    7.933    18.533    -4.275
    408    H    7.298    18.097    -4.848
    409    C    9.364    18.163    -2.338
    410    H    9.298    18.248    -1.344
    411    O    10.103    19.283    -2.862
    412    P    10.301    20.614    -1.968
    413    O    10.977    21.637    -2.797
    414    O    10.856    20.382    -0.608
    415    O    8.795    21.142    -1.738
    416    C    7.994    21.532    -2.862
    417    H    8.040    20.816    -3.559
    418    H    8.241    22.463    -3.130
    419    C    6.510    21.623    -2.517
    420    H    5.989    22.000    -3.283
    421    O    6.005    20.335    -2.204
    422    C    4.930    20.469    -1.252
    423    H    4.092    20.179    -1.714
    424    N    5.256    19.639    -0.075
    425    C    4.358    19.105    0.824
    426    N    1.088    18.567    1.861
    427    H    0.529    18.130    2.580
    428    H    0.585    19.046    1.128
    429    N    3.011    19.203    0.759
    430    C    2.412    18.579    1.776
    431    N    3.086    17.918    2.770
    432    H    2.523    17.471    3.508
    433    C    4.460    17.804    2.859
    434    O    4.962    17.191    3.792
    435    C    5.110    18.462    1.781
    436    N    6.467    18.583    1.496
    437    C    6.481    19.279    0.404
    438    H    7.429    19.419    0.119
    439    C    4.830    21.953    -0.929
    440    H    4.696    22.053    0.057
    441    O    3.805    22.599    -1.696
    442    H    3.036    22.056    -1.884
    443    C    6.210    22.481    -1.298
    444    H    6.861    22.255    -0.573
    445    O    6.182    23.886    -1.570
    446    P    6.721    24.901    -0.442
    447    O    6.595    26.279    -0.959
    448    O    8.044    24.434    0.033
    449    O    5.688    24.729    0.787
    450    C    6.000    25.151    2.119
    451    H    6.078    26.148    2.135
    452    H    6.774    24.615    2.457
    453    C    4.863    24.839    3.090
    454    H    5.162    24.976    4.034
    455    O    3.787    25.727    2.812
    456    C    2.617    24.992    2.410
    457    H    1.885    25.276    3.029
    458    N    2.327    25.355    1.002
    459    C    3.230    25.103    0.009
    460    H    4.131    24.672    0.051
    461    C    2.968    25.448    -1.264
    462    H    3.480    25.357    -2.118
    463    C    1.113    25.970    0.731
    464    O    0.312    26.182    1.638
    465    N    0.840    26.322    -0.557
    466    C    1.720    26.080    -1.536
    467    N    1.425    26.443    -2.782
    468    H    0.540    26.895    -2.962
    469    H    2.074    26.270    -3.537
    470    C    2.893    23.499    2.615
    471    H    2.772    23.050    1.730
    472    O    2.065    22.930    3.634
    473    H    1.196    23.330    3.721
    474    C    4.358    23.405    3.022
    475    H    4.838    22.925    2.288
    476    O    4.473    22.834    4.334
    477    P    4.174    21.264    4.575
    478    O    4.898    20.851    5.798
    479    O    4.431    20.582    3.289
    480    O    2.585    21.211    4.877
    481    C    2.018    21.820    6.055
    482    H    2.170    22.808    6.016
    483    H    2.341    21.328    6.863
    484    C    0.489    21.678    6.116
    485    H    0.153    21.972    7.011
    486    O    -0.085    22.510    5.107
    487    C    -1.009    21.766    4.310
    488    H    -1.920    22.035    4.622
    489    N    -0.798    22.120    2.893
    490    C    -1.089    22.931    0.876
    491    N    0.227    22.477    0.926
    492    C    0.328    22.011    2.133
    493    H    1.251    21.651    2.267
    494    N    -3.114    23.855    0.151
    495    C    -3.621    23.589    1.354
    496    H    -4.562    23.797    1.620
    497    N    -2.996    23.022    2.382
    498    C    -1.719    22.715    2.067
    499    C    -1.841    23.542    -0.130
    500    N    -1.338    23.855    -1.321
    501    H    -1.927    24.324    -1.993
    502    H    -0.378    23.616    -1.525
    503    C    -0.807    20.291    4.590
    504    H    -0.229    19.920    3.863
    505    O    -2.058    19.611    4.716
    506    H    -2.766    19.960    4.170
    507    C    -0.039    20.248    5.906
    508    H    0.737    19.630    5.780
    509    O    -0.941    19.878    6.963
    510    P    -1.595    18.399    7.053
    511    O    -1.864    18.084    8.476
    512    O    -0.774    17.453    6.259
    513    O    -3.025    18.542    6.311
    514    C    -4.248    18.061    6.902
    515    H    -4.380    18.509    7.786
    516    H    -4.250    17.061    6.878
    517    C    -5.476    18.464    6.083
    518    H    -6.288    17.978    6.407
    519    O    -5.684    19.876    6.237
    520    C    -5.753    20.493    4.946
    521    H    -6.720    20.554    4.700
    522    N    -5.154    21.862    5.027
    523    C    -4.210    22.154    5.982
    524    H    -3.832    21.569    6.700
    525    C    -5.557    22.830    4.107
    526    O    -6.389    22.616    3.233
    527    N    -4.956    24.065    4.222
    528    H    -5.247    24.790    3.551
    529    C    -4.002    24.430    5.147
    530    O    -3.530    25.564    5.141
    531    C    -3.636    23.379    6.063
    532    H    -2.943    23.725    6.695
    533    C    -5.050    19.528    3.978
    534    H    -4.064    19.687    4.026
    535    O    -5.552    19.663    2.642
    536    H    -5.809    20.554    2.394
    537    C    -5.366    18.159    4.595
    538    H    -4.582    17.557    4.443
    539    O    -6.633    17.695    4.102
    540    P    -6.737    16.671    2.855
    541    O    -8.156    16.269    2.710
    542    O    -5.692    15.646    3.059
    543    O    -6.331    17.579    1.582
    544    C    -7.178    18.647    1.126
    545    H    -7.234    19.345    1.840
    546    H    -8.033    18.260    0.781
    547    C    -6.566    19.368    -0.075
    548    H    -7.206    20.051    -0.428
    549    O    -5.328    20.024    0.283
    550    C    -4.652    20.298    -0.944
    551    H    -4.870    21.245    -1.179
    552    N    -3.208    20.123    -0.716
    553    C    -1.029    20.271    -0.905
    554    N    -1.267    19.500    0.233
    555    C    -2.565    19.453    0.286
    556    H    -2.839    18.914    1.082
    557    N    0.020    21.450    -2.636
    558    C    -1.188    21.754    -3.108
    559    H    -1.345    22.306    -3.927
    560    N    -2.359    21.394    -2.598
    561    C    -2.203    20.650    -1.486
    562    C    0.144    20.705    -1.528
    563    N    1.356    20.414    -1.077
    564    H    2.161    20.760    -1.579
    565    H    1.446    19.853    -0.242
    566    C    -5.234    19.371    -2.019
    567    H    -4.488    18.825    -2.400
    568    O    -5.937    20.113    -3.025
    569    H    -5.573    20.981    -3.217
    570    C    -6.169    18.453    -1.223
    571    H    -5.645    17.683    -0.859
    572    O    -7.311    18.136    -2.030
    573    P    -7.328    16.791    -2.920
    574    O    -8.566    16.755    -3.733
    575    O    -7.052    15.744    -1.919
    576    O    -6.062    16.915    -3.918
    577    C    -6.057    17.886    -4.971
    578    H    -6.272    18.784    -4.587
    579    H    -6.622    17.551    -5.725
    580    C    -4.675    18.071    -5.596
    581    H    -4.750    18.697    -6.372
    582    O    -3.744    18.625    -4.629
    583    C    -2.421    18.169    -4.983
    584    H    -1.917    18.980    -5.278
    585    N    -1.825    17.549    -3.784
    586    C    -0.397    16.771    -2.311
    587    N    -1.665    16.515    -1.796
    588    C    -2.453    16.992    -2.708
    589    H    -3.402    16.849    -2.426
    590    N    1.927    16.892    -2.590
    591    C    1.714    17.500    -3.759
    592    H    2.444    17.808    -4.369
    593    N    0.539    17.797    -4.306
    594    C    -0.482    17.399    -3.520
    595    C    0.888    16.511    -1.829
    596    N    1.114    15.926    -0.656
    597    H    2.068    15.779    -0.358
    598    H    0.327    15.643    -0.090
    599    C    -2.550    17.201    -6.170
    600    H    -1.983    16.396    -5.992
    601    O    -2.240    17.841    -7.410
    602    H    -1.547    18.504    -7.362
    603    C    -4.019    16.799    -6.100
    604    H    -4.124    16.083    -5.410
    605    O    -4.506    16.442    -7.405
    606    P    -4.392    14.915    -7.919
    607    O    -5.032    14.786    -9.248
    608    O    -4.860    14.068    -6.802
    609    O    -2.814    14.644    -8.117
    610    C    -2.046    15.428    -9.039
    611    H    -2.177    16.397    -8.830
    612    H    -2.241    15.119    -9.970
    613    C    -0.547    15.204    -8.872
    614    H    -0.032    15.738    -9.542
    615    O    -0.124    15.581    -7.544
    616    C    1.095    14.863    -7.270
    617    H    1.841    15.520    -7.376
    618    N    0.988    14.339    -5.891