!*** FMO 5.2 (Gamess) INPUT generated by Facio 21.1.1.32 ***
 $CONTRL RUNTYP=OPTFMO NPRINT=-5 ISPHER=-1 MAXIT=50 $END
 $SYSTEM MWORDS=29 $END
 $GDDI NGROUP=1 $END
 $INTGRL NINTIC=-9000000 $END
 $SCF DIRSCF=.FALSE. NPUNCH=0 $END
!*** NumCPU : 2  MemPerNode : 512MB
 $FMOPRP
    NAODIR=210
    NGRFMO(1)=1, 1, 0, 0, 0,   0, 0, 0, 0, 0
    NPRINT=9
 $END
 $FMO
      SCFTYP(1)=RHF
      MODGRD=10
      MODMUL=0
      MAXCAO=5
      MAXBND=34
      NLAYER=1
      NFRAG=32
      ICHARG(1)=-1, -1, -1, -1, -1, -1, -1, -1, -1, -1, 
-1, -1, -1, -1, -1, -1, -1, -1, -1, -1, 
-1, -1, -1, -1, -1, -1, -1, -1, -1, -1, 
-1, 0
      FRGNAM(1)=Frag1, Frag2, Frag3, Frag4, Frag5, Frag6, Frag7, Frag8, Frag9, Frag10, Frag11, Frag12, Frag13, Frag14, Frag15, Frag16, Frag17, Frag18, Frag19, Frag20, Frag21, Frag22, Frag23, Frag24, Frag25, Frag26, Frag27, Frag28, Frag29, Frag30, Frag31, Frag32
      indat(1)=0
               1   -36   0
               37   -69   0
               70   -103   0
               104   -134   0
               135   -167   0
               168   -201   0
               202   -231   0
               232   -261   0
               262   -292   0
               293   -323   0
               324   -354   0
               355   -385   0
               386   -415   0
               416   -449   0
               450   -480   0
               481   -513   0
               514   -543   0
               544   -576   0
               577   -609   0
               610   -643   0
               644   -677   0
               678   -710   0
               711   -740   0
               741   -774   0
               775   -807   0
               808   -840   0
               841   -871   0
               872   -902   0
               903   -936   0
               937   -966   0
               967   -996   0
               997   -1024   0
 $END

 $FMOBND
   -37   36       3-21G    MINI
   -70   69       3-21G    MINI
   -104   103       3-21G    MINI
   -135   134       3-21G    MINI
   -168   167       3-21G    MINI
   -202   201       3-21G    MINI
   -232   231       3-21G    MINI
   -262   261       3-21G    MINI
   -293   292       3-21G    MINI
   -324   323       3-21G    MINI
   -355   354       3-21G    MINI
   -386   385       3-21G    MINI
   -416   415       3-21G    MINI
   -450   449       3-21G    MINI
   -481   480       3-21G    MINI
   -514   513       3-21G    MINI
   -544   543       3-21G    MINI
   -577   576       3-21G    MINI
   -610   609       3-21G    MINI
   -644   643       3-21G    MINI
   -678   677       3-21G    MINI
   -711   710       3-21G    MINI
   -741   740       3-21G    MINI
   -775   774       3-21G    MINI
   -808   807       3-21G    MINI
   -841   840       3-21G    MINI
   -872   871       3-21G    MINI
   -903   902       3-21G    MINI
   -937   936       3-21G    MINI
   -967   966       3-21G    MINI
   -997   996       3-21G    MINI
 $END
 $FMOHYB
 3-21G        9   5
   1 0  -0.070459   0.164841   0.000000   0.000000   0.502116
         0.466939   0.000000   0.000000   0.418036
   0 1  -0.070465   0.164857   0.473392   0.000000  -0.167359
         0.466967   0.394111   0.000000  -0.139327
   0 1  -0.070465   0.164857  -0.236695  -0.409969  -0.167359
         0.466967  -0.197055  -0.341311  -0.139327
   0 1  -0.070465   0.164857  -0.236695   0.409969  -0.167359
         0.466967  -0.197055   0.341311  -0.139327
   0 1   1.006716   0.074826   0.000000   0.000000   0.000000
        -0.143830   0.000000   0.000000  -0.000003
 MINI         5   5
   1 0  -0.104883   0.308874   0.000000   0.000000   0.521806
   0 1  -0.104883   0.308874   0.491961   0.000000  -0.173934
   0 1  -0.104883   0.308876  -0.245980  -0.426050  -0.173933
   0 1  -0.104883   0.308876  -0.245980   0.426050  -0.173933
   0 1   0.988209   0.063992   0.000000   0.000000   0.000000
 $END

 $DATA
 FMO calculation : XXNAMEXX
 C1 
 C.1-1    6
      N21 3
   
 O.1-1    8
      N21 3
   
 N.1-1    7
      N21 3
   
 H.1-1    1
      N21 3
   
 P.1-1   15
      N21 3
   
 $END
 $FMOXYZ
    1    H    6.793    -19.340    -5.397
    2    O    5.892    -19.131    -5.776
    3    C    5.842    -19.582    -7.135
    4    H    5.919    -20.579    -7.150
    5    H    6.494    -19.053    -7.678
    6    C    4.489    -19.297    -7.785
    7    H    4.517    -19.522    -8.759
    8    O    3.463    -20.051    -7.168
    9    C    2.212    -19.419    -7.509
    10    H    1.867    -19.888    -8.322
    11    N    1.300    -19.571    -6.353
    12    C    -0.075    -19.502    -6.385
    13    N    -3.030    -19.122    -8.166
    14    H    -4.035    -19.089    -8.068
    15    H    -2.665    -19.016    -9.102
    16    N    -0.836    -19.310    -7.488
    17    C    -2.139    -19.289    -7.199
    18    N    -2.645    -19.442    -5.934
    19    H    -3.669    -19.408    -5.826
    20    C    -1.892    -19.638    -4.792
    21    O    -2.448    -19.761    -3.704
    22    C    -0.499    -19.664    -5.084
    23    N    0.590    -19.838    -4.233
    24    C    1.607    -19.773    -5.036
    25    H    2.448    -19.889    -4.507
    26    C    2.523    -17.964    -7.868
    27    H    2.055    -17.374    -7.210
    28    O    2.156    -17.651    -9.218
    29    H    1.387    -18.121    -9.548
    30    C    4.026    -17.853    -7.652
    31    H    4.191    -17.543    -6.716
    32    O    4.655    -16.991    -8.613
    33    P    4.916    -15.419    -8.341
    34    O    5.661    -14.868    -9.490
    35    O    5.446    -15.227    -6.976
    36    O    3.430    -14.819    -8.378
    37    C    2.666    -14.930    -9.580
    38    H    2.644    -15.888    -9.864
    39    H    2.995    -14.253    -10.239
    40    C    1.202    -14.568    -9.372
    41    H    0.732    -14.595    -10.254
    42    O    0.571    -15.509    -8.473
    43    C    -0.649    -14.870    -8.047
    44    H    -1.349    -15.106    -8.721
    45    N    -0.986    -15.378    -6.701
    46    C    -2.092    -16.085    -4.940
    47    N    -0.750    -16.069    -4.573
    48    C    -0.157    -15.644    -5.648
    49    H    0.827    -15.596    -5.479
    50    N    -4.423    -16.333    -4.906
    51    C    -4.446    -15.910    -6.171
    52    H    -5.282    -15.813    -6.711
    53    N    -3.404    -15.553    -6.918
    54    C    -2.248    -15.667    -6.231
    55    C    -3.255    -16.435    -4.250
    56    N    -3.248    -16.862    -2.990
    57    H    -4.125    -17.102    -2.549
    58    H    -2.366    -16.936    -2.503
    59    C    -0.398    -13.362    -8.096
    60    H    -0.332    -13.041    -7.151
    61    O    -1.401    -12.681    -8.854
    62    H    -2.274    -13.078    -8.819
    63    C    0.954    -13.194    -8.771
    64    H    1.641    -13.018    -8.066
    65    O    0.892    -12.198    -9.806
    66    P    0.733    -10.626    -9.464
    67    O    0.997    -9.848    -10.693
    68    O    1.490    -10.315    -8.232
    69    O    -0.837    -10.500    -9.137
    70    C    -1.805    -10.711    -10.169
    71    H    -1.638    -11.600    -10.596
    72    H    -1.832    -9.905    -10.760
    73    C    -3.215    -10.818    -9.608
    74    H    -3.894    -10.978    -10.324
    75    O    -3.276    -11.886    -8.662
    76    C    -4.511    -11.766    -7.923
    77    H    -5.203    -12.344    -8.355
    78    N    -4.230    -12.153    -6.526
    79    C    -5.160    -12.324    -5.529
    80    N    -8.462    -12.309    -4.458
    81    H    -9.050    -12.458    -3.650
    82    H    -8.931    -12.061    -5.317
    83    N    -6.500    -12.177    -5.658
    84    C    -7.141    -12.404    -4.512
    85    N    -6.518    -12.749    -3.341
    86    H    -7.114    -12.906    -2.516
    87    C    -5.154    -12.903    -3.180
    88    O    -4.699    -13.212    -2.083
    89    C    -4.454    -12.663    -4.395
    90    N    -3.088    -12.710    -4.669
    91    C    -3.027    -12.403    -5.928
    92    H    -2.070    -12.412    -6.219
    93    C    -4.878    -10.293    -8.149
    94    H    -5.042    -9.891    -7.248
    95    O    -5.982    -10.150    -9.048
    96    H    -6.622    -10.865    -9.021
    97    C    -3.654    -9.641    -8.766
    98    H    -2.959    -9.461    -8.070
    99    O    -4.025    -8.528    -9.590
    100    P    -3.871    -7.021    -9.034
    101    O    -4.294    -6.081    -10.096
    102    O    -2.527    -6.890    -8.422
    103    O    -4.979    -6.984    -7.865
    104    C    -6.368    -7.025    -8.206
    105    H    -6.545    -7.843    -8.753
    106    H    -6.636    -6.140    -8.587
    107    C    -7.253    -7.192    -6.978
    108    H    -8.217    -7.132    -7.237
    109    O    -7.019    -8.453    -6.347
    110    C    -7.442    -8.325    -4.978
    111    H    -8.308    -8.820    -4.901
    112    N    -6.376    -8.895    -4.132
    113    C    -5.082    -8.942    -4.565
    114    H    -4.681    -8.667    -5.439
    115    C    -4.110    -9.417    -3.768
    116    H    -3.124    -9.537    -3.885
    117    C    -6.731    -9.337    -2.868
    118    O    -7.904    -9.299    -2.507
    119    N    -5.753    -9.816    -2.055
    120    C    -4.480    -9.863    -2.466
    121    N    -3.542    -10.306    -1.636
    122    H    -3.811    -10.599    -0.708
    123    H    -2.576    -10.350    -1.926
    124    C    -7.693    -6.836    -4.713
    125    H    -7.221    -6.578    -3.870
    126    O    -9.091    -6.525    -4.698
    127    H    -9.655    -7.212    -4.336
    128    C    -7.003    -6.169    -5.890
    129    H    -6.020    -6.116    -5.713
    130    O    -7.696    -4.963    -6.241
    131    P    -7.214    -3.569    -5.603
    132    O    -7.985    -2.480    -6.249
    133    O    -5.728    -3.563    -5.642
    134    O    -7.704    -3.703    -4.074
    135    C    -9.104    -3.710    -3.761
    136    H    -9.533    -4.497    -4.205
    137    H    -9.483    -2.803    -3.945
    138    C    -9.356    -3.931    -2.274
    139    H    -10.325    -3.854    -2.040
    140    O    -8.868    -5.254    -1.862
    141    C    -8.665    -5.177    -0.435
    142    H    -9.433    -5.657    -0.011
    143    N    -7.373    -5.832    -0.139
    144    C    -5.747    -6.908    0.871
    145    N    -5.307    -6.676    -0.431
    146    C    -6.305    -6.041    -0.968
    147    H    -6.080    -5.825    -1.918
    148    N    -5.863    -7.595    3.106
    149    C    -7.080    -7.058    3.168
    150    H    -7.652    -7.066    3.988
    151    N    -7.734    -6.436    2.189
    152    C    -6.999    -6.398    1.060
    153    C    -5.157    -7.542    1.968
    154    N    -3.945    -8.086    1.927
    155    H    -3.579    -8.530    2.757
    156    H    -3.418    -8.043    1.067
    157    C    -8.727    -3.694    -0.046
    158    H    -7.936    -3.484    0.529
    159    O    -9.969    -3.356    0.581
    160    H    -10.351    -4.049    1.124
    161    C    -8.570    -2.986    -1.384
    162    H    -7.610    -3.000    -1.662
    163    O    -9.108    -1.658    -1.382
    164    P    -8.167    -0.381    -1.086
    165    O    -9.001    0.832    -1.212
    166    O    -6.903    -0.492    -1.844
    167    O    -7.835    -0.634    0.462
    168    C    -8.932    -0.723    1.372
    169    H    -9.660    -1.264    0.952
    170    H    -9.159    0.194    1.699
    171    C    -8.584    -1.492    2.639
    172    H    -9.366    -1.729    3.215
    173    O    -7.896    -2.679    2.283
    174    C    -7.169    -3.146    3.440
    175    H    -7.703    -3.885    3.851
    176    N    -5.844    -3.610    2.974
    177    C    -4.897    -4.255    3.736
    178    N    -3.861    -5.568    6.779
    179    H    -3.097    -6.045    7.236
    180    H    -4.664    -5.352    7.352
    181    N    -5.009    -4.568    5.048
    182    C    -3.923    -5.195    5.509
    183    N    -2.825    -5.485    4.743
    184    H    -2.041    -5.970    5.203
    185    C    -2.685    -5.178    3.401
    186    O    -1.662    -5.494    2.802
    187    C    -3.835    -4.509    2.897
    188    N    -4.099    -4.029    1.615
    189    C    -5.286    -3.516    1.731
    190    H    -5.565    -3.139    0.848
    191    C    -7.137    -1.956    4.406
    192    H    -6.200    -1.816    4.725
    193    O    -8.054    -2.115    5.495
    194    H    -8.159    -3.016    5.808
    195    C    -7.520    -0.813    3.477
    196    H    -6.743    -0.582    2.892
    197    O    -7.993    0.367    4.135
    198    P    -7.051    1.662    4.333
    199    O    -7.921    2.751    4.822
    200    O    -6.178    1.863    3.162
    201    O    -6.125    1.097    5.510
    202    C    -6.792    0.668    6.697
    203    H    -7.516    0.024    6.449
    204    H    -7.044    1.471    7.237
    205    C    -5.873    -0.129    7.611
    206    H    -6.274    -0.417    8.481
    207    O    -5.423    -1.264    6.917
    208    C    -4.123    -1.650    7.414
    209    H    -4.227    -2.530    7.876
    210    N    -3.207    -1.729    6.250
    211    C    -3.504    -1.086    5.078
    212    H    -4.306    -0.537    4.841
    213    C    -2.037    -2.453    6.393
    214    O    -1.745    -3.038    7.429
    215    N    -1.203    -2.477    5.294
    216    H    -0.325    -3.008    5.384
    217    C    -1.427    -1.859    4.082
    218    O    -0.607    -1.949    3.176
    219    C    -2.669    -1.127    4.016
    220    H    -2.753    -0.710    3.111
    221    C    -3.758    -0.586    8.447
    222    H    -2.783    -0.372    8.394
    223    O    -4.160    -0.962    9.770
    224    H    -4.057    -1.894    9.975
    225    C    -4.552    0.576    7.869
    226    H    -4.157    0.857    6.995
    227    O    -4.654    1.780    8.636
    228    P    -3.845    3.137    8.281
    229    O    -4.352    4.206    9.165
    230    O    -3.734    3.349    6.829
    231    O    -2.416    2.614    8.762
    232    C    -2.397    2.094    10.087
    233    H    -3.107    1.395    10.172
    234    H    -2.409    2.855    10.736
    235    C    -1.108    1.357    10.401
    236    H    -1.030    1.007    11.334
    237    O    -0.988    0.284    9.497
    238    C    0.409    -0.059    9.344
    239    H    0.553    -0.936    9.803
    240    N    0.688    -0.164    7.890
    241    C    -0.140    0.427    6.972
    242    H    -0.990    0.934    7.119
    243    C    1.832    -0.834    7.490
    244    O    2.588    -1.378    8.288
    245    N    2.080    -0.860    6.134
    246    H    2.928    -1.353    5.821
    247    C    1.301    -0.288    5.149
    248    O    1.628    -0.371    3.970
    249    C    0.125    0.386    5.647
    250    H    -0.383    0.767    4.875
    251    C    1.184    1.033    10.098
    252    H    1.984    1.315    9.568
    253    O    1.549    0.586    11.406
    254    H    1.796    -0.340    11.464
    255    C    0.136    2.148    10.050
    256    H    0.051    2.490    9.114
    257    O    0.305    3.415    10.708
    258    P    0.722    4.864    10.096
    259    O    0.604    5.900    11.140
    260    O    0.175    5.093    8.759
    261    O    2.243    4.492    9.844
    262    C    2.876    3.913    10.981
    263    H    2.311    3.160    11.320
    264    H    3.122    4.640    11.622
    265    C    4.195    3.265    10.617
    266    H    4.695    2.822    11.362
    267    O    3.961    2.301    9.571
    268    C    5.190    2.026    8.867
    269    H    5.555    1.151    9.186
    270    N    4.876    1.981    7.419
    271    C    3.750    2.575    6.923
    272    H    3.018    3.065    7.396
    273    C    3.485    2.558    5.604
    274    H    2.736    2.923    5.050
    275    C    5.778    1.342    6.578
    276    O    6.790    0.817    7.040
    277    N    5.519    1.321    5.243
    278    C    4.419    1.902    4.748
    279    N    4.199    1.869    3.438
    280    H    4.869    1.404    2.842
    281    H    3.376    2.301    3.042
    282    C    6.105    3.158    9.358
    283    H    6.601    3.530    8.573
    284    O    7.003    2.694    10.373
    285    H    7.292    1.784    10.273
    286    C    5.107    4.202    9.857
    287    H    4.601    4.599    9.092
    288    O    5.552    5.366    10.572
    289    P    5.535    6.890    10.022
    290    O    5.960    7.801    11.098
    291    O    4.325    7.180    9.242
    292    O    6.694    6.716    8.945
    293    C    7.922    6.192    9.444
    294    H    7.729    5.385    10.002
    295    H    8.448    6.934    9.860
    296    C    8.798    5.682    8.318
    297    H    9.669    5.276    8.595
    298    O    8.063    4.728    7.560
    299    C    8.541    4.740    6.199
    300    H    8.976    3.858    6.019
    301    N    7.360    4.966    5.328
    302    C    6.204    5.479    5.842
    303    H    5.985    5.760    6.776
    304    C    5.129    5.679    5.061
    305    H    4.211    6.033    5.237
    306    C    7.463    4.639    3.980
    307    O    8.514    4.188    3.533
    308    N    6.376    4.839    3.180
    309    C    5.239    5.341    3.680
    310    N    4.193    5.520    2.879
    311    H    4.277    5.272    1.903
    312    H    3.327    5.897    3.238
    313    C    9.611    5.836    6.182
    314    H    9.589    6.322    5.308
    315    O    10.908    5.315    6.492
    316    H    11.091    4.444    6.132
    317    C    9.048    6.742    7.267
    318    H    8.172    7.129    6.980
    319    O    9.846    7.849    7.708
    320    P    9.429    9.379    7.411
    321    O    10.214    10.295    8.259
    322    O    7.964    9.512    7.339
    323    O    9.974    9.455    5.917
    324    C    11.368    9.219    5.745
    325    H    11.597    8.326    6.132
    326    H    11.876    10.016    6.072
    327    C    11.739    9.106    4.279
    328    H    12.722    9.000    4.129
    329    O    11.054    7.968    3.723
    330    C    10.833    8.227    2.324
    331    H    11.356    7.548    1.809
    332    N    9.374    8.101    2.077
    333    C    8.484    8.226    3.104
    334    H    8.642    8.401    4.076
    335    C    7.161    8.115    2.889
    336    H    6.362    8.172    3.488
    337    C    8.943    7.854    0.777
    338    O    9.756    7.753    -0.138
    339    N    7.603    7.741    0.550
    340    C    6.724    7.863    1.555
    341    N    5.423    7.750    1.301
    342    H    5.124    7.574    0.352
    343    H    4.743    7.838    2.043
    344    C    11.428    9.618    2.065
    345    H    10.858    10.102    1.401
    346    O    12.793    9.533    1.643
    347    H    12.999    8.777    1.088
    348    C    11.256    10.266    3.432
    349    H    10.288    10.428    3.623
    350    O    11.958    11.505    3.636
    351    P    11.207    12.938    3.716
    352    O    12.112    13.991    4.210
    353    O    9.894    12.768    4.359
    354    O    10.952    13.225    2.164
    355    C    12.070    13.368    1.287
    356    H    12.644    12.552    1.356
    357    H    12.498    14.257    1.447
    358    C    11.636    13.409    -0.173
    359    H    12.406    13.511    -0.803
    360    O    10.949    12.179    -0.467
    361    C    10.031    12.417    -1.548
    362    H    10.382    11.931    -2.348
    363    N    8.704    11.896    -1.136
    364    C    8.411    11.729    0.185
    365    H    8.968    11.911    0.995
    366    C    7.218    11.252    0.573
    367    H    6.815    11.060    1.468
    368    C    7.777    11.578    -2.123
    369    O    8.052    11.742    -3.310
    370    N    6.563    11.093    -1.738
    371    C    6.271    10.926    -0.442
    372    N    5.084    10.443    -0.094
    373    H    4.420    10.210    -0.819
    374    H    4.846    10.310    0.879
    375    C    10.088    13.924    -1.816
    376    H    9.155    14.254    -1.963
    377    O    10.924    14.223    -2.938
    378    H    10.926    13.558    -3.630
    379    C    10.612    14.489    -0.501
    380    H    9.891    14.475    0.192
    381    O    11.057    15.861    -0.543
    382    P    10.181    17.141    -0.066
    383    O    10.940    18.394    -0.207
    384    O    9.549    16.853    1.226
    385    O    9.015    17.192    -1.154
    386    C    9.329    17.422    -2.528
    387    H    10.035    16.773    -2.814
    388    H    9.506    18.397    -2.663
    389    C    8.155    17.126    -3.452
    390    H    8.445    17.198    -4.406
    391    O    7.690    15.814    -3.210
    392    C    6.348    15.747    -3.717
    393    H    6.398    15.278    -4.598
    394    N    5.526    14.988    -2.747
    395    C    5.930    14.847    -1.448
    396    H    6.758    15.183    -0.999
    397    C    4.337    14.441    -3.194
    398    O    3.953    14.552    -4.354
    399    N    3.593    13.760    -2.253
    400    H    2.701    13.350    -2.565
    401    C    3.926    13.572    -0.928
    402    O    3.184    12.937    -0.183
    403    C    5.182    14.173    -0.545
    404    H    5.346    13.994    0.425
    405    C    5.880    17.186    -3.945
    406    H    5.016    17.308    -3.456
    407    O    5.750    17.489    -5.339
    408    H    5.490    16.749    -5.892
    409    C    6.949    18.042    -3.282
    410    H    6.749    18.139    -2.307
    411    O    7.019    19.339    -3.907
    412    P    6.255    20.657    -3.348
    413    O    6.346    21.753    -4.331
    414    O    6.722    20.902    -1.973
    415    O    4.703    20.256    -3.256
    416    C    3.863    20.128    -4.408
    417    H    4.301    19.514    -5.064
    418    H    3.601    21.040    -4.723
    419    C    2.534    19.446    -4.083
    420    H    1.963    19.420    -4.903
    421    O    2.762    18.118    -3.637
    422    C    1.715    17.737    -2.721
    423    H    1.198    17.001    -3.157
    424    N    2.344    17.325    -1.449
    425    C    1.803    16.480    -0.505
    426    N    -0.746    14.368    0.546
    427    H    -1.038    13.768    1.304
    428    H    -1.371    14.431    -0.245
    429    N    0.620    15.832    -0.599
    430    C    0.370    15.081    0.477
    431    N    1.216    14.982    1.552
    432    H    0.924    14.375    2.331
    433    C    2.429    15.633    1.671
    434    O    3.109    15.475    2.677
    435    C    2.708    16.433    0.531
    436    N    3.809    17.237    0.252
    437    C    3.532    17.726    -0.915
    438    H    4.279    18.326    -1.202
    439    C    0.816    18.954    -2.575
    440    H    0.576    19.052    -1.609
    441    O    -0.334    18.875    -3.428
    442    H    -0.676    17.989    -3.567
    443    C    1.718    20.111    -2.982
    444    H    2.325    20.345    -2.223
    445    O    0.898    21.197    -3.427
    446    P    0.598    22.419    -2.417
    447    O    -0.275    23.396    -3.098
    448    O    1.911    22.839    -1.885
    449    O    -0.232    21.770    -1.197
    450    C    -0.293    22.427    0.072
    451    H    -0.790    23.288    -0.031
    452    H    0.626    22.460    0.466
    453    C    -1.109    21.648    1.100
    454    H    -0.966    22.034    2.012
    455    O    -2.488    21.753    0.764
    456    C    -3.033    20.457    0.460
    457    H    -3.826    20.342    1.059
    458    N    -3.411    20.462    -0.972
    459    C    -2.476    20.661    -1.948
    460    H    -1.490    20.809    -1.877
    461    C    -2.829    20.680    -3.246
    462    H    -2.315    20.808    -4.094
    463    C    -4.749    20.270    -1.286
    464    O    -5.572    20.086    -0.393
    465    N    -5.114    20.288    -2.599
    466    C    -4.204    20.484    -3.562
    467    N    -4.595    20.502    -4.834
    468    H    -5.573    20.367    -5.046
    469    H    -3.927    20.648    -5.577
    470    C    -1.983    19.398    0.814
    471    H    -1.791    18.878    -0.018
    472    O    -2.400    18.563    1.899
    473    H    -3.347    18.414    1.955
    474    C    -0.736    20.179    1.210
    475    H    -0.031    19.971    0.532
    476    O    -0.422    19.914    2.584
    477    P    0.218    18.485    2.978
    478    O    0.984    18.660    4.236
    479    O    0.886    17.974    1.756
    480    O    -1.074    17.552    3.285
    481    C    -1.944    17.763    4.420
    482    H    -2.411    18.641    4.313
    483    H    -1.426    17.607    5.261
    484    C    -3.096    16.747    4.510
    485    H    -3.586    16.835    5.377
    486    O    -3.996    17.029    3.436
    487    C    -4.275    15.841    2.694
    488    H    -5.185    15.543    2.981
    489    N    -4.253    16.158    1.253
    490    C    -4.876    16.510    -0.822
    491    N    -3.547    16.920    -0.740
    492    C    -3.244    16.682    0.499
    493    H    -2.291    16.942    0.657
    494    N    -7.024    16.017    -1.612
    495    C    -7.331    15.583    -0.389
    496    H    -8.226    15.214    -0.137
    497    N    -6.537    15.561    0.678
    498    C    -5.311    16.042    0.385
    499    C    -5.798    16.494    -1.871
    500    N    -5.522    16.965    -3.084
    501    H    -6.245    16.954    -3.790
    502    H    -4.596    17.323    -3.271
    503    C    -3.263    14.784    3.086
    504    H    -2.546    14.782    2.389
    505    O    -3.884    13.511    3.266
    506    H    -4.640    13.345    2.699
    507    C    -2.673    15.267    4.403
    508    H    -1.677    15.218    4.324
    509    O    -3.178    14.455    5.478
    510    P    -2.819    12.881    5.670
    511    O    -2.890    12.552    7.108
    512    O    -1.572    12.582    4.939
    513    O    -4.018    12.097    4.929
    514    C    -4.724    11.015    5.559
    515    H    -5.123    11.342    6.416
    516    H    -4.127    10.214    5.595
    517    C    -5.924    10.564    4.722
    518    H    -6.292    9.713    5.096
    519    O    -6.937    11.579    4.786
    520    C    -7.312    11.965    3.458
    521    H    -8.120    11.430    3.213
    522    N    -7.639    13.426    3.447
    523    C    -7.083    14.271    4.377
    524    H    -6.458    14.062    5.130
    525    C    -8.504    13.917    2.468
    526    O    -9.019    13.206    1.614
    527    N    -8.750    15.273    2.500
    528    H    -9.389    15.649    1.784
    529    C    -8.227    16.181    3.395
    530    O    -8.514    17.372    3.313
    531    C    -7.344    15.600    4.376
    532    H    -7.010    16.322    4.982
    533    C    -6.143    11.549    2.552
    534    H    -5.438    12.257    2.591
    535    O    -6.582    11.290    1.213
    536    H    -7.302    11.847    0.908
    537    C    -5.623    10.287    3.253
    538    H    -4.632    10.240    3.127
    539    O    -6.372    9.151    2.786
    540    P    -5.820    8.209    1.591
    541    O    -6.728    7.045    1.468
    542    O    -4.373    7.988    1.814
    543    O    -5.998    9.115    0.262
    544    C    -7.294    9.444    -0.267
    545    H    -7.784    10.006    0.399
    546    H    -7.736    8.607    -0.590
    547    C    -7.180    10.326    -1.510
    548    H    -8.097    10.474    -1.880
    549    O    -6.585    11.608    -1.199
    550    C    -6.166    12.162    -2.445
    551    H    -6.895    12.782    -2.735
    552    N    -4.904    12.884    -2.215
    553    C    -3.227    14.280    -2.424
    554    N    -3.001    13.576    -1.241
    555    C    -4.022    12.775    -1.178
    556    H    -3.950    12.220    -0.349
    557    N    -3.022    15.759    -4.228
    558    C    -4.161    15.267    -4.710
    559    H    -4.588    15.577    -5.560
    560    N    -4.910    14.313    -4.174
    561    C    -4.380    13.862    -3.020
    562    C    -2.517    15.289    -3.077
    563    N    -1.381    15.793    -2.616
    564    H    -0.919    16.521    -3.142
    565    H    -1.003    15.437    -1.749
    566    C    -6.054    11.014    -3.457
    567    H    -5.112    10.990    -3.792
    568    O    -7.026    11.146    -4.503
    569    H    -7.239    12.050    -4.747
    570    C    -6.321    9.754    -2.628
    571    H    -5.460    9.423    -2.241
    572    O    -7.091    8.868    -3.455
    573    P    -6.312    7.727    -4.289
    574    O    -7.283    6.979    -5.126
    575    O    -5.508    7.017    -3.264
    576    O    -5.313    8.528    -5.288
    577    C    -5.781    9.234    -6.448
    578    H    -6.495    9.878    -6.171
    579    H    -5.999    8.573    -7.166
    580    C    -4.707    10.123    -7.079
    581    H    -5.087    10.536    -7.907
    582    O    -4.342    11.180    -6.147
    583    C    -2.978    11.553    -6.423
    584    H    -3.008    12.486    -6.781
    585    N    -2.218    11.475    -5.160
    586    C    -0.705    11.760    -3.594
    587    N    -1.631    10.854    -3.081
    588    C    -2.485    10.730    -4.048
    589    H    -3.198    10.085    -3.772
    590    N    1.143    13.178    -3.839
    591    C    0.702    13.476    -5.063
    592    H    1.165    14.108    -5.685
    593    N    -0.391    13.006    -5.657
    594    C    -1.053    12.144    -4.857
    595    C    0.461    12.319    -3.066
    596    N    0.900    12.048    -1.840
    597    H    1.743    12.496    -1.512
    598    H    0.380    11.400    -1.266
    599    C    -2.448    10.614    -7.519
    600    H    -1.539    10.301    -7.246
    601    O    -2.473    11.243    -8.802
    602    H    -2.306    12.188    -8.793
    603    C    -3.411    9.433    -7.485
    604    H    -3.135    8.804    -6.758
    605    O    -3.472    8.848    -8.803
    606    P    -2.478    7.636    -9.224
    607    O    -2.798    7.131    -10.577
    608    O    -2.512    6.699    -8.082
    609    O    -0.995    8.269    -9.313
    610    C    -0.560    9.187    -10.329
    611    H    -1.136    10.004    -10.298
    612    H    -0.486    8.699    -11.199
    613    C    0.852    9.713    -10.073
    614    H    1.110    10.346    -10.803
    615    O    0.802    10.436    -8.817
    616    C    2.147    10.510    -8.312
    617    H    2.462    11.449    -8.450
    618    N    2.135    10.171    -6.867