!*** FMO 5.2 (Gamess) INPUT generated by Facio 21.1.1.32 ***
 $CONTRL RUNTYP=OPTFMO NPRINT=-5 ISPHER=-1 MAXIT=50 $END
 $SYSTEM MWORDS=29 $END
 $GDDI NGROUP=1 $END
 $INTGRL NINTIC=-9000000 $END
 $SCF DIRSCF=.FALSE. NPUNCH=0 $END
!*** NumCPU : 2  MemPerNode : 512MB
 $FMOPRP
    NAODIR=210
    NGRFMO(1)=1, 1, 0, 0, 0,   0, 0, 0, 0, 0
    NPRINT=9
 $END
 $FMO
      SCFTYP(1)=RHF
      MODGRD=10
      MODMUL=0
      MAXCAO=5
      MAXBND=34
      NLAYER=1
      NFRAG=32
      ICHARG(1)=-1, -1, -1, -1, -1, -1, -1, -1, -1, -1, 
-1, -1, -1, -1, -1, -1, -1, -1, -1, -1, 
-1, -1, -1, -1, -1, -1, -1, -1, -1, -1, 
-1, 0
      FRGNAM(1)=Frag1, Frag2, Frag3, Frag4, Frag5, Frag6, Frag7, Frag8, Frag9, Frag10, Frag11, Frag12, Frag13, Frag14, Frag15, Frag16, Frag17, Frag18, Frag19, Frag20, Frag21, Frag22, Frag23, Frag24, Frag25, Frag26, Frag27, Frag28, Frag29, Frag30, Frag31, Frag32
      indat(1)=0
               1   -36   0
               37   -69   0
               70   -103   0
               104   -134   0
               135   -167   0
               168   -201   0
               202   -231   0
               232   -261   0
               262   -292   0
               293   -323   0
               324   -354   0
               355   -385   0
               386   -415   0
               416   -449   0
               450   -480   0
               481   -513   0
               514   -543   0
               544   -576   0
               577   -609   0
               610   -643   0
               644   -677   0
               678   -710   0
               711   -740   0
               741   -774   0
               775   -807   0
               808   -840   0
               841   -871   0
               872   -902   0
               903   -936   0
               937   -966   0
               967   -996   0
               997   -1024   0
 $END

 $FMOBND
   -37   36       3-21G    MINI
   -70   69       3-21G    MINI
   -104   103       3-21G    MINI
   -135   134       3-21G    MINI
   -168   167       3-21G    MINI
   -202   201       3-21G    MINI
   -232   231       3-21G    MINI
   -262   261       3-21G    MINI
   -293   292       3-21G    MINI
   -324   323       3-21G    MINI
   -355   354       3-21G    MINI
   -386   385       3-21G    MINI
   -416   415       3-21G    MINI
   -450   449       3-21G    MINI
   -481   480       3-21G    MINI
   -514   513       3-21G    MINI
   -544   543       3-21G    MINI
   -577   576       3-21G    MINI
   -610   609       3-21G    MINI
   -644   643       3-21G    MINI
   -678   677       3-21G    MINI
   -711   710       3-21G    MINI
   -741   740       3-21G    MINI
   -775   774       3-21G    MINI
   -808   807       3-21G    MINI
   -841   840       3-21G    MINI
   -872   871       3-21G    MINI
   -903   902       3-21G    MINI
   -937   936       3-21G    MINI
   -967   966       3-21G    MINI
   -997   996       3-21G    MINI
 $END
 $FMOHYB
 3-21G        9   5
   1 0  -0.070459   0.164841   0.000000   0.000000   0.502116
         0.466939   0.000000   0.000000   0.418036
   0 1  -0.070465   0.164857   0.473392   0.000000  -0.167359
         0.466967   0.394111   0.000000  -0.139327
   0 1  -0.070465   0.164857  -0.236695  -0.409969  -0.167359
         0.466967  -0.197055  -0.341311  -0.139327
   0 1  -0.070465   0.164857  -0.236695   0.409969  -0.167359
         0.466967  -0.197055   0.341311  -0.139327
   0 1   1.006716   0.074826   0.000000   0.000000   0.000000
        -0.143830   0.000000   0.000000  -0.000003
 MINI         5   5
   1 0  -0.104883   0.308874   0.000000   0.000000   0.521806
   0 1  -0.104883   0.308874   0.491961   0.000000  -0.173934
   0 1  -0.104883   0.308876  -0.245980  -0.426050  -0.173933
   0 1  -0.104883   0.308876  -0.245980   0.426050  -0.173933
   0 1   0.988209   0.063992   0.000000   0.000000   0.000000
 $END

 $DATA
 FMO calculation : XXNAMEXX
 C1 
 C.1-1    6
      N21 3
   
 O.1-1    8
      N21 3
   
 N.1-1    7
      N21 3
   
 H.1-1    1
      N21 3
   
 P.1-1   15
      N21 3
   
 $END
 $FMOXYZ
    1    H    8.606    -21.297    -2.019
    2    O    7.799    -21.296    -2.610
    3    C    8.108    -21.994    -3.823
    4    H    8.287    -22.954    -3.609
    5    H    8.811    -21.486    -4.321
    6    C    6.916    -22.032    -4.778
    7    H    7.199    -22.432    -5.650
    8    O    5.849    -22.791    -4.249
    9    C    4.663    -22.410    -4.975
    10    H    4.568    -23.062    -5.727
    11    N    3.526    -22.467    -4.029
    12    C    2.197    -22.596    -4.362
    13    N    -0.285    -22.962    -6.760
    14    H    -1.283    -23.051    -6.883
    15    H    0.276    -22.980    -7.600
    16    N    1.699    -22.717    -5.615
    17    C    0.368    -22.824    -5.615
    18    N    -0.401    -22.811    -4.480
    19    H    -1.420    -22.900    -4.597
    20    C    0.082    -22.688    -3.191
    21    O    -0.698    -22.686    -2.242
    22    C    1.500    -22.574    -3.174
    23    N    2.373    -22.436    -2.097
    24    C    3.538    -22.379    -2.665
    25    H    4.240    -22.278    -1.960
    26    C    4.911    -21.015    -5.554
    27    H    4.256    -20.385    -5.137
    28    O    4.843    -21.005    -6.985
    29    H    4.217    -21.626    -7.365
    30    C    6.311    -20.666    -5.070
    31    H    6.233    -20.155    -4.214
    32    O    7.061    -20.044    -6.110
    33    P    7.147    -18.489    -6.422
    34    O    8.046    -18.174    -7.552
    35    O    7.413    -17.957    -5.078
    36    O    5.643    -18.133    -6.848
    37    C    5.125    -18.578    -8.105
    38    H    5.228    -19.571    -8.166
    39    H    5.519    -18.020    -8.835
    40    C    3.624    -18.348    -8.226
    41    H    3.320    -18.604    -9.143
    42    O    2.906    -19.141    -7.253
    43    C    1.589    -18.559    -7.182
    44    H    1.041    -18.999    -7.894
    45    N    1.052    -18.813    -5.830
    46    C    -0.301    -19.259    -4.158
    47    N    0.949    -19.028    -3.592
    48    C    1.695    -18.770    -4.624
    49    H    2.627    -18.585    -4.314
    50    N    -2.578    -19.739    -4.446
    51    C    -2.402    -19.587    -5.759
    52    H    -3.132    -19.691    -6.434
    53    N    -1.270    -19.282    -6.389
    54    C    -0.251    -19.131    -5.517
    55    C    -1.542    -19.582    -3.604
    56    N    -1.732    -19.741    -2.297
    57    H    -2.655    -19.978    -1.962
    58    H    -0.949    -19.621    -1.670
    59    C    1.741    -17.074    -7.517
    60    H    1.615    -16.560    -6.668
    61    O    0.847    -16.669    -8.557
    62    H    0.008    -17.136    -8.575
    63    C    3.179    -16.916    -7.982
    64    H    3.713    -16.533    -7.228
    65    O    3.230    -16.195    -9.216
    66    P    2.876    -14.645    -9.354
    67    O    3.275    -14.130    -10.682
    68    O    3.448    -14.068    -8.126
    69    O    1.273    -14.599    -9.255
    70    C    0.461    -15.068    -10.336
    71    H    0.717    -16.011    -10.550
    72    H    0.485    -14.396    -11.076
    73    C    -1.009    -15.154    -9.951
    74    H    -1.586    -15.494    -10.694
    75    O    -1.155    -16.013    -8.819
    76    C    -2.481    -15.830    -8.276
    77    H    -3.087    -16.526    -8.662
    78    N    -2.376    -15.916    -6.805
    79    C    -3.425    -15.947    -5.917
    80    N    -6.839    -15.931    -5.290
    81    H    -7.524    -15.955    -4.548
    82    H    -7.198    -15.887    -6.233
    83    N    -4.740    -15.914    -6.239
    84    C    -5.520    -15.951    -5.159
    85    N    -5.047    -16.018    -3.874
    86    H    -5.742    -16.047    -3.114
    87    C    -3.713    -16.050    -3.518
    88    O    -3.398    -16.107    -2.333
    89    C    -2.865    -16.009    -4.660
    90    N    -1.475    -16.022    -4.746
    91    C    -1.256    -15.966    -6.024
    92    H    -0.269    -15.971    -6.186
    93    C    -2.872    -14.459    -8.841
    94    H    -3.176    -13.897    -8.071
    95    O    -3.849    -14.566    -9.881
    96    H    -4.461    -15.300    -9.788
    97    C    -1.595    -13.868    -9.410
    98    H    -1.007    -13.525    -8.678
    99    O    -1.876    -12.921    -10.447
    100    P    -1.828    -11.338    -10.138
    101    O    -2.124    -10.624    -11.399
    102    O    -0.584    -11.039    -9.391
    103    O    -3.075    -11.138    -9.141
    104    C    -4.406    -11.309    -9.634
    105    H    -4.494    -12.226    -10.022
    106    H    -4.641    -10.530    -10.215
    107    C    -5.448    -11.273    -8.522
    108    H    -6.372    -11.313    -8.902
    109    O    -5.263    -12.376    -7.629
    110    C    -5.868    -12.013    -6.375
    111    H    -6.720    -12.532    -6.309
    112    N    -4.911    -12.352    -5.302
    113    C    -3.570    -12.411    -5.548
    114    H    -3.063    -12.288    -6.401
    115    C    -2.701    -12.669    -4.556
    116    H    -1.705    -12.756    -4.521
    117    C    -5.422    -12.560    -4.031
    118    O    -6.633    -12.517    -3.837
    119    N    -4.550    -12.818    -3.021
    120    C    -3.232    -12.874    -3.248
    121    N    -2.403    -13.095    -2.235
    122    H    -2.786    -13.217    -1.308
    123    H    -1.405    -13.141    -2.386
    124    C    -6.198    -10.518    -6.445
    125    H    -5.860    -10.077    -5.614
    126    O    -7.595    -10.290    -6.670
    127    H    -8.181    -10.927    -6.256
    128    C    -5.364    -10.052    -7.626
    129    H    -4.415    -9.926    -7.336
    130    O    -5.968    -8.917    -8.260
    131    P    -5.601    -7.422    -7.789
    132    O    -6.264    -6.491    -8.728
    133    O    -4.140    -7.322    -7.559
    134    O    -6.347    -7.318    -6.369
    135    C    -7.776    -7.382    -6.308
    136    H    -8.079    -8.261    -6.676
    137    H    -8.157    -6.549    -6.710
    138    C    -8.284    -7.377    -4.872
    139    H    -9.283    -7.346    -4.853
    140    O    -7.829    -8.574    -4.153
    141    C    -7.911    -8.246    -2.752
    142    H    -8.722    -8.710    -2.397
    143    N    -6.670    -8.733    -2.116
    144    C    -5.217    -9.491    -0.654
    145    N    -4.547    -9.439    -1.874
    146    C    -5.453    -8.985    -2.687
    147    H    -5.060    -8.909    -3.603
    148    N    -5.728    -9.811    1.609
    149    C    -6.960    -9.373    1.352
    150    H    -7.678    -9.293    2.043
    151    N    -7.443    -8.977    0.177
    152    C    -6.506    -9.062    -0.789
    153    C    -4.819    -9.886    0.626
    154    N    -3.596    -10.327    0.902
    155    H    -3.375    -10.598    1.850
    156    H    -2.915    -10.381    0.158
    157    C    -8.120    -6.729    -2.653
    158    H    -7.459    -6.368    -1.995
    159    O    -9.474    -6.397    -2.327
    160    H    -9.919    -7.026    -1.754
    161    C    -7.767    -6.218    -4.040
    162    H    -6.774    -6.163    -4.140
    163    O    -8.480    -5.021    -4.343
    164    P    -7.852    -3.597    -4.002
    165    O    -8.799    -2.567    -4.466
    166    O    -6.451    -3.592    -4.462
    167    O    -7.872    -3.623    -2.398
    168    C    -9.118    -3.700    -1.699
    169    H    -9.700    -4.380    -2.145
    170    H    -9.483    -2.776    -1.581
    171    C    -8.949    -4.222    -0.278
    172    H    -9.821    -4.467    0.146
    173    O    -8.112    -5.366    -0.305
    174    C    -7.600    -5.573    1.025
    175    H    -8.139    -6.302    1.446
    176    N    -6.171    -5.931    0.898
    177    C    -5.343    -6.343    1.918
    178    N    -4.831    -7.081    5.271
    179    H    -4.135    -7.392    5.933
    180    H    -5.751    -6.888    5.641
    181    N    -5.690    -6.481    3.219
    182    C    -4.668    -6.899    3.969
    183    N    -3.415    -7.157    3.478
    184    H    -2.699    -7.474    4.148
    185    C    -3.035    -7.026    2.154
    186    O    -1.886    -7.295    1.816
    187    C    -4.115    -6.580    1.343
    188    N    -4.156    -6.320    -0.025
    189    C    -5.384    -5.945    -0.217
    190    H    -5.512    -5.733    -1.186
    191    C    -7.876    -4.258    1.764
    192    H    -7.028    -3.968    2.207
    193    O    -8.968    -4.379    2.682
    194    H    -9.057    -5.241    3.095
    195    C    -8.214    -3.277    0.653
    196    H    -7.377    -2.963    0.204
    197    O    -9.098    -2.264    1.126
    198    P    -8.554    -0.841    1.580
    199    O    -9.704    0.049    1.820
    200    O    -7.506    -0.475    0.611
    201    O    -7.862    -1.180    2.987
    202    C    -8.655    -1.554    4.120
    203    H    -9.240    -2.325    3.868
    204    H    -9.092    -0.737    4.495
    205    C    -7.795    -2.085    5.261
    206    H    -8.335    -2.342    6.063
    207    O    -7.084    -3.210    4.809
    208    C    -5.855    -3.326    5.552
    209    H    -5.914    -4.155    6.109
    210    N    -4.746    -3.365    4.571
    211    C    -4.923    -2.904    3.295
    212    H    -5.741    -2.521    2.865
    213    C    -3.528    -3.869    4.991
    214    O    -3.343    -4.286    6.128
    215    N    -2.520    -3.870    4.050
    216    H    -1.604    -4.238    4.345
    217    C    -2.614    -3.426    2.748
    218    O    -1.643    -3.474    2.001
    219    C    -3.917    -2.918    2.392
    220    H    -3.900    -2.617    1.439
    221    C    -5.842    -2.110    6.472
    222    H    -4.909    -1.754    6.521
    223    O    -6.398    -2.400    7.758
    224    H    -6.225    -3.286    8.084
    225    C    -6.707    -1.123    5.714
    226    H    -6.221    -0.780    4.910
    227    O    -7.205    -0.093    6.585
    228    P    -6.488    1.370    6.549
    229    O    -7.275    2.294    7.400
    230    O    -6.162    1.763    5.152
    231    O    -5.103    1.050    7.309
    232    C    -5.131    0.630    8.677
    233    H    -5.734    -0.164    8.762
    234    H    -5.316    1.423    9.257
    235    C    -3.779    0.122    9.164
    236    H    -3.805    -0.188    10.114
    237    O    -3.373    -0.949    8.343
    238    C    -1.934    -1.054    8.374
    239    H    -1.704    -1.871    8.903
    240    N    -1.469    -1.134    6.971
    241    C    -2.277    -0.730    5.942
    242    H    -3.211    -0.374    5.967
    243    C    -0.191    -1.607    6.738
    244    O    0.549    -1.980    7.643
    245    N    0.212    -1.640    5.421
    246    H    1.162    -1.989    5.228
    247    C    -0.534    -1.250    4.328
    248    O    -0.065    -1.318    3.198
    249    C    -1.857    -0.773    4.658
    250    H    -2.329    -0.514    3.815
    251    C    -1.455    0.186    9.138
    252    H    -0.681    0.586    8.647
    253    O    -1.161    -0.113    10.504
    254    H    -0.788    -0.984    10.657
    255    C    -2.651    1.121    9.023
    256    H    -2.681    1.519    8.106
    257    O    -2.670    2.109    10.088
    258    P    -2.134    3.648    9.746
    259    O    -2.368    4.489    10.954
    260    O    -2.572    4.189    8.413
    261    O    -0.548    3.378    9.642
    262    C    0.133    2.809    10.769
    263    H    -0.332    1.966    11.039
    264    H    0.261    3.517    11.464
    265    C    1.544    2.367    10.413
    266    H    2.027    1.920    11.165
    267    O    1.481    1.462    9.291
    268    C    2.753    1.400    8.621
    269    H    3.221    0.559    8.892
    270    N    2.493    1.458    7.165
    271    C    1.311    1.940    6.681
    272    H    0.508    2.289    7.165
    273    C    1.085    2.000    5.358
    274    H    0.309    2.310    4.809
    275    C    3.495    1.016    6.312
    276    O    4.555    0.591    6.768
    277    N    3.275    1.073    4.973
    278    C    2.119    1.545    4.486
    279    N    1.939    1.594    3.171
    280    H    2.680    1.273    2.565
    281    H    1.076    1.946    2.781
    282    C    3.489    2.599    9.229
    283    H    3.917    3.097    8.474
    284    O    4.423    2.195    10.235
    285    H    4.822    1.333    10.095
    286    C    2.413    3.475    9.853
    287    H    1.902    3.963    9.145
    288    O    2.971    4.316    10.882
    289    P    3.282    5.886    10.544
    290    O    3.849    6.503    11.767
    291    O    2.125    6.544    9.868
    292    O    4.466    5.760    9.456
    293    C    5.713    5.150    9.815
    294    H    5.531    4.263    10.239
    295    H    6.263    5.810    10.326
    296    C    6.541    4.828    8.581
    297    H    7.402    4.360    8.780
    298    O    5.765    4.018    7.704
    299    C    6.185    4.249    6.346
    300    H    6.596    3.405    6.002
    301    N    4.980    4.651    5.582
    302    C    3.860    5.086    6.230
    303    H    3.687    5.207    7.208
    304    C    2.758    5.433    5.545
    305    H    1.856    5.767    5.820
    306    C    5.020    4.557    4.195
    307    O    6.040    4.173    3.631
    308    N    3.904    4.907    3.493
    309    C    2.802    5.333    4.122
    310    N    1.727    5.662    3.413
    311    H    1.763    5.584    2.407
    312    H    0.887    5.985    3.871
    313    C    7.272    5.317    6.470
    314    H    7.206    5.942    5.692
    315    O    8.574    4.746    6.624
    316    H    8.721    3.934    6.133
    317    C    6.839    6.048    7.729
    318    H    5.989    6.550    7.570
    319    O    7.907    6.823    8.278
    320    P    8.031    8.392    7.984
    321    O    9.136    8.936    8.801
    322    O    6.676    8.981    8.073
    323    O    8.488    8.398    6.447
    324    C    9.773    7.884    6.090
    325    H    9.832    6.928    6.377
    326    H    10.478    8.515    6.414
    327    C    9.972    7.838    4.584
    328    H    10.881    7.508    4.328
    329    O    8.979    6.979    3.996
    330    C    8.714    7.451    2.662
    331    H    9.008    6.733    2.031
    332    N    7.258    7.724    2.578
    333    C    6.525    7.933    3.709
    334    H    6.808    7.948    4.668
    335    C    5.203    8.166    3.639
    336    H    4.500    8.338    4.329
    337    C    6.668    7.746    1.319
    338    O    7.347    7.566    0.311
    339    N    5.328    7.983    1.239
    340    C    4.600    8.188    2.346
    341    N    3.294    8.419    2.235
    342    H    2.878    8.435    1.315
    343    H    2.727    8.576    3.056
    344    C    9.605    8.682    2.467
    345    H    9.108    9.368    1.936
    346    O    10.871    8.344    1.894
    347    H    10.846    7.636    1.246
    348    C    9.744    9.170    3.899
    349    H    8.877    9.555    4.216
    350    O    10.887    10.009    4.045
    351    P    10.766    11.594    3.925
    352    O    12.085    12.185    4.223
    353    O    9.570    11.997    4.692
    354    O    10.460    11.782    2.360
    355    C    11.429    11.399    1.379
    356    H    11.645    10.430    1.496
    357    H    12.185    12.053    1.396
    358    C    10.867    11.499    -0.035
    359    H    11.530    11.229    -0.733
    360    O    9.700    10.673    -0.155
    361    C    8.850    11.230    -1.172
    362    H    8.885    10.607    -1.954
    363    N    7.493    11.338    -0.590
    364    C    7.324    11.365    0.763
    365    H    8.000    11.340    1.499
    366    C    6.096    11.436    1.300
    367    H    5.761    11.465    2.242
    368    C    6.407    11.386    -1.455
    369    O    6.581    11.371    -2.672
    370    N    5.158    11.458    -0.917
    371    C    4.983    11.483    0.410
    372    N    3.753    11.544    0.908
    373    H    2.969    11.570    0.271
    374    H    3.601    11.564    1.906
    375    C    9.473    12.568    -1.573
    376    H    8.747    13.253    -1.633
    377    O    10.228    12.470    -2.783
    378    H    9.880    11.851    -3.429
    379    C    10.362    12.890    -0.378
    380    H    9.800    13.228    0.377
    381    O    11.445    13.747    -0.750
    382    P    11.311    15.338    -0.549
    383    O    12.563    15.971    -1.020
    384    O    10.801    15.625    0.813
    385    O    10.148    15.668    -1.606
    386    C    10.348    15.373    -2.992
    387    H    10.617    14.414    -3.085
    388    H    10.947    16.068    -3.390
    389    C    9.057    15.484    -3.789
    390    H    9.202    15.215    -4.741
    391    O    8.059    14.662    -3.227
    392    C    6.794    15.181    -3.672
    393    H    6.497    14.594    -4.425
    394    N    5.865    15.128    -2.523
    395    C    6.339    15.053    -1.242
    396    H    7.282    15.018    -0.912
    397    C    4.510    15.163    -2.790
    398    O    4.062    15.230    -3.931
    399    N    3.677    15.123    -1.692
    400    H    2.663    15.153    -1.870
    401    C    4.068    15.047    -0.372
    402    O    3.231    15.009    0.525
    403    C    5.501    15.015    -0.183
    404    H    5.699    14.964    0.796
    405    C    7.035    16.594    -4.207
    406    H    6.426    17.221    -3.721
    407    O    6.871    16.665    -5.629
    408    H    6.202    16.078    -5.990
    409    C    8.472    16.883    -3.799
    410    H    8.484    17.247    -2.868
    411    O    9.121    17.703    -4.781
    412    P    9.352    19.274    -4.477
    413    O    9.905    19.888    -5.706
    414    O    10.059    19.446    -3.184
    415    O    7.840    19.793    -4.293
    416    C    6.929    19.783    -5.399
    417    H    6.930    18.873    -5.814
    418    H    7.124    20.567    -5.989
    419    C    5.488    19.995    -4.942
    420    H    4.879    20.102    -5.728
    421    O    5.054    18.888    -4.169
    422    C    4.081    19.340    -3.205
    423    H    3.208    18.920    -3.453
    424    N    4.552    18.945    -1.862
    425    C    3.769    18.747    -0.746
    426    N    0.643    18.610    0.758
    427    H    0.175    18.442    1.637
    428    H    0.052    18.822    -0.033
    429    N    2.421    18.828    -0.694
    430    C    1.949    18.583    0.531
    431    N    2.742    18.283    1.609
    432    H    2.273    18.111    2.509
    433    C    4.121    18.194    1.581
    434    O    4.735    17.921    2.605
    435    C    4.635    18.451    0.283
    436    N    5.951    18.460    -0.171
    437    C    5.830    18.754    -1.427
    438    H    6.739    18.783    -1.844
    439    C    3.974    20.847    -3.381
    440    H    3.940    21.270    -2.475
    441    O    2.857    21.211    -4.204
    442    H    2.088    20.643    -4.117
    443    C    5.295    21.208    -4.048
    444    H    6.023    21.226    -3.362
    445    O    5.179    22.419    -4.803
    446    P    5.861    23.764    -4.224
    447    O    5.631    24.849    -5.201
    448    O    7.241    23.462    -3.774
    449    O    4.959    24.035    -2.919
    450    C    5.398    24.897    -1.871
    451    H    5.448    25.833    -2.219
    452    H    6.219    24.508    -1.452
    453    C    4.379    24.961    -0.736
    454    H    4.771    25.424    0.059
    455    O    3.253    25.702    -1.195
    456    C    2.070    24.883    -1.179
    457    H    1.399    25.376    -0.625
    458    N    1.623    24.721    -2.583
    459    C    2.425    24.123    -3.514
    460    H    3.339    23.727    -3.421
    461    C    2.019    23.993    -4.790
    462    H    2.440    23.598    -5.606
    463    C    0.369    25.210    -2.921
    464    O    -0.338    25.740    -2.068
    465    N    -0.048    25.082    -4.212
    466    C    0.731    24.498    -5.131
    467    N    0.296    24.394    -6.384
    468    H    -0.617    24.760    -6.616
    469    H    0.867    23.957    -7.093
    470    C    2.412    23.559    -0.487
    471    H    2.213    22.825    -1.136
    472    O    1.713    23.399    0.752
    473    H    0.847    23.812    0.785
    474    C    3.913    23.602    -0.232
    475    H    4.329    22.886    -0.793
    476    O    4.182    23.516    1.176
    477    P    3.971    22.126    1.978
    478    O    4.835    22.153    3.181
    479    O    4.086    21.005    1.018
    480    O    2.430    22.219    2.463
    481    C    1.992    23.233    3.390
    482    H    2.125    24.133    2.975
    483    H    2.411    23.062    4.282
    484    C    0.484    23.170    3.669
    485    H    0.248    23.779    4.426
    486    O    -0.216    23.592    2.498
    487    C    -1.216    22.635    2.140
    488    H    -2.089    23.026    2.432
    489    N    -1.175    22.440    0.678
    490    C    -1.709    22.466    -1.449
    491    N    -0.389    22.022    -1.385
    492    C    -0.142    22.027    -0.112
    493    H    0.796    21.714    0.039
    494    N    -3.816    23.120    -2.230
    495    C    -4.177    23.328    -0.964
    496    H    -5.084    23.647    -0.688
    497    N    -3.429    23.157    0.123
    498    C    -2.194    22.719    -0.199
    499    C    -2.580    22.688    -2.518
    500    N    -2.223    22.529    -3.789
    501    H    -2.893    22.738    -4.516
    502    H    -1.290    22.203    -3.999
    503    C    -0.963    21.360    2.916
    504    H    -0.472    20.730    2.314
    505    O    -2.180    20.810    3.424
    506    H    -2.952    20.957    2.873
    507    C    -0.041    21.778    4.055
    508    H    0.724    21.134    4.071
    509    O    -0.804    21.886    5.264
    510    P    -1.432    20.581    5.978
    511    O    -1.516    20.856    7.430
    512    O    -0.680    19.402    5.493
    513    O    -2.935    20.502    5.392
    514    C    -4.068    20.313    6.258
    515    H    -4.102    21.063    6.918
    516    H    -4.055    19.378    6.612
    517    C    -5.390    20.415    5.495
    518    H    -6.149    20.109    6.069
    519    O    -5.602    21.787    5.132
    520    C    -5.833    21.877    3.720
    521    H    -6.823    21.868    3.582
    522    N    -5.252    23.160    3.212
    523    C    -4.208    23.761    3.873
    524    H    -3.737    23.477    4.708
    525    C    -5.778    23.723    2.049
    526    O    -6.702    23.221    1.421
    527    N    -5.188    24.894    1.623
    528    H    -5.568    25.323    0.767
    529    C    -4.139    25.552    2.227
    530    O    -3.692    26.587    1.742
    531    C    -3.651    24.911    3.422
    532    H    -2.896    25.450    3.795
    533    C    -5.232    20.601    3.111
    534    H    -4.250    20.738    2.983
    535    O    -5.889    20.239    1.889
    536    H    -6.188    20.979    1.355
    537    C    -5.452    19.572    4.228
    538    H    -4.682    18.934    4.224
    539    O    -6.750    18.974    4.088
    540    P    -6.943    17.545    3.361
    541    O    -8.356    17.138    3.538
    542    O    -5.860    16.636    3.798
    543    O    -6.713    17.896    1.801
    544    C    -7.630    18.742    1.087
    545    H    -7.615    19.655    1.494
    546    H    -8.512    18.277    1.013
    547    C    -7.183    18.956    -0.359
    548    H    -7.875    19.476    -0.859
    549    O    -5.925    19.668    -0.418
    550    C    -5.407    19.455    -1.731
    551    H    -5.672    20.254    -2.270
    552    N    -3.942    19.342    -1.629
    553    C    -1.806    19.360    -2.118
    554    N    -1.889    19.067    -0.757
    555    C    -3.170    19.074    -0.535
    556    H    -3.334    18.874    0.431
    557    N    -0.998    19.793    -4.274
    558    C    -2.261    19.930    -4.676
    559    H    -2.528    20.145    -5.615
    560    N    -3.353    19.811    -3.934
    561    C    -3.049    19.525    -2.653
    562    C    -0.726    19.506    -2.992
    563    N    0.537    19.372    -2.613
    564    H    1.269    19.489    -3.299
    565    H    0.738    19.156    -1.647
    566    C    -6.093    18.211    -2.311
    567    H    -5.386    17.545    -2.548
    568    O    -6.927    18.547    -3.429
    569    H    -6.608    19.274    -3.969
    570    C    -6.909    17.673    -1.129
    571    H    -6.331    17.076    -0.572
    572    O    -8.119    17.069    -1.608
    573    P    -8.187    15.469    -1.814
    574    O    -9.519    15.147    -2.373
    575    O    -7.731    14.799    -0.573
    576    O    -7.083    15.208    -2.964
    577    C    -7.260    15.776    -4.267
    578    H    -7.451    16.753    -4.173
    579    H    -7.912    15.218    -4.780
    580    C    -5.989    15.729    -5.114
    581    H    -6.196    16.062    -6.034
    582    O    -4.951    16.561    -4.532
    583    C    -3.676    15.999    -4.906
    584    H    -3.251    16.661    -5.523
    585    N    -2.893    15.805    -3.671
    586    C    -1.241    15.544    -2.250
    587    N    -2.413    15.488    -1.499
    588    C    -3.340    15.644    -2.391
    589    H    -4.233    15.613    -1.942
    590    N    1.013    15.539    -2.890
    591    C    0.614    15.727    -4.149
    592    H    1.239    15.806    -4.926
    593    N    -0.637    15.839    -4.586
    594    C    -1.521    15.736    -3.571
    595    C    0.108    15.444    -1.902
    596    N    0.520    15.279    -0.648
    597    H    1.511    15.228    -0.461
    598    H    -0.168    15.209    0.088
    599    C    -3.934    14.694    -5.674
    600    H    -3.317    13.988    -5.327
    601    O    -3.829    14.882    -7.088
    602    H    -3.162    15.515    -7.364
    603    C    -5.361    14.356    -5.256
    604    H    -5.337    13.915    -4.359
    605    O    -6.028    13.612    -6.288
    606    P    -5.938    11.996    -6.301
    607    O    -6.775    11.510    -7.420
    608    O    -6.156    11.466    -4.934
    609    O    -4.394    11.758    -6.693
    610    C    -3.857    12.318    -7.898
    611    H    -4.041    13.301    -7.911
    612    H    -4.167    11.773    -8.677
    613    C    -2.338    12.213    -7.939
    614    H    -1.981    12.574    -8.801
    615    O    -1.744    12.937    -6.846
    616    C    -0.440    12.368    -6.621
    617    H    0.219    13.008    -7.016