!*** FMO 5.2 (Gamess) INPUT generated by Facio 21.1.1.32 ***
 $CONTRL RUNTYP=OPTFMO NPRINT=-5 ISPHER=-1 MAXIT=50 $END
 $SYSTEM MWORDS=29 $END
 $GDDI NGROUP=1 $END
 $INTGRL NINTIC=-9000000 $END
 $SCF DIRSCF=.FALSE. NPUNCH=0 $END
!*** NumCPU : 2  MemPerNode : 512MB
 $FMOPRP
    NAODIR=210
    NGRFMO(1)=1, 1, 0, 0, 0,   0, 0, 0, 0, 0
    NPRINT=9
 $END
 $FMO
      SCFTYP(1)=RHF
      MODGRD=10
      MODMUL=0
      MAXCAO=5
      MAXBND=34
      NLAYER=1
      NFRAG=32
      ICHARG(1)=-1, -1, -1, -1, -1, -1, -1, -1, -1, -1, 
-1, -1, -1, -1, -1, -1, -1, -1, -1, -1, 
-1, -1, -1, -1, -1, -1, -1, -1, -1, -1, 
-1, 0
      FRGNAM(1)=Frag1, Frag2, Frag3, Frag4, Frag5, Frag6, Frag7, Frag8, Frag9, Frag10, Frag11, Frag12, Frag13, Frag14, Frag15, Frag16, Frag17, Frag18, Frag19, Frag20, Frag21, Frag22, Frag23, Frag24, Frag25, Frag26, Frag27, Frag28, Frag29, Frag30, Frag31, Frag32
      indat(1)=0
               1   -36   0
               37   -69   0
               70   -103   0
               104   -134   0
               135   -167   0
               168   -201   0
               202   -231   0
               232   -261   0
               262   -292   0
               293   -323   0
               324   -354   0
               355   -385   0
               386   -415   0
               416   -449   0
               450   -480   0
               481   -513   0
               514   -543   0
               544   -576   0
               577   -609   0
               610   -643   0
               644   -677   0
               678   -710   0
               711   -740   0
               741   -774   0
               775   -807   0
               808   -840   0
               841   -871   0
               872   -902   0
               903   -936   0
               937   -966   0
               967   -996   0
               997   -1024   0
 $END

 $FMOBND
   -37   36       3-21G    MINI
   -70   69       3-21G    MINI
   -104   103       3-21G    MINI
   -135   134       3-21G    MINI
   -168   167       3-21G    MINI
   -202   201       3-21G    MINI
   -232   231       3-21G    MINI
   -262   261       3-21G    MINI
   -293   292       3-21G    MINI
   -324   323       3-21G    MINI
   -355   354       3-21G    MINI
   -386   385       3-21G    MINI
   -416   415       3-21G    MINI
   -450   449       3-21G    MINI
   -481   480       3-21G    MINI
   -514   513       3-21G    MINI
   -544   543       3-21G    MINI
   -577   576       3-21G    MINI
   -610   609       3-21G    MINI
   -644   643       3-21G    MINI
   -678   677       3-21G    MINI
   -711   710       3-21G    MINI
   -741   740       3-21G    MINI
   -775   774       3-21G    MINI
   -808   807       3-21G    MINI
   -841   840       3-21G    MINI
   -872   871       3-21G    MINI
   -903   902       3-21G    MINI
   -937   936       3-21G    MINI
   -967   966       3-21G    MINI
   -997   996       3-21G    MINI
 $END
 $FMOHYB
 3-21G        9   5
   1 0  -0.070459   0.164841   0.000000   0.000000   0.502116
         0.466939   0.000000   0.000000   0.418036
   0 1  -0.070465   0.164857   0.473392   0.000000  -0.167359
         0.466967   0.394111   0.000000  -0.139327
   0 1  -0.070465   0.164857  -0.236695  -0.409969  -0.167359
         0.466967  -0.197055  -0.341311  -0.139327
   0 1  -0.070465   0.164857  -0.236695   0.409969  -0.167359
         0.466967  -0.197055   0.341311  -0.139327
   0 1   1.006716   0.074826   0.000000   0.000000   0.000000
        -0.143830   0.000000   0.000000  -0.000003
 MINI         5   5
   1 0  -0.104883   0.308874   0.000000   0.000000   0.521806
   0 1  -0.104883   0.308874   0.491961   0.000000  -0.173934
   0 1  -0.104883   0.308876  -0.245980  -0.426050  -0.173933
   0 1  -0.104883   0.308876  -0.245980   0.426050  -0.173933
   0 1   0.988209   0.063992   0.000000   0.000000   0.000000
 $END

 $DATA
 FMO calculation : XXNAMEXX
 C1 
 C.1-1    6
      N21 3
   
 O.1-1    8
      N21 3
   
 N.1-1    7
      N21 3
   
 H.1-1    1
      N21 3
   
 P.1-1   15
      N21 3
   
 $END
 $FMOXYZ
    1    H    11.356    -20.202    -9.144
    2    O    10.372    -20.144    -9.314
    3    C    10.097    -20.629    -10.636
    4    H    10.324    -21.602    -10.680
    5    H    10.524    -20.018    -11.302
    6    C    8.606    -20.577    -10.984
    7    H    8.425    -20.813    -11.939
    8    O    7.844    -21.424    -10.148
    9    C    6.472    -20.969    -10.208
    10    H    6.034    -21.495    -10.938
    11    N    5.865    -21.201    -8.880
    12    C    4.521    -21.313    -8.613
    13    N    1.227    -21.358    -9.704
    14    H    0.272    -21.457    -9.389
    15    H    1.363    -21.220    -10.695
    16    N    3.521    -21.242    -9.523
    17    C    2.321    -21.389    -8.956
    18    N    2.127    -21.586    -7.613
    19    H    1.156    -21.687    -7.284
    20    C    3.130    -21.660    -6.666
    21    O    2.845    -21.837    -5.484
    22    C    4.416    -21.507    -7.254
    23    N    5.677    -21.520    -6.662
    24    C    6.478    -21.335    -7.666
    25    H    7.421    -21.328    -7.333
    26    C    6.483    -19.492    -10.597
    27    H    6.093    -18.950    -9.853
    28    O    5.821    -19.234    -11.845
    29    H    5.054    -19.785    -12.019
    30    C    7.978    -19.229    -10.669
    31    H    8.275    -18.936    -9.760
    32    O    8.254    -18.260    -11.681
    33    P    8.355    -16.700    -11.301
    34    O    8.787    -15.979    -12.525
    35    O    9.138    -16.655    -10.046
    36    O    6.823    -16.359    -10.939
    37    C    5.806    -16.436    -11.946
    38    H    5.742    -17.379    -12.273
    39    H    5.962    -15.715    -12.622
    40    C    4.402    -16.139    -11.412
    41    H    3.699    -16.087    -12.121
    42    O    4.079    -17.224    -10.505
    43    C    2.934    -16.788    -9.735
    44    H    2.120    -17.052    -10.253
    45    N    2.944    -17.391    -8.386
    46    C    2.304    -18.281    -6.480
    47    N    3.689    -18.163    -6.408
    48    C    3.999    -17.630    -7.551
    49    H    4.989    -17.497    -7.590
    50    N    0.064    -18.740    -5.966
    51    C    -0.268    -18.254    -7.163
    52    H    -1.207    -18.204    -7.503
    53    N    0.555    -17.766    -8.088
    54    C    1.839    -17.810    -7.675
    55    C    1.351    -18.771    -5.583
    56    N    1.667    -19.261    -4.388
    57    H    0.930    -19.602    -3.788
    58    H    2.637    -19.281    -4.108
    59    C    3.006    -15.264    -9.664
    60    H    3.146    -14.998    -8.710
    61    O    1.844    -14.622    -10.203
    62    H    1.023    -15.106    -10.086
    63    C    4.264    -14.946    -10.456
    64    H    5.038    -14.945    -9.823
    65    O    4.284    -13.605    -11.017
    66    P    4.226    -12.158    -10.244
    67    O    4.465    -11.095    -11.273
    68    O    5.044    -12.331    -9.042
    69    O    2.704    -12.161    -9.739
    70    C    1.767    -12.415    -10.776
    71    H    2.016    -13.266    -11.239
    72    H    1.667    -11.591    -11.333
    73    C    0.397    -12.667    -10.177
    74    H    -0.329    -12.787    -10.854
    75    O    0.511    -13.860    -9.401
    76    C    -0.701    -13.990    -8.626
    77    H    -1.326    -14.612    -9.098
    78    N    -0.365    -14.526    -7.286
    79    C    -1.260    -14.920    -6.316
    80    N    -4.534    -15.428    -5.270
    81    H    -5.094    -15.730    -4.486
    82    H    -5.035    -15.155    -6.103
    83    N    -2.610    -14.931    -6.435
    84    C    -3.212    -15.351    -5.323
    85    N    -2.545    -15.732    -4.188
    86    H    -3.112    -16.045    -3.387
    87    C    -1.171    -15.729    -4.034
    88    O    -0.676    -16.088    -2.970
    89    C    -0.513    -15.281    -5.214
    90    N    0.846    -15.128    -5.480
    91    C    0.859    -14.690    -6.702
    92    H    1.807    -14.552    -6.988
    93    C    -1.265    -12.561    -8.701
    94    H    -1.565    -12.300    -7.783
    95    O    -2.376    -12.511    -9.610
    96    H    -2.892    -13.319    -9.665
    97    C    -0.060    -11.702    -9.095
    98    H    0.633    -11.669    -8.374
    99    O    -0.247    -10.320    -9.502
    100    P    -0.193    -8.916    -8.661
    101    O    -0.526    -7.790    -9.569
    102    O    1.055    -8.901    -7.886
    103    O    -1.384    -9.098    -7.610
    104    C    -2.679    -9.262    -8.171
    105    H    -2.654    -10.009    -8.836
    106    H    -3.016    -8.372    -8.478
    107    C    -3.662    -9.712    -7.106
    108    H    -4.564    -9.759    -7.535
    109    O    -3.301    -11.013    -6.636
    110    C    -3.956    -11.171    -5.369
    111    H    -4.710    -11.812    -5.512
    112    N    -2.962    -11.700    -4.412
    113    C    -1.627    -11.472    -4.587
    114    H    -1.143    -11.010    -5.330
    115    C    -0.732    -11.893    -3.677
    116    H    0.264    -11.830    -3.614
    117    C    -3.435    -12.379    -3.300
    118    O    -4.638    -12.589    -3.169
    119    N    -2.537    -12.807    -2.373
    120    C    -1.227    -12.583    -2.531
    121    N    -0.377    -12.983    -1.593
    122    H    -0.738    -13.451    -0.774
    123    H    0.615    -12.823    -1.694
    124    C    -4.532    -9.797    -4.993
    125    H    -4.279    -9.614    -4.043
    126    O    -5.946    -9.756    -5.210
    127    H    -6.401    -10.590    -5.074
    128    C    -3.812    -8.806    -5.898
    129    H    -2.904    -8.592    -5.537
    130    O    -4.617    -7.660    -6.235
    131    P    -4.733    -6.339    -5.305
    132    O    -5.526    -5.337    -6.043
    133    O    -3.414    -5.922    -4.774
    134    O    -5.652    -6.805    -4.073
    135    C    -7.013    -7.184    -4.293
    136    H    -7.041    -7.920    -4.969
    137    H    -7.555    -6.363    -4.472
    138    C    -7.608    -7.784    -3.030
    139    H    -8.561    -7.978    -3.263
    140    O    -6.951    -9.032    -2.630
    141    C    -7.282    -9.197    -1.241
    142    H    -7.975    -9.917    -1.199
    143    N    -6.025    -9.574    -0.563
    144    C    -4.581    -10.428    0.850
    145    N    -3.828    -9.823    -0.155
    146    C    -4.734    -9.339    -0.950
    147    H    -4.284    -8.875    -1.713
    148    N    -5.216    -11.591    2.780
    149    C    -6.487    -11.381    2.441
    150    H    -7.267    -11.700    2.979
    151    N    -6.936    -10.734    1.368
    152    C    -5.917    -10.281    0.613
    153    C    -4.225    -11.128    2.005
    154    N    -2.963    -11.350    2.359
    155    H    -2.776    -11.865    3.208
    156    H    -2.221    -10.999    1.771
    157    C    -7.901    -7.878    -0.752
    158    H    -7.396    -7.607    0.068
    159    O    -9.317    -7.993    -0.590
    160    H    -9.625    -8.862    -0.321
    161    C    -7.656    -6.854    -1.844
    162    H    -6.757    -6.432    -1.725
    163    O    -8.874    -6.093    -2.009
    164    P    -9.014    -4.799    -1.070
    165    O    -10.292    -4.117    -1.423
    166    O    -7.725    -4.074    -1.203
    167    O    -9.179    -5.368    0.451
    168    C    -10.404    -5.838    1.049
    169    H    -10.816    -6.525    0.450
    170    H    -10.961    -5.050    1.312
    171    C    -10.172    -6.583    2.363
    172    H    -10.975    -7.118    2.627
    173    O    -9.088    -7.468    2.111
    174    C    -8.543    -7.877    3.375
    175    H    -8.879    -8.797    3.575
    176    N    -7.065    -7.863    3.277
    177    C    -6.180    -8.301    4.238
    178    N    -5.564    -9.688    7.362
    179    H    -4.825    -9.974    7.988
    180    H    -6.510    -9.817    7.692
    181    N    -6.505    -8.831    5.440
    182    C    -5.426    -9.161    6.154
    183    N    -4.139    -8.983    5.720
    184    H    -3.381    -9.271    6.355
    185    C    -3.777    -8.447    4.497
    186    O    -2.591    -8.342    4.200
    187    C    -4.918    -8.089    3.726
    188    N    -4.996    -7.522    2.456
    189    C    -6.274    -7.418    2.257
    190    H    -6.431    -7.014    1.356
    191    C    -9.161    -6.891    4.376
    192    H    -8.405    -6.535    4.925
    193    O    -10.190    -7.517    5.147
    194    H    -10.068    -8.457    5.298
    195    C    -9.774    -5.749    3.579
    196    H    -9.077    -5.086    3.305
    197    O    -10.860    -5.197    4.351
    198    P    -10.676    -3.797    5.165
    199    O    -11.995    -3.320    5.623
    200    O    -9.847    -2.889    4.331
    201    O    -9.836    -4.160    6.496
    202    C    -10.385    -4.610    7.751
    203    H    -10.804    -5.508    7.620
    204    H    -10.950    -3.882    8.139
    205    C    -9.304    -4.849    8.803
    206    H    -9.706    -5.220    9.640
    207    O    -8.474    -5.827    8.221
    208    C    -7.148    -5.740    8.773
    209    H    -6.938    -6.600    9.238
    210    N    -6.164    -5.522    7.678
    211    C    -6.571    -5.018    6.472
    212    H    -7.498    -4.808    6.160
    213    C    -4.820    -5.763    7.923
    214    O    -4.411    -6.216    8.986
    215    N    -3.946    -5.451    6.899
    216    H    -2.944    -5.617    7.071
    217    C    -4.281    -4.937    5.663
    218    O    -3.415    -4.696    4.830
    219    C    -5.697    -4.722    5.484
    220    H    -5.857    -4.349    4.570
    221    C    -7.297    -4.636    9.814
    222    H    -6.427    -4.146    9.873
    223    O    -7.610    -5.224    11.083
    224    H    -7.236    -6.096    11.229
    225    C    -8.354    -3.705    9.213
    226    H    -8.022    -3.247    8.389
    227    O    -8.814    -2.586    10.030
    228    P    -8.427    -0.999    9.952
    229    O    -9.247    -0.235    10.909
    230    O    -8.451    -0.576    8.542
    231    O    -6.918    -0.882    10.490
    232    C    -6.594    -0.931    11.881
    233    H    -6.944    -1.785    12.267
    234    H    -6.874    -0.073    12.311
    235    C    -5.081    -0.998    12.089
    236    H    -4.886    -1.164    13.056
    237    O    -4.638    -2.107    11.334
    238    C    -3.229    -1.979    11.054
    239    H    -2.748    -2.701    11.551
    240    N    -3.000    -2.142    9.594
    241    C    -4.030    -1.981    8.707
    242    H    -4.997    -1.804    8.889
    243    C    -1.713    -2.393    9.145
    244    O    -0.766    -2.552    9.909
    245    N    -1.542    -2.456    7.777
    246    H    -0.589    -2.638    7.430
    247    C    -2.526    -2.299    6.822
    248    O    -2.254    -2.369    5.629
    249    C    -3.839    -2.049    7.369
    250    H    -4.491    -1.951    6.618
    251    C    -2.853    -0.620    11.660
    252    H    -2.195    -0.171    11.055
    253    O    -2.282    -0.803    12.960
    254    H    -1.775    -1.611    13.070
    255    C    -4.181    0.145    11.608
    256    H    -4.422    0.375    10.665
    257    O    -4.282    1.425    12.299
    258    P    -3.963    2.947    11.800
    259    O    -4.104    3.891    12.931
    260    O    -4.721    3.192    10.563
    261    O    -2.415    2.913    11.403
    262    C    -1.458    2.648    12.425
    263    H    -1.726    1.818    12.914
    264    H    -1.313    3.481    12.959
    265    C    -0.104    2.329    11.807
    266    H    0.548    2.012    12.496
    267    O    -0.265    1.302    10.805
    268    C    0.877    1.285    9.930
    269    H    1.466    0.517    10.180
    270    N    0.378    1.178    8.540
    271    C    -0.910    1.506    8.230
    272    H    -1.655    1.826    8.815
    273    C    -1.353    1.421    6.964
    274    H    -2.236    1.607    6.533
    275    C    1.268    0.750    7.566
    276    O    2.427    0.465    7.864
    277    N    0.829    0.662    6.283
    278    C    -0.433    0.981    5.966
    279    N    -0.829    0.891    4.701
    280    H    -0.167    0.583    4.003
    281    H    -1.776    1.126    4.439
    282    C    1.579    2.595    10.305
    283    H    1.845    3.040    9.450
    284    O    2.698    2.367    11.170
    285    H    3.144    1.526    11.043
    286    C    0.533    3.451    11.005
    287    H    -0.137    3.805    10.352
    288    O    1.160    4.440    11.834
    289    P    1.581    5.909    11.311
    290    O    2.368    6.560    12.379
    291    O    0.387    6.588    10.760
    292    O    2.568    5.604    10.079
    293    C    3.829    4.957    10.277
    294    H    3.684    4.112    10.792
    295    H    4.482    5.621    10.641
    296    C    4.411    4.516    8.946
    297    H    5.254    3.994    9.078
    298    O    3.477    3.714    8.238
    299    C    3.729    3.849    6.829
    300    H    4.030    2.960    6.484
    301    N    2.462    4.315    6.219
    302    C    1.483    4.873    6.990
    303    H    1.460    5.056    7.973
    304    C    0.324    5.276    6.443
    305    H    -0.501    5.697    6.819
    306    C    2.298    4.151    4.849
    307    O    3.197    3.657    4.175
    308    N    1.124    4.556    4.288
    309    C    0.157    5.102    5.037
    310    N    -0.980    5.483    4.464
    311    H    -1.093    5.352    3.469
    312    H    -1.720    5.897    5.012
    313    C    4.896    4.836    6.747
    314    H    4.759    5.425    5.950
    315    O    6.160    4.171    6.754
    316    H    6.174    3.323    6.303
    317    C    4.724    5.664    8.009
    318    H    3.921    6.256    7.940
    319    O    5.973    6.216    8.448
    320    P    6.445    7.681    7.992
    321    O    7.752    7.906    8.643
    322    O    5.356    8.674    8.188
    323    O    6.708    7.491    6.419
    324    C    7.730    6.596    5.974
    325    H    7.527    5.677    6.311
    326    H    8.624    6.988    6.192
    327    C    7.734    6.455    4.461
    328    H    8.477    5.883    4.115
    329    O    6.477    5.889    4.050
    330    C    6.191    6.374    2.726
    331    H    6.188    5.584    2.113
    332    N    4.866    7.041    2.781
    333    C    4.366    7.494    3.968
    334    H    4.758    7.458    4.887
    335    C    3.167    8.099    4.026
    336    H    2.634    8.493    4.774
    337    C    4.153    7.188    1.596
    338    O    4.620    6.784    0.534
    339    N    2.936    7.801    1.645
    340    C    2.439    8.249    2.807
    341    N    1.250    8.845    2.824
    342    H    0.743    8.948    1.956
    343    H    0.858    9.189    3.689
    344    C    7.370    7.286    2.360
    345    H    7.034    8.060    1.823
    346    O    8.394    6.562    1.668
    347    H    8.076    5.871    1.082
    348    C    7.793    7.785    3.739
    349    H    7.099    8.394    4.122
    350    O    9.128    8.304    3.836
    351    P    9.527    9.869    3.748
    352    O    10.987    9.987    3.965
    353    O    8.600    10.694    4.552
    354    O    9.227    10.139    2.197
    355    C    9.844    9.230    1.286
    356    H    9.622    8.294    1.559
    357    H    10.809    9.473    1.187
    358    C    9.253    9.386    -0.104
    359    H    9.700    8.824    -0.800
    360    O    7.859    9.052    -0.058
    361    C    7.194    9.776    -1.107
    362    H    6.920    9.107    -1.798
    363    N    6.027    10.452    -0.495
    364    C    5.996    10.698    0.845
    365    H    6.674    10.498    1.552
    366    C    4.937    11.298    1.412
    367    H    4.722    11.562    2.352
    368    C    4.966    10.813    -1.317
    369    O    5.013    10.593    -2.526
    370    N    3.888    11.423    -0.751
    371    C    3.850    11.667    0.566
    372    N    2.783    12.254    1.094
    373    H    2.015    12.507    0.488
    374    H    2.737    12.446    2.085
    375    C    8.247    10.712    -1.710
    376    H    7.829    11.608    -1.862
    377    O    8.786    10.182    -2.925
    378    H    8.168    9.672    -3.454
    379    C    9.274    10.827    -0.582
    380    H    8.924    11.417    0.146
    381    O    10.608    11.179    -0.977
    382    P    11.182    12.689    -0.975
    383    O    12.569    12.668    -1.495
    384    O    10.891    13.339    0.318
    385    O    10.233    13.336    -2.092
    386    C    10.174    12.622    -3.326
    387    H    10.023    11.652    -3.134
    388    H    10.965    12.872    -3.885
    389    C    8.971    13.048    -4.143
    390    H    8.926    12.539    -5.003
    391    O    7.773    12.854    -3.433
    392    C    6.802    13.729    -4.031
    393    H    6.250    13.159    -4.639
    394    N    6.018    14.319    -2.927
    395    C    6.512    14.345    -1.651
    396    H    7.383    14.006    -1.296
    397    C    4.776    14.840    -3.232
    398    O    4.315    14.827    -4.370
    399    N    4.075    15.386    -2.178
    400    H    3.148    15.784    -2.385
    401    C    4.495    15.453    -0.866
    402    O    3.776    15.957    -0.008
    403    C    5.804    14.886    -0.635
    404    H    6.032    14.978    0.334
    405    C    7.551    14.768    -4.867
    406    H    7.287    15.680    -4.552
    407    O    7.341    14.584    -6.272
    408    H    6.469    14.263    -6.513
    409    C    9.005    14.517    -4.493
    410    H    9.228    15.042    -3.672
    411    O    9.873    14.668    -5.621
    412    P    10.801    15.975    -5.724
    413    O    11.509    15.919    -7.024
    414    O    11.568    16.111    -4.464
    415    O    9.680    17.127    -5.779
    416    C    8.753    17.123    -6.868
    417    H    8.366    16.206    -6.962
    418    H    9.190    17.532    -7.669
    419    C    7.557    18.020    -6.580
    420    H    7.004    18.149    -7.403
    421    O    6.748    17.457    -5.565
    422    C    6.115    18.524    -4.831
    423    H    5.134    18.460    -5.012
    424    N    6.456    18.353    -3.404
    425    C    5.729    18.815    -2.329
    426    N    2.926    20.415    -1.049
    427    H    2.483    20.705    -0.189
    428    H    2.434    20.630    -1.904
    429    N    4.544    19.464    -2.388
    430    C    4.085    19.783    -1.176
    431    N    4.741    19.487    -0.009
    432    H    4.296    19.781    0.872
    433    C    5.951    18.826    0.077
    434    O    6.453    18.613    1.174
    435    C    6.450    18.479    -1.206
    436    N    7.620    17.812    -1.559
    437    C    7.560    17.773    -2.853
    438    H    8.371    17.305    -3.203
    439    C    6.643    19.824    -5.419
    440    H    6.850    20.450    -4.667
    441    O    5.736    20.383    -6.378
    442    H    4.806    20.241    -6.187
    443    C    7.947    19.397    -6.082
    444    H    8.661    19.302    -5.388
    445    O    8.277    20.216    -7.207
    446    P    9.536    21.208    -7.091
    447    O    9.716    21.885    -8.392
    448    O    10.677    20.494    -6.471
    449    O    8.936    22.249    -6.024
    450    C    9.756    23.127    -5.258
    451    H    10.179    23.795    -5.871
    452    H    10.356    22.583    -4.671
    453    C    8.901    23.950    -4.300
    454    H    9.471    24.452    -3.650
    455    O    8.153    24.881    -5.077
    456    C    6.741    24.672    -4.895
    457    H    6.369    25.547    -4.585
    458    N    6.181    24.261    -6.204
    459    C    6.604    23.120    -6.826
    460    H    7.276    22.438    -6.537
    461    C    6.103    22.761    -8.021
    462    H    6.273    21.987    -8.631
    463    C    5.222    25.081    -6.781
    464    O    4.851    26.099    -6.202
    465    N    4.709    24.723    -7.992
    466    C    5.119    23.608    -8.609
    467    N    4.602    23.291    -9.793
    468    H    3.909    23.901    -10.202
    469    H    4.896    22.455    -10.277
    470    C    6.547    23.628    -3.790
    471    H    6.013    22.878    -4.181
    472    O    5.926    24.179    -2.624
    473    H    5.316    24.900    -2.793
    474    C    7.943    23.120    -3.453
    475    H    7.990    22.166    -3.748
    476    O    8.250    23.345    -2.068
    477    P    7.541    22.499    -0.886
    478    O    8.427    22.537    0.300
    479    O    7.100    21.200    -1.435
    480    O    6.226    23.383    -0.567
    481    C    6.374    24.740    -0.112
    482    H    6.853    25.268    -0.813
    483    H    6.756    24.734    0.812
    484    C    5.018    25.434    0.035
    485    H    5.150    26.300    0.516
    486    O    4.466    25.698    -1.253
    487    C    3.124    25.214    -1.332
    488    H    2.537    26.020    -1.259
    489    N    2.957    24.536    -2.631
    490    C    2.317    24.066    -4.675
    491    N    3.313    23.144    -4.358
    492    C    3.640    23.473    -3.146
    493    H    4.356    22.854    -2.823
    494    N    0.649    25.263    -5.797
    495    C    0.519    26.024    -4.711
    496    H    -0.133    26.778    -4.634
    497    N    1.203    25.926    -3.575
    498    C    2.094    24.913    -3.629
    499    C    1.545    24.267    -5.821
    500    N    1.693    23.547    -6.929
    501    H    1.125    23.766    -7.735
    502    H    2.370    22.798    -6.939
    503    C    2.865    24.307    -0.149
    504    H    2.982    23.362    -0.456
    505    O    1.576    24.550    0.419
    506    H    0.900    24.816    -0.209
    507    C    3.975    24.649    0.839
    508    H    4.379    23.786    1.142
    509    O    3.462    25.558    1.820
    510    P    2.394    25.019    2.903
    511    O    2.564    25.820    4.137
    512    O    2.510    23.540    2.950
    513    O    0.965    25.407    2.253
    514    C    -0.077    26.038    3.023
    515    H    0.255    26.919    3.360
    516    H    -0.430    25.383    3.691
    517    C    -1.302    26.403    2.181
    518    H    -2.078    26.674    2.751
    519    O    -0.938    27.504    1.334
    520    C    -1.233    27.174    -0.028
    521    H    -2.142    27.539    -0.230
    522    N    -0.217    27.817    -0.920
    523    C    1.038    28.118    -0.446
    524    H    1.419    27.984    0.469
    525    C    -0.561    28.093    -2.243
    526    O    -1.663    27.839    -2.715
    527    N    0.422    28.669    -3.019
    528    H    0.180    28.880    -3.998
    529    C    1.700    28.993    -2.618
    530    O    2.494    29.494    -3.409
    531    C    1.981    28.680    -1.238
    532    H    2.923    28.944    -1.029
    533    C    -1.286    25.639    -0.087
    534    H    -0.353    25.294    -0.192
    535    O    -2.133    25.177    -1.146
    536    H    -2.147    25.735    -1.927
    537    C    -1.805    25.259    1.307
    538    H    -1.358    24.411    1.591
    539    O    -3.242    25.196    1.324
    540    P    -4.068    23.815    1.151
    541    O    -5.504    24.113    1.365
    542    O    -3.416    22.760    1.957
    543    O    -3.858    23.459    -0.409
    544    C    -4.388    24.324    -1.426
    545    H    -3.950    25.220    -1.352
    546    H    -5.387    24.287    -1.397
    547    C    -4.021    23.825    -2.823
    548    H    -4.471    24.372    -3.528
    549    O    -2.589    23.878    -3.028
    550    C    -2.315    23.038    -4.150
    551    H    -2.258    23.641    -4.946
    552    N    -1.028    22.361    -3.914
    553    C    0.871    21.309    -4.229
    554    N    0.786    21.553    -2.858
    555    C    -0.350    22.174    -2.743
    556    H    -0.503    22.398    -1.780
    557    N    1.603    20.613    -6.342
    558    C    0.488    21.128    -6.855
    559    H    0.260    21.108    -7.828
    560    N    -0.488    21.739    -6.195
    561    C    -0.228    21.796    -4.874
    562    C    1.835    20.684    -5.022
    563    N    2.952    20.163    -4.533
    564    H    3.605    19.723    -5.166
    565    H    3.124    20.218    -3.539
    566    C    -3.510    22.088    -4.327
    567    H    -3.175    21.146    -4.297
    568    O    -4.211    22.355    -5.551
    569    H    -3.659    22.654    -6.277
    570    C    -4.349    22.360    -3.069
    571    H    -3.995    21.815    -2.309
    572    O    -5.754    22.158    -3.288
    573    P    -6.501    20.765    -2.949
    574    O    -7.903    20.868    -3.420
    575    O    -6.223    20.417    -1.541
    576    O    -5.715    19.715    -3.887
    577    C    -5.715    19.958    -5.296
    578    H    -5.474    20.914    -5.461
    579    H    -6.570    19.616    -5.685
    580    C    -4.631    19.169    -6.024
    581    H    -4.735    19.283    -7.012
    582    O    -3.300    19.592    -5.637
    583    C    -2.422    18.455    -5.786
    584    H    -1.807    18.681    -6.541
    585    N    -1.713    18.279    -4.506
    586    C    -0.227    17.732    -2.989
    587    N    -1.253    18.384    -2.311
    588    C    -2.091    18.674    -3.255
    589    H    -2.877    19.148    -2.858
    590    N    1.760    16.595    -3.492
    591    C    1.385    16.590    -4.773
    592    H    1.925    16.185    -5.511
    593    N    0.269    17.102    -5.284
    594    C    -0.497    17.661    -4.325
    595    C    0.976    17.164    -2.562
    596    N    1.372    17.182    -1.292
    597    H    2.260    16.765    -1.050
    598    H    0.776    17.612    -0.599
    599    C    -3.264    17.231    -6.176
    600    H    -2.984    16.444    -5.626
    601    O    -3.209    16.966    -7.581
    602    H    -2.359    17.138    -7.993
    603    C    -4.646    17.688    -5.721
    604    H    -4.712    17.559    -4.732
    605    O    -5.685    17.105    -6.517
    606    P    -6.264    15.643    -6.177
    607    O    -7.313    15.354    -7.183
    608    O    -6.574    15.598    -4.731
    609    O    -4.963    14.737    -6.454
    610    C    -4.283    14.898    -7.703
    611    H    -4.058    15.864    -7.829
    612    H    -4.809    14.442    -8.421
    613    C    -2.937    14.188    -7.705
    614    H    -2.488    14.209    -8.598
    615    O    -2.055    14.761    -6.724
    616    C    -1.088    13.746    -6.383