!*** FMO 5.2 (Gamess) INPUT generated by Facio 21.1.1.32 ***
 $CONTRL RUNTYP=OPTFMO NPRINT=-5 ISPHER=-1 MAXIT=50 $END
 $SYSTEM MWORDS=29 $END
 $GDDI NGROUP=1 $END
 $INTGRL NINTIC=-9000000 $END
 $SCF DIRSCF=.FALSE. NPUNCH=0 $END
!*** NumCPU : 2  MemPerNode : 512MB
 $FMOPRP
    NAODIR=210
    NGRFMO(1)=1, 1, 0, 0, 0,   0, 0, 0, 0, 0
    NPRINT=9
 $END
 $FMO
      SCFTYP(1)=RHF
      MODGRD=10
      MODMUL=0
      MAXCAO=5
      MAXBND=34
      NLAYER=1
      NFRAG=32
      ICHARG(1)=-1, -1, -1, -1, -1, -1, -1, -1, -1, -1, 
-1, -1, -1, -1, -1, -1, -1, -1, -1, -1, 
-1, -1, -1, -1, -1, -1, -1, -1, -1, -1, 
-1, 0
      FRGNAM(1)=Frag1, Frag2, Frag3, Frag4, Frag5, Frag6, Frag7, Frag8, Frag9, Frag10, Frag11, Frag12, Frag13, Frag14, Frag15, Frag16, Frag17, Frag18, Frag19, Frag20, Frag21, Frag22, Frag23, Frag24, Frag25, Frag26, Frag27, Frag28, Frag29, Frag30, Frag31, Frag32
      indat(1)=0
               1   -36   0
               37   -69   0
               70   -103   0
               104   -134   0
               135   -167   0
               168   -201   0
               202   -231   0
               232   -261   0
               262   -292   0
               293   -323   0
               324   -354   0
               355   -385   0
               386   -415   0
               416   -449   0
               450   -480   0
               481   -513   0
               514   -543   0
               544   -576   0
               577   -609   0
               610   -643   0
               644   -677   0
               678   -710   0
               711   -740   0
               741   -774   0
               775   -807   0
               808   -840   0
               841   -871   0
               872   -902   0
               903   -936   0
               937   -966   0
               967   -996   0
               997   -1024   0
 $END

 $FMOBND
   -37   36       3-21G    MINI
   -70   69       3-21G    MINI
   -104   103       3-21G    MINI
   -135   134       3-21G    MINI
   -168   167       3-21G    MINI
   -202   201       3-21G    MINI
   -232   231       3-21G    MINI
   -262   261       3-21G    MINI
   -293   292       3-21G    MINI
   -324   323       3-21G    MINI
   -355   354       3-21G    MINI
   -386   385       3-21G    MINI
   -416   415       3-21G    MINI
   -450   449       3-21G    MINI
   -481   480       3-21G    MINI
   -514   513       3-21G    MINI
   -544   543       3-21G    MINI
   -577   576       3-21G    MINI
   -610   609       3-21G    MINI
   -644   643       3-21G    MINI
   -678   677       3-21G    MINI
   -711   710       3-21G    MINI
   -741   740       3-21G    MINI
   -775   774       3-21G    MINI
   -808   807       3-21G    MINI
   -841   840       3-21G    MINI
   -872   871       3-21G    MINI
   -903   902       3-21G    MINI
   -937   936       3-21G    MINI
   -967   966       3-21G    MINI
   -997   996       3-21G    MINI
 $END
 $FMOHYB
 3-21G        9   5
   1 0  -0.070459   0.164841   0.000000   0.000000   0.502116
         0.466939   0.000000   0.000000   0.418036
   0 1  -0.070465   0.164857   0.473392   0.000000  -0.167359
         0.466967   0.394111   0.000000  -0.139327
   0 1  -0.070465   0.164857  -0.236695  -0.409969  -0.167359
         0.466967  -0.197055  -0.341311  -0.139327
   0 1  -0.070465   0.164857  -0.236695   0.409969  -0.167359
         0.466967  -0.197055   0.341311  -0.139327
   0 1   1.006716   0.074826   0.000000   0.000000   0.000000
        -0.143830   0.000000   0.000000  -0.000003
 MINI         5   5
   1 0  -0.104883   0.308874   0.000000   0.000000   0.521806
   0 1  -0.104883   0.308874   0.491961   0.000000  -0.173934
   0 1  -0.104883   0.308876  -0.245980  -0.426050  -0.173933
   0 1  -0.104883   0.308876  -0.245980   0.426050  -0.173933
   0 1   0.988209   0.063992   0.000000   0.000000   0.000000
 $END

 $DATA
 FMO calculation : XXNAMEXX
 C1 
 C.1-1    6
      N21 3
   
 O.1-1    8
      N21 3
   
 N.1-1    7
      N21 3
   
 H.1-1    1
      N21 3
   
 P.1-1   15
      N21 3
   
 $END
 $FMOXYZ
    1    H    8.910    -19.465    -1.529
    2    O    8.107    -19.570    -2.116
    3    C    8.476    -20.317    -3.282
    4    H    8.735    -21.243    -3.007
    5    H    9.134    -19.785    -3.815
    6    C    7.294    -20.517    -4.228
    7    H    7.612    -20.948    -5.073
    8    O    6.293    -21.327    -3.647
    9    C    5.080    -21.094    -4.393
    10    H    5.041    -21.800    -5.100
    11    N    3.950    -21.184    -3.442
    12    C    2.637    -21.445    -3.761
    13    N    0.199    -22.172    -6.122
    14    H    -0.788    -22.352    -6.235
    15    H    0.761    -22.198    -6.961
    16    N    2.154    -21.688    -5.002
    17    C    0.837    -21.905    -4.990
    18    N    0.067    -21.883    -3.856
    19    H    -0.941    -22.064    -3.964
    20    C    0.535    -21.637    -2.580
    21    O    -0.245    -21.637    -1.630
    22    C    1.938    -21.403    -2.574
    23    N    2.794    -21.123    -1.512
    24    C    3.952    -21.007    -2.086
    25    H    4.641    -20.803    -1.391
    26    C    5.213    -19.723    -5.063
    27    H    4.507    -19.123    -4.686
    28    O    5.147    -19.813    -6.491
    29    H    4.575    -20.507    -6.827
    30    C    6.577    -19.229    -4.607
    31    H    6.454    -18.671    -3.786
    32    O    7.273    -18.611    -5.688
    33    P    7.210    -17.057    -6.017
    34    O    8.090    -16.710    -7.152
    35    O    7.411    -16.441    -4.695
    36    O    5.685    -16.850    -6.470
    37    C    5.223    -17.394    -7.710
    38    H    5.413    -18.376    -7.726
    39    H    5.576    -16.837    -8.462
    40    C    3.709    -17.302    -7.853
    41    H    3.439    -17.624    -8.760
    42    O    3.051    -18.111    -6.851
    43    C    1.688    -17.644    -6.817
    44    H    1.189    -18.161    -7.512
    45    N    1.159    -17.884    -5.459
    46    C    -0.170    -18.373    -3.780
    47    N    1.048    -18.007    -3.216
    48    C    1.781    -17.732    -4.252
    49    H    2.690    -17.453    -3.943
    50    N    -2.392    -19.063    -4.064
    51    C    -2.215    -18.955    -5.382
    52    H    -2.925    -19.152    -6.058
    53    N    -1.106    -18.580    -6.015
    54    C    -0.115    -18.301    -5.143
    55    C    -1.385    -18.779    -3.222
    56    N    -1.576    -18.895    -1.911
    57    H    -2.479    -19.196    -1.572
    58    H    -0.814    -18.680    -1.284
    59    C    1.714    -16.168    -7.218
    60    H    1.533    -15.630    -6.395
    61    O    0.801    -15.890    -8.283
    62    H    0.006    -16.429    -8.287
    63    C    3.139    -15.906    -7.678
    64    H    3.629    -15.445    -6.938
    65    O    3.139    -15.232    -8.942
    66    P    2.687    -13.700    -9.064
    67    O    3.073    -13.177    -10.392
    68    O    3.179    -13.050    -7.835
    69    O    1.082    -13.777    -9.001
    70    C    0.337    -14.333    -10.089
    71    H    0.673    -15.256    -10.276
    72    H    0.324    -13.677    -10.844
    73    C    -1.131    -14.530    -9.734
    74    H    -1.660    -14.931    -10.482
    75    O    -1.235    -15.374    -8.587
    76    C    -2.583    -15.288    -8.079
    77    H    -3.121    -16.038    -8.463
    78    N    -2.507    -15.335    -6.604
    79    C    -3.572    -15.432    -5.739
    80    N    -6.990    -15.680    -5.189
    81    H    -7.688    -15.743    -4.462
    82    H    -7.329    -15.686    -6.141
    83    N    -4.877    -15.513    -6.091
    84    C    -5.678    -15.590    -5.029
    85    N    -5.232    -15.593    -3.732
    86    H    -5.940    -15.663    -2.987
    87    C    -3.908    -15.509    -3.345
    88    O    -3.618    -15.516    -2.153
    89    C    -3.039    -15.424    -4.469
    90    N    -1.650    -15.326    -4.524
    91    C    -1.407    -15.278    -5.797
    92    H    -0.420    -15.206    -5.937
    93    C    -3.070    -13.965    -8.682
    94    H    -3.436    -13.414    -7.932
    95    O    -4.010    -14.172    -9.742
    96    H    -4.563    -14.951    -9.647
    97    C    -1.831    -13.285    -9.236
    98    H    -1.290    -12.880    -8.499
    99    O    -2.163    -12.378    -10.299
    100    P    -2.222    -10.780    -10.019
    101    O    -2.533    -10.075    -11.284
    102    O    -1.003    -10.419    -9.255
    103    O    -3.491    -10.628    -9.038
    104    C    -4.806    -10.858    -9.549
    105    H    -4.848    -11.779    -9.937
    106    H    -5.067    -10.090    -10.134
    107    C    -5.863    -10.867    -8.452
    108    H    -6.779    -10.949    -8.845
    109    O    -5.642    -11.959    -7.555
    110    C    -6.280    -11.623    -6.309
    111    H    -7.109    -12.179    -6.254
    112    N    -5.324    -11.918    -5.223
    113    C    -3.978    -11.919    -5.451
    114    H    -3.465    -11.776    -6.297
    115    C    -3.112    -12.137    -4.446
    116    H    -2.114    -12.179    -4.397
    117    C    -5.842    -12.147    -3.959
    118    O    -7.057    -12.158    -3.781
    119    N    -4.973    -12.366    -2.936
    120    C    -3.651    -12.364    -3.146
    121    N    -2.827    -12.547    -2.121
    122    H    -3.217    -12.685    -1.200
    123    H    -1.826    -12.549    -2.258
    124    C    -6.675    -10.144    -6.386
    125    H    -6.368    -9.687    -5.551
    126    O    -8.076    -9.978    -6.630
    127    H    -8.640    -10.640    -6.222
    128    C    -5.846    -9.643    -7.557
    129    H    -4.908    -9.474    -7.254
    130    O    -6.488    -8.523    -8.196
    131    P    -6.127    -7.010    -7.722
    132    O    -6.782    -6.058    -8.653
    133    O    -4.661    -6.914    -7.497
    134    O    -6.860    -6.883    -6.294
    135    C    -8.290    -6.930    -6.224
    136    H    -8.605    -7.806    -6.590
    137    H    -8.663    -6.093    -6.624
    138    C    -8.789    -6.918    -4.785
    139    H    -9.788    -6.875    -4.759
    140    O    -8.344    -8.121    -4.069
    141    C    -8.414    -7.792    -2.667
    142    H    -9.229    -8.246    -2.307
    143    N    -7.175    -8.294    -2.039
    144    C    -5.723    -9.070    -0.585
    145    N    -5.060    -9.027    -1.810
    146    C    -5.965    -8.562    -2.618
    147    H    -5.576    -8.492    -3.537
    148    N    -6.224    -9.384    1.680
    149    C    -7.452    -8.932    1.431
    150    H    -8.166    -8.845    2.126
    151    N    -7.937    -8.529    0.259
    152    C    -7.008    -8.626    -0.712
    153    C    -5.323    -9.471    0.692
    154    N    -4.103    -9.927    0.961
    155    H    -3.880    -10.199    1.908
    156    H    -3.428    -9.990    0.212
    157    C    -8.603    -6.273    -2.567
    158    H    -7.933    -5.921    -1.914
    159    O    -9.951    -5.924    -2.233
    160    H    -10.400    -6.547    -1.657
    161    C    -8.253    -5.766    -3.957
    162    H    -7.260    -5.723    -4.064
    163    O    -8.947    -4.546    -4.251
    164    P    -8.274    -3.127    -3.887
    165    O    -9.191    -2.051    -4.321
    166    O    -6.882    -3.161    -4.386
    167    O    -8.239    -3.134    -2.279
    168    C    -9.464    -3.164    -1.541
    169    H    -10.084    -3.824    -1.966
    170    H    -9.791    -2.227    -1.415
    171    C    -9.270    -3.688    -0.124
    172    H    -10.137    -3.900    0.327
    173    O    -8.476    -4.861    -0.172
    174    C    -7.930    -5.083    1.142
    175    H    -8.481    -5.792    1.583
    176    N    -6.520    -5.493    0.972
    177    C    -5.677    -5.931    1.967
    178    N    -5.087    -6.679    5.306
    179    H    -4.381    -7.013    5.947
    180    H    -5.987    -6.452    5.705
    181    N    -5.988    -6.054    3.279
    182    C    -4.959    -6.506    3.999
    183    N    -3.731    -6.811    3.470
    184    H    -3.007    -7.152    4.118
    185    C    -3.388    -6.697    2.135
    186    O    -2.261    -7.009    1.762
    187    C    -4.476    -6.215    1.356
    188    N    -4.551    -5.957    -0.012
    189    C    -5.769    -5.539    -0.167
    190    H    -5.919    -5.325    -1.132
    191    C    -8.136    -3.757    1.884
    192    H    -7.264    -3.496    2.299
    193    O    -9.203    -3.836    2.835
    194    H    -9.310    -4.693    3.254
    195    C    -8.474    -2.768    0.780
    196    H    -7.641    -2.485    0.304
    197    O    -9.293    -1.704    1.281
    198    P    -8.611    -0.307    1.707
    199    O    -9.699    0.652    1.994
    200    O    -7.574    0.029    0.705
    201    O    -7.874    -0.662    3.093
    202    C    -8.640    -1.001    4.254
    203    H    -9.268    -1.745    4.024
    204    H    -9.026    -0.165    4.645
    205    C    -7.764    -1.571    5.363
    206    H    -8.285    -1.804    6.184
    207    O    -7.122    -2.726    4.885
    208    C    -5.873    -2.900    5.582
    209    H    -5.949    -3.726    6.140
    210    N    -4.803    -2.988    4.561
    211    C    -5.007    -2.517    3.292
    212    H    -5.821    -2.096    2.893
    213    C    -3.595    -3.547    4.936
    214    O    -3.387    -3.974    6.065
    215    N    -2.623    -3.593    3.958
    216    H    -1.715    -4.003    4.218
    217    C    -2.746    -3.143    2.660
    218    O    -1.806    -3.234    1.878
    219    C    -4.037    -2.576    2.353
    220    H    -4.042    -2.275    1.399
    221    C    -5.770    -1.687    6.501
    222    H    -4.820    -1.374    6.515
    223    O    -6.292    -1.953    7.807
    224    H    -6.147    -2.846    8.127
    225    C    -6.618    -0.661    5.775
    226    H    -6.147    -0.339    4.954
    227    O    -7.036    0.386    6.663
    228    P    -6.214    1.787    6.619
    229    O    -6.926    2.732    7.508
    230    O    -5.911    2.183    5.219
    231    O    -4.827    1.378    7.330
    232    C    -4.837    0.935    8.691
    233    H    -5.477    0.172    8.780
    234    H    -4.964    1.726    9.290
    235    C    -3.498    0.349    9.128
    236    H    -3.513    0.024    10.074
    237    O    -3.175    -0.727    8.279
    238    C    -1.743    -0.907    8.264
    239    H    -1.541    -1.744    8.772
    240    N    -1.325    -0.986    6.845
    241    C    -2.140    -0.522    5.849
    242    H    -3.053    -0.117    5.909
    243    C    -0.080    -1.521    6.566
    244    O    0.665    -1.948    7.442
    245    N    0.280    -1.551    5.237
    246    H    1.204    -1.945    5.010
    247    C    -0.476    -1.104    4.174
    248    O    -0.045    -1.177    3.029
    249    C    -1.762    -0.565    4.552
    250    H    -2.245    -0.268    3.728
    251    C    -1.177    0.293    9.033
    252    H    -0.398    0.661    8.525
    253    O    -0.858    -0.045    10.384
    254    H    -0.527    -0.937    10.511
    255    C    -2.325    1.290    8.970
    256    H    -2.361    1.706    8.061
    257    O    -2.263    2.251    10.049
    258    P    -1.657    3.746    9.684
    259    O    -1.823    4.569    10.909
    260    O    -2.096    4.324    8.369
    261    O    -0.094    3.384    9.541
    262    C    0.579    2.761    10.642
    263    H    0.075    1.940    10.909
    264    H    0.760    3.449    11.344
    265    C    1.956    2.249    10.249
    266    H    2.430    1.763    10.984
    267    O    1.821    1.368    9.114
    268    C    3.073    1.249    8.416
    269    H    3.501    0.380    8.664
    270    N    2.786    1.346    6.967
    271    C    1.622    1.900    6.517
    272    H    0.850    2.284    7.023
    273    C    1.372    1.994    5.200
    274    H    0.602    2.354    4.673
    275    C    3.745    0.866    6.086
    276    O    4.790    0.377    6.511
    277    N    3.500    0.958    4.752
    278    C    2.362    1.499    4.298
    279    N    2.156    1.580    2.989
    280    H    2.865    1.230    2.361
    281    H    1.305    1.984    2.625
    282    C    3.885    2.397    9.027
    283    H    4.323    2.884    8.271
    284    O    4.818    1.926    10.005
    285    H    5.167    1.047    9.842
    286    C    2.872    3.317    9.688
    287    H    2.374    3.844    8.999
    288    O    3.493    4.116    10.714
    289    P    3.769    5.692    10.360
    290    O    4.363    6.289    11.578
    291    O    2.622    6.392    9.698
    292    O    4.935    5.543    9.257
    293    C    6.167    4.895    9.598
    294    H    5.964    4.011    10.019
    295    H    6.742    5.536    10.107
    296    C    6.973    4.556    8.354
    297    H    7.822    4.061    8.541
    298    O    6.164    3.776    7.480
    299    C    6.577    4.003    6.119
    300    H    6.960    3.149    5.766
    301    N    5.376    4.445    5.371
    302    C    4.277    4.909    6.033
    303    H    4.118    5.030    7.013
    304    C    3.178    5.292    5.361
    305    H    2.289    5.650    5.648
    306    C    5.399    4.359    3.983
    307    O    6.402    3.949    3.406
    308    N    4.287    4.746    3.294
    309    C    3.204    5.200    3.938
    310    N    2.132    5.565    3.242
    311    H    2.156    5.492    2.235
    312    H    1.306    5.910    3.710
    313    C    7.696    5.038    6.239
    314    H    7.640    5.670    5.466
    315    O    8.982    4.428    6.376
    316    H    9.100    3.616    5.878
    317    C    7.298    5.771    7.507
    318    H    6.461    6.299    7.360
    319    O    8.390    6.534    8.045
    320    P    8.392    8.141    7.815
    321    O    9.479    8.715    8.641
    322    O    7.022    8.722    7.903
    323    O    8.852    8.198    6.277
    324    C    10.149    7.712    5.919
    325    H    10.224    6.753    6.193
    326    H    10.840    8.351    6.255
    327    C    10.354    7.692    4.413
    328    H    11.270    7.383    4.158
    329    O    9.381    6.822    3.809
    330    C    9.112    7.308    2.480
    331    H    9.422    6.605    1.840
    332    N    7.652    7.554    2.393
    333    C    6.910    7.733    3.524
    334    H    7.188    7.739    4.485
    335    C    5.584    7.942    3.451
    336    H    4.874    8.091    4.140
    337    C    7.067    7.583    1.132
    338    O    7.753    7.430    0.125
    339    N    5.723    7.795    1.049
    340    C    4.987    7.972    2.155
    341    N    3.677    8.179    2.042
    342    H    3.264    8.198    1.121
    343    H    3.104    8.315    2.862
    344    C    9.981    8.558    2.307
    345    H    9.474    9.243    1.784
    346    O    11.256    8.253    1.734
    347    H    11.248    7.555    1.075
    348    C    10.105    9.027    3.746
    349    H    9.230    9.392    4.064
    350    O    11.222    9.923    3.910
    351    P    10.959    11.539    3.917
    352    O    12.230    12.225    4.261
    353    O    9.720    11.884    4.674
    354    O    10.662    11.799    2.355
    355    C    11.669    11.502    1.381
    356    H    11.936    10.542    1.471
    357    H    12.388    12.195    1.434
    358    C    11.127    11.619    -0.040
    359    H    11.817    11.408    -0.733
    360    O    10.009    10.736    -0.210
    361    C    9.148    11.281    -1.225
    362    H    9.231    10.688    -2.026
    363    N    7.777    11.295    -0.666
    364    C    7.583    11.267    0.683
    365    H    8.246    11.254    1.431
    366    C    6.343    11.253    1.198
    367    H    5.990    11.232    2.133
    368    C    6.706    11.314    -1.550
    369    O    6.902    11.349    -2.763
    370    N    5.446    11.300    -1.035
    371    C    5.245    11.270    0.288
    372    N    4.006    11.248    0.764
    373    H    3.233    11.254    0.114
    374    H    3.836    11.225    1.759
    375    C    9.704    12.663    -1.569
    376    H    8.943    13.310    -1.620
    377    O    10.485    12.647    -2.767
    378    H    10.183    12.032    -3.440
    379    C    10.553    12.991    -0.347
    380    H    9.960    13.272    0.408
    381    O    11.591    13.934    -0.666
    382    P    11.344    15.523    -0.410
    383    O    12.556    16.271    -0.828
    384    O    10.791    15.731    0.954
    385    O    10.177    15.839    -1.473
    386    C    10.419    15.618    -2.866
    387    H    10.752    14.684    -2.994
    388    H    10.977    16.367    -3.222
    389    C    9.137    15.679    -3.683
    390    H    9.315    15.462    -4.643
    391    O    8.186    14.771    -3.176
    392    C    6.897    15.225    -3.624
    393    H    6.653    14.654    -4.408
    394    N    5.954    15.062    -2.496
    395    C    6.411    14.962    -1.210
    396    H    7.349    14.974    -0.863
    397    C    4.604    15.021    -2.788
    398    O    4.172    15.108    -3.933
    399    N    3.757    14.879    -1.709
    400    H    2.746    14.850    -1.905
    401    C    4.131    14.771    -0.386
    402    O    3.283    14.639    0.492
    403    C    5.559    14.823    -0.170
    404    H    5.743    14.742    0.810
    405    C    7.053    16.673    -4.092
    406    H    6.396    17.237    -3.591
    407    O    6.909    16.796    -5.513
    408    H    6.287    16.183    -5.912
    409    C    8.462    17.037    -3.644
    410    H    8.435    17.360    -2.698
    411    O    9.071    17.938    -4.581
    412    P    9.117    19.530    -4.313
    413    O    9.622    20.227    -5.521
    414    O    9.807    19.709    -3.016
    415    O    7.568    19.926    -4.120
    416    C    6.662    19.889    -5.228
    417    H    6.732    18.998    -5.676
    418    H    6.798    20.707    -5.787
    419    C    5.208    19.975    -4.770
    420    H    4.592    20.065    -5.553
    421    O    4.859    18.811    -4.039
    422    C    3.854    19.153    -3.063
    423    H    3.015    18.678    -3.329
    424    N    4.352    18.745    -1.734
    425    C    3.586    18.448    -0.628
    426    N    0.477    18.021    0.859
    427    H    0.022    17.785    1.729
    428    H    -0.127    18.218    0.074
    429    N    2.235    18.426    -0.577
    430    C    1.781    18.100    0.636
    431    N    2.594    17.822    1.705
    432    H    2.139    17.582    2.597
    433    C    3.976    17.838    1.679
    434    O    4.608    17.574    2.694
    435    C    4.470    18.181    0.392
    436    N    5.782    18.305    -0.056
    437    C    5.641    18.635    -1.301
    438    H    6.545    18.748    -1.712
    439    C    3.633    20.653    -3.184
    440    H    3.566    21.039    -2.264
    441    O    2.493    20.962    -3.997
    442    H    1.769    20.335    -3.934
    443    C    4.925    21.136    -3.831
    444    H    5.648    21.181    -3.142
    445    O    4.711    22.351    -4.549
    446    P    5.214    23.743    -3.946
    447    O    4.879    24.829    -4.888
    448    O    6.612    23.528    -3.525
    449    O    4.301    23.884    -2.630
    450    C    4.682    24.742    -1.556
    451    H    4.652    25.691    -1.871
    452    H    5.536    24.407    -1.159
    453    C    3.675    24.684    -0.411
    454    H    4.038    25.149    0.397
    455    O    2.488    25.347    -0.833
    456    C    1.375    24.436    -0.836
    457    H    0.673    24.854    -0.259
    458    N    0.926    24.288    -2.240
    459    C    1.761    23.789    -3.199
    460    H    2.704    23.464    -3.128
    461    C    1.353    23.672    -4.475
    462    H    1.796    23.341    -5.309
    463    C    -0.367    24.687    -2.550
    464    O    -1.104    25.128    -1.672
    465    N    -0.788    24.571    -3.841
    466    C    0.025    24.084    -4.787
    467    N    -0.415    23.990    -6.039
    468    H    -1.356    24.289    -6.249
    469    H    0.181    23.626    -6.769
    470    C    1.830    23.120    -0.195
    471    H    1.683    22.396    -0.869
    472    O    1.160    22.861    1.043
    473    H    0.264    23.201    1.098
    474    C    3.325    23.274    0.048
    475    H    3.791    22.615    -0.542
    476    O    3.617    23.166    1.448
    477    P    3.529    21.745    2.204
    478    O    4.402    21.802    3.398
    479    O    3.732    20.688    1.191
    480    O    1.992    21.681    2.704
    481    C    1.476    22.609    3.680
    482    H    1.521    23.535    3.305
    483    H    1.920    22.437    4.559
    484    C    -0.016    22.397    3.969
    485    H    -0.296    22.948    4.755
    486    O    -0.766    22.805    2.825
    487    C    -1.680    21.778    2.432
    488    H    -2.581    22.075    2.749
    489    N    -1.640    21.653    0.962
    490    C    -2.201    21.725    -1.157
    491    N    -0.847    21.401    -1.124
    492    C    -0.585    21.371    0.146
    493    H    0.379    21.137    0.274
    494    N    -4.369    22.220    -1.888
    495    C    -4.731    22.337    -0.611
    496    H    -5.660    22.559    -0.313
    497    N    -3.957    22.187    0.460
    498    C    -2.691    21.877    0.108
    499    C    -3.103    21.915    -2.207
    500    N    -2.749    21.846    -3.487
    501    H    -3.444    22.026    -4.198
    502    H    -1.793    21.616    -3.719
    503    C    -1.303    20.498    3.147
    504    H    -0.764    19.943    2.513
    505    O    -2.459    19.818    3.640
    506    H    -3.248    19.919    3.103
    507    C    -0.409    20.947    4.296
    508    H    0.411    20.375    4.276
    509    O    -1.164    20.923    5.518
    510    P    -1.639    19.516    6.175
    511    O    -1.730    19.704    7.643
    512    O    -0.788    18.429    5.630
    513    O    -3.138    19.315    5.604
    514    C    -4.236    18.979    6.471
    515    H    -4.331    19.691    7.167
    516    H    -4.130    18.034    6.779
    517    C    -5.573    18.991    5.727
    518    H    -6.292    18.588    6.293
    519    O    -5.918    20.353    5.432
    520    C    -6.176    20.487    4.029
    521    H    -7.163    20.391    3.901
    522    N    -5.726    21.842    3.578
    523    C    -4.734    22.508    4.257
    524    H    -4.228    22.231    5.074
    525    C    -6.319    22.408    2.449
    526    O    -7.201    21.851    1.807
    527    N    -5.848    23.648    2.074
    528    H    -6.278    24.079    1.243
    529    C    -4.857    24.373    2.699
    530    O    -4.515    25.467    2.260
    531    C    -4.293    23.724    3.857
    532    H    -3.585    24.313    4.248
    533    C    -5.467    19.304    3.353
    534    H    -4.504    19.539    3.222
    535    O    -6.105    18.940    2.122
    536    H    -6.480    19.673    1.628
    537    C    -5.573    18.207    4.420
    538    H    -4.747    17.646    4.377
    539    O    -6.812    17.492    4.262
    540    P    -6.889    16.086    3.458
    541    O    -8.255    15.536    3.626
    542    O    -5.719    15.255    3.828
    543    O    -6.718    16.537    1.915
    544    C    -7.721    17.331    1.260
    545    H    -7.784    18.218    1.717
    546    H    -8.557    16.790    1.170
    547    C    -7.320    17.664    -0.177
    548    H    -8.066    18.144    -0.639
    549    O    -6.134    18.493    -0.211
    550    C    -5.620    18.400    -1.539
    551    H    -5.966    19.200    -2.030
    552    N    -4.150    18.419    -1.461
    553    C    -2.032    18.661    -1.973
    554    N    -2.066    18.289    -0.629
    555    C    -3.338    18.164    -0.393
    556    H    -3.467    17.896    0.562
    557    N    -1.305    19.284    -4.110
    558    C    -2.581    19.325    -4.490
    559    H    -2.882    19.565    -5.413
    560    N    -3.645    19.065    -3.743
    561    C    -3.294    18.739    -2.483
    562    C    -0.986    18.954    -2.850
    563    N    0.291    18.919    -2.494
    564    H    0.997    19.142    -3.181
    565    H    0.528    18.670    -1.544
    566    C    -6.199    17.131    -2.180
    567    H    -5.438    16.548    -2.464
    568    O    -7.078    17.449    -3.268
    569    H    -6.836    18.231    -3.769
    570    C    -6.941    16.455    -1.021
    571    H    -6.300    15.886    -0.505
    572    O    -8.100    15.778    -1.518
    573    P    -8.067    14.216    -1.888
    574    O    -9.371    13.816    -2.464
    575    O    -7.551    13.532    -0.686
    576    O    -6.952    14.124    -3.051
    577    C    -7.184    14.741    -4.322
    578    H    -7.461    15.691    -4.177
    579    H    -7.786    14.154    -4.864
    580    C    -5.918    14.852    -5.170
    581    H    -6.157    15.213    -6.071
    582    O    -4.956    15.741    -4.544
    583    C    -3.638    15.314    -4.947
    584    H    -3.275    16.043    -5.527
    585    N    -2.835    15.126    -3.724
    586    C    -1.160    14.938    -2.318
    587    N    -2.319    14.739    -1.572
    588    C    -3.260    14.858    -2.455
    589    H    -4.145    14.724    -2.008
    590    N    1.082    15.167    -2.957
    591    C    0.663    15.385    -4.205
    592    H    1.274    15.561    -4.977
    593    N    -0.595    15.408    -4.635
    594    C    -1.462    15.174    -3.628
    595    C    0.194    14.940    -1.976
    596    N    0.625    14.746    -0.733
    597    H    1.618    14.773    -0.549
    598    H    -0.050    14.576    -0.002
    599    C    -3.783    14.034    -5.784
    600    H    -3.104    13.368    -5.476
    601    O    -3.701    14.305    -7.185
    602    H    -3.094    15.009    -7.427
    603    C    -5.171    13.548    -5.384
    604    H    -5.104    13.064    -4.511
    605    O    -5.780    12.832    -6.456
    606    P    -5.510    11.287    -6.711
    607    O    -6.287    10.825    -7.876
    608    O    -5.727    10.702    -5.379
    609    O    -3.948    11.205    -7.072
    610    C    -3.424    11.857    -8.235
    611    H    -3.678    12.824    -8.208
    612    H    -3.676    11.329    -9.046
    613    C    -1.900    11.861    -8.239
    614    H    -1.549    12.287    -9.073
    615    O    -1.387    12.572    -7.098
    616    C    -0.050    12.086    -6.863
    617    H    0.571    12.789    -7.209