!*** FMO 5.2 (Gamess) INPUT generated by Facio 21.1.1.32 ***
 $CONTRL RUNTYP=OPTFMO NPRINT=-5 ISPHER=-1 MAXIT=50 $END
 $SYSTEM MWORDS=29 $END
 $GDDI NGROUP=1 $END
 $INTGRL NINTIC=-9000000 $END
 $SCF DIRSCF=.FALSE. NPUNCH=0 $END
!*** NumCPU : 2  MemPerNode : 512MB
 $FMOPRP
    NAODIR=210
    NGRFMO(1)=1, 1, 0, 0, 0,   0, 0, 0, 0, 0
    NPRINT=9
 $END
 $FMO
      SCFTYP(1)=RHF
      MODGRD=10
      MODMUL=0
      MAXCAO=5
      MAXBND=34
      NLAYER=1
      NFRAG=32
      ICHARG(1)=-1, -1, -1, -1, -1, -1, -1, -1, -1, -1, 
-1, -1, -1, -1, -1, -1, -1, -1, -1, -1, 
-1, -1, -1, -1, -1, -1, -1, -1, -1, -1, 
-1, 0
      FRGNAM(1)=Frag1, Frag2, Frag3, Frag4, Frag5, Frag6, Frag7, Frag8, Frag9, Frag10, Frag11, Frag12, Frag13, Frag14, Frag15, Frag16, Frag17, Frag18, Frag19, Frag20, Frag21, Frag22, Frag23, Frag24, Frag25, Frag26, Frag27, Frag28, Frag29, Frag30, Frag31, Frag32
      indat(1)=0
               1   -36   0
               37   -69   0
               70   -103   0
               104   -134   0
               135   -167   0
               168   -201   0
               202   -231   0
               232   -261   0
               262   -292   0
               293   -323   0
               324   -354   0
               355   -385   0
               386   -415   0
               416   -449   0
               450   -480   0
               481   -513   0
               514   -543   0
               544   -576   0
               577   -609   0
               610   -643   0
               644   -677   0
               678   -710   0
               711   -740   0
               741   -774   0
               775   -807   0
               808   -840   0
               841   -871   0
               872   -902   0
               903   -936   0
               937   -966   0
               967   -996   0
               997   -1024   0
 $END

 $FMOBND
   -37   36       3-21G    MINI
   -70   69       3-21G    MINI
   -104   103       3-21G    MINI
   -135   134       3-21G    MINI
   -168   167       3-21G    MINI
   -202   201       3-21G    MINI
   -232   231       3-21G    MINI
   -262   261       3-21G    MINI
   -293   292       3-21G    MINI
   -324   323       3-21G    MINI
   -355   354       3-21G    MINI
   -386   385       3-21G    MINI
   -416   415       3-21G    MINI
   -450   449       3-21G    MINI
   -481   480       3-21G    MINI
   -514   513       3-21G    MINI
   -544   543       3-21G    MINI
   -577   576       3-21G    MINI
   -610   609       3-21G    MINI
   -644   643       3-21G    MINI
   -678   677       3-21G    MINI
   -711   710       3-21G    MINI
   -741   740       3-21G    MINI
   -775   774       3-21G    MINI
   -808   807       3-21G    MINI
   -841   840       3-21G    MINI
   -872   871       3-21G    MINI
   -903   902       3-21G    MINI
   -937   936       3-21G    MINI
   -967   966       3-21G    MINI
   -997   996       3-21G    MINI
 $END
 $FMOHYB
 3-21G        9   5
   1 0  -0.070459   0.164841   0.000000   0.000000   0.502116
         0.466939   0.000000   0.000000   0.418036
   0 1  -0.070465   0.164857   0.473392   0.000000  -0.167359
         0.466967   0.394111   0.000000  -0.139327
   0 1  -0.070465   0.164857  -0.236695  -0.409969  -0.167359
         0.466967  -0.197055  -0.341311  -0.139327
   0 1  -0.070465   0.164857  -0.236695   0.409969  -0.167359
         0.466967  -0.197055   0.341311  -0.139327
   0 1   1.006716   0.074826   0.000000   0.000000   0.000000
        -0.143830   0.000000   0.000000  -0.000003
 MINI         5   5
   1 0  -0.104883   0.308874   0.000000   0.000000   0.521806
   0 1  -0.104883   0.308874   0.491961   0.000000  -0.173934
   0 1  -0.104883   0.308876  -0.245980  -0.426050  -0.173933
   0 1  -0.104883   0.308876  -0.245980   0.426050  -0.173933
   0 1   0.988209   0.063992   0.000000   0.000000   0.000000
 $END

 $DATA
 FMO calculation : XXNAMEXX
 C1 
 C.1-1    6
      N21 3
   
 O.1-1    8
      N21 3
   
 N.1-1    7
      N21 3
   
 H.1-1    1
      N21 3
   
 P.1-1   15
      N21 3
   
 $END
 $FMOXYZ
    1    H    9.563    -19.856    -0.917
    2    O    8.763    -20.014    -1.497
    3    C    9.146    -20.835    -2.607
    4    H    9.417    -21.736    -2.267
    5    H    9.798    -20.332    -3.174
    6    C    7.969    -21.118    -3.539
    7    H    8.295    -21.603    -4.350
    8    O    6.978    -21.899    -2.904
    9    C    5.765    -21.737    -3.666
    10    H    5.739    -22.491    -4.322
    11    N    4.634    -21.776    -2.713
    12    C    3.325    -22.077    -3.015
    13    N    0.904    -23.004    -5.323
    14    H    -0.080    -23.206    -5.425
    15    H    1.468    -23.081    -6.157
    16    N    2.849    -22.414    -4.237
    17    C    1.535    -22.649    -4.213
    18    N    0.761    -22.558    -3.084
    19    H    -0.244    -22.761    -3.181
    20    C    1.222    -22.216    -1.827
    21    O    0.440    -22.160    -0.882
    22    C    2.622    -21.963    -1.836
    23    N    3.471    -21.596    -0.794
    24    C    4.628    -21.504    -1.373
    25    H    5.312    -21.241    -0.693
    26    C    5.879    -20.415    -4.430
    27    H    5.164    -19.800    -4.096
    28    O    5.819    -20.606    -5.850
    29    H    5.257    -21.329    -6.138
    30    C    7.236    -19.872    -4.009
    31    H    7.104    -19.259    -3.230
    32    O    7.923    -19.309    -5.129
    33    P    7.812    -17.746    -5.459
    34    O    8.696    -17.443    -6.604
    35    O    7.983    -17.035    -4.176
    36    O    6.288    -17.590    -5.941
    37    C    5.851    -18.220    -7.148
    38    H    6.060    -19.197    -7.100
    39    H    6.201    -17.704    -7.930
    40    C    4.338    -18.169    -7.313
    41    H    4.086    -18.554    -8.201
    42    O    3.684    -18.925    -6.269
    43    C    2.311    -18.485    -6.280
    44    H    1.831    -19.055    -6.947
    45    N    1.770    -18.649    -4.915
    46    C    0.430    -19.058    -3.223
    47    N    1.635    -18.633    -2.670
    48    C    2.375    -18.408    -3.713
    49    H    3.274    -18.091    -3.412
    50    N    -1.774    -19.810    -3.487
    51    C    -1.583    -19.782    -4.807
    52    H    -2.281    -20.036    -5.477
    53    N    -0.474    -19.425    -5.451
    54    C    0.501    -19.072    -4.587
    55    C    -0.783    -19.452    -2.654
    56    N    -0.987    -19.489    -1.340
    57    H    -1.887    -19.787    -0.992
    58    H    -0.237    -19.218    -0.720
    59    C    2.313    -17.038    -6.773
    60    H    2.113    -16.453    -5.987
    61    O    1.407    -16.846    -7.864
    62    H    0.623    -17.400    -7.842
    63    C    3.738    -16.777    -7.234
    64    H    4.210    -16.259    -6.520
    65    O    3.736    -16.171    -8.536
    66    P    3.272    -14.630    -8.682
    67    O    3.680    -14.167    -10.026
    68    O    3.694    -13.871    -7.481
    69    O    1.666    -14.754    -8.663
    70    C    0.981    -15.409    -9.735
    71    H    1.359    -16.328    -9.849
    72    H    0.970    -14.805    -10.532
    73    C    -0.489    -15.641    -9.415
    74    H    -0.976    -16.111    -10.151
    75    O    -0.601    -16.412    -8.218
    76    C    -1.969    -16.347    -7.761
    77    H    -2.464    -17.142    -8.112
    78    N    -1.943    -16.294    -6.284
    79    C    -3.032    -16.377    -5.450
    80    N    -6.456    -16.724    -4.994
    81    H    -7.176    -16.768    -4.287
    82    H    -6.761    -16.805    -5.953
    83    N    -4.321    -16.532    -5.837
    84    C    -5.154    -16.572    -4.798
    85    N    -4.754    -16.472    -3.490
    86    H    -5.485    -16.521    -2.766
    87    C    -3.448    -16.311    -3.068
    88    O    -3.200    -16.228    -1.869
    89    C    -2.544    -16.264    -4.166
    90    N    -1.159    -16.115    -4.183
    91    C    -0.873    -16.141    -5.448
    92    H    0.115    -16.039    -5.560
    93    C    -2.484    -15.086    -8.466
    94    H    -2.896    -14.502    -7.766
    95    O    -3.378    -15.399    -9.539
    96    H    -3.905    -16.191    -9.410
    97    C    -1.253    -14.395    -9.024
    98    H    -0.754    -13.921    -8.299
    99    O    -1.581    -13.573    -10.154
    100    P    -1.686    -11.964    -9.975
    101    O    -1.969    -11.360    -11.298
    102    O    -0.521    -11.495    -9.186
    103    O    -3.004    -11.805    -9.062
    104    C    -4.283    -12.131    -9.612
    105    H    -4.266    -13.077    -9.936
    106    H    -4.550    -11.418    -10.260
    107    C    -5.388    -12.115    -8.563
    108    H    -6.281    -12.266    -8.988
    109    O    -5.160    -13.133    -7.583
    110    C    -5.869    -12.744    -6.393
    111    H    -6.675    -13.334    -6.336
    112    N    -4.952    -12.920    -5.249
    113    C    -3.598    -12.872    -5.418
    114    H    -3.053    -12.761    -6.249
    115    C    -2.771    -12.981    -4.364
    116    H    -1.776    -12.973    -4.269
    117    C    -5.517    -13.087    -3.995
    118    O    -6.738    -13.143    -3.869
    119    N    -4.688    -13.195    -2.924
    120    C    -3.359    -13.145    -3.076
    121    N    -2.576    -13.220    -2.006
    122    H    -3.002    -13.314    -1.095
    123    H    -1.571    -13.184    -2.099
    124    C    -6.325    -11.294    -6.589
    125    H    -6.077    -10.768    -5.775
    126    O    -7.720    -11.211    -6.904
    127    H    -8.272    -11.869    -6.476
    128    C    -5.466    -10.835    -7.755
    129    H    -4.551    -10.603    -7.424
    130    O    -6.128    -9.799    -8.500
    131    P    -5.867    -8.247    -8.135
    132    O    -6.511    -7.403    -9.168
    133    O    -4.422    -8.078    -7.847
    134    O    -6.681    -8.059    -6.760
    135    C    -8.109    -8.164    -6.759
    136    H    -8.369    -9.076    -7.075
    137    H    -8.494    -7.375    -7.238
    138    C    -8.684    -8.072    -5.351
    139    H    -9.684    -8.071    -5.378
    140    O    -8.229    -9.199    -4.527
    141    C    -8.386    -8.773    -3.159
    142    H    -9.200    -9.236    -2.808
    143    N    -7.163    -9.174    -2.434
    144    C    -5.760    -9.778    -0.856
    145    N    -5.034    -9.794    -2.046
    146    C    -5.914    -9.428    -2.930
    147    H    -5.481    -9.406    -3.831
    148    N    -6.366    -9.951    1.398
    149    C    -7.597    -9.572    1.056
    150    H    -8.349    -9.466    1.706
    151    N    -8.035    -9.276    -0.166
    152    C    -7.053    -9.402    -1.080
    153    C    -5.411    -10.068    0.465
    154    N    -4.190    -10.448    0.827
    155    H    -4.006    -10.642    1.801
    156    H    -3.474    -10.534    0.120
    157    C    -8.642    -7.261    -3.180
    158    H    -8.023    -6.833    -2.522
    159    O    -10.019    -6.950    -2.941
    160    H    -10.472    -7.550    -2.344
    161    C    -8.239    -6.840    -4.585
    162    H    -7.244    -6.761    -4.645
    163    O    -8.969    -5.681    -5.004
    164    P    -8.412    -4.203    -4.710
    165    O    -9.347    -3.202    -5.269
    166    O    -7.002    -4.227    -5.147
    167    O    -8.452    -4.086    -3.108
    168    C    -9.707    -4.103    -2.422
    169    H    -10.285    -4.817    -2.818
    170    H    -10.071    -3.172    -2.386
    171    C    -9.559    -4.506    -0.961
    172    H    -10.438    -4.713    -0.531
    173    O    -8.725    -5.650    -0.882
    174    C    -8.232    -5.748    0.468
    175    H    -8.779    -6.439    0.940
    176    N    -6.803    -6.118    0.391
    177    C    -5.991    -6.445    1.453
    178    N    -5.527    -6.906    4.862
    179    H    -4.840    -7.162    5.557
    180    H    -6.451    -6.682    5.203
    181    N    -6.357    -6.476    2.755
    182    C    -5.346    -6.832    3.552
    183    N    -4.087    -7.133    3.101
    184    H    -3.382    -7.397    3.804
    185    C    -3.688    -7.111    1.777
    186    O    -2.536    -7.410    1.478
    187    C    -4.755    -6.731    0.917
    188    N    -4.778    -6.585    -0.469
    189    C    -6.001    -6.225    -0.708
    190    H    -6.115    -6.093    -1.693
    191    C    -8.515    -4.376    1.092
    192    H    -7.672    -4.052    1.522
    193    O    -9.620    -4.419    2.001
    194    H    -9.717    -5.244    2.482
    195    C    -8.835    -3.489    -0.101
    196    H    -7.991    -3.214    -0.562
    197    O    -9.709    -2.411    0.282
    198    P    -9.101    -0.950    0.651
    199    O    -10.226    -0.001    0.825
    200    O    -8.033    -0.647    -0.331
    201    O    -8.406    -1.163    2.090
    202    C    -9.207    -1.438    3.245
    203    H    -9.802    -2.218    3.050
    204    H    -9.634    -0.588    3.555
    205    C    -8.359    -1.892    4.427
    206    H    -8.904    -2.080    5.244
    207    O    -7.662    -3.057    4.065
    208    C    -6.437    -3.134    4.820
    209    H    -6.510    -3.917    5.438
    210    N    -5.325    -3.264    3.849
    211    C    -5.493    -2.899    2.541
    212    H    -6.304    -2.538    2.080
    213    C    -4.117    -3.751    4.311
    214    O    -3.941    -4.083    5.478
    215    N    -3.106    -3.838    3.377
    216    H    -2.196    -4.195    3.703
    217    C    -3.190    -3.494    2.045
    218    O    -2.218    -3.613    1.308
    219    C    -4.485    -2.997    1.646
    220    H    -4.461    -2.771    0.672
    221    C    -6.409    -1.851    5.644
    222    H    -5.471    -1.506    5.669
    223    O    -6.974    -2.034    6.947
    224    H    -6.814    -2.895    7.341
    225    C    -7.258    -0.913    4.809
    226    H    -6.765    -0.639    3.983
    227    O    -7.741    0.190    5.600
    228    P    -6.939    1.616    5.606
    229    O    -7.705    2.588    6.427
    230    O    -6.582    1.967    4.207
    231    O    -5.571    1.277    6.394
    232    C    -5.627    0.894    7.772
    233    H    -6.254    0.121    7.870
    234    H    -5.795    1.707    8.329
    235    C    -4.296    0.359    8.288
    236    H    -4.342    0.076    9.246
    237    O    -3.914    -0.745    7.501
    238    C    -2.480    -0.891    7.553
    239    H    -2.282    -1.700    8.106
    240    N    -2.001    -1.022    6.157
    241    C    -2.783    -0.621    5.109
    242    H    -3.706    -0.236    5.114
    243    C    -0.734    -1.539    5.953
    244    O    -0.017    -1.910    6.876
    245    N    -0.318    -1.618    4.642
    246    H    0.623    -2.000    4.470
    247    C    -1.039    -1.235    3.531
    248    O    -0.559    -1.347    2.408
    249    C    -2.351    -0.711    3.831
    250    H    -2.806    -0.462    2.976
    251    C    -1.972    0.353    8.290
    252    H    -1.179    0.715    7.799
    253    O    -1.703    0.081    9.667
    254    H    -1.360    -0.797    9.847
    255    C    -3.136    1.322    8.135
    256    H    -3.144    1.696    7.208
    257    O    -3.156    2.289    9.192
    258    P    -2.407    3.707    9.066
    259    O    -2.620    4.476    10.313
    260    O    -2.821    4.267    7.763
    261    O    -0.853    3.309    8.977
    262    C    -0.210    2.673    10.089
    263    H    -0.721    1.848    10.332
    264    H    -0.049    3.353    10.804
    265    C    1.178    2.167    9.727
    266    H    1.632    1.673    10.468
    267    O    1.075    1.300    8.578
    268    C    2.346    1.191    7.912
    269    H    2.768    0.319    8.159
    270    N    2.098    1.306    6.457
    271    C    0.947    1.865    5.983
    272    H    0.161    2.242    6.473
    273    C    0.733    1.976    4.661
    274    H    -0.022    2.343    4.118
    275    C    3.081    0.838    5.597
    276    O    4.115    0.343    6.045
    277    N    2.873    0.946    4.258
    278    C    1.747    1.493    3.781
    279    N    1.578    1.590    2.467
    280    H    2.305    1.248    1.855
    281    H    0.738    1.999    2.084
    282    C    3.140    2.331    8.560
    283    H    3.600    2.826    7.823
    284    O    4.046    1.848    9.558
    285    H    4.399    0.970    9.394
    286    C    2.109    3.245    9.203
    287    H    1.629    3.779    8.507
    288    O    2.695    3.982    10.272
    289    P    3.256    5.456    10.082
    290    O    3.862    5.923    11.342
    291    O    2.133    6.185    9.466
    292    O    4.415    5.276    8.986
    293    C    5.623    4.570    9.296
    294    H    5.389    3.673    9.672
    295    H    6.218    5.164    9.838
    296    C    6.420    4.267    8.037
    297    H    7.251    3.734    8.199
    298    O    5.587    3.560    7.124
    299    C    6.012    3.841    5.777
    300    H    6.366    2.993    5.382
    301    N    4.830    4.361    5.050
    302    C    3.745    4.829    5.734
    303    H    3.587    4.905    6.718
    304    C    2.662    5.284    5.080
    305    H    1.785    5.658    5.383
    306    C    4.854    4.344    3.660
    307    O    5.844    3.929    3.064
    308    N    3.758    4.804    2.990
    309    C    2.690    5.263    3.654
    310    N    1.633    5.699    2.976
    311    H    1.657    5.675    1.967
    312    H    0.818    6.049    3.460
    313    C    7.166    4.829    5.950
    314    H    7.135    5.500    5.209
    315    O    8.430    4.169    6.057
    316    H    8.521    3.379    5.520
    317    C    6.789    5.513    7.252
    318    H    5.971    6.075    7.131
    319    O    7.908    6.176    7.834
    320    P    8.158    7.734    7.638
    321    O    9.304    8.150    8.470
    322    O    6.839    8.377    7.796
    323    O    8.589    7.815    6.098
    324    C    9.839    7.260    5.681
    325    H    9.851    6.284    5.900
    326    H    10.582    7.829    6.034
    327    C    10.011    7.310    4.171
    328    H    10.896    6.951    3.875
    329    O    8.963    6.548    3.545
    330    C    8.702    7.127    2.252
    331    H    8.946    6.441    1.567
    332    N    7.262    7.482    2.217
    333    C    6.560    7.649    3.375
    334    H    6.858    7.581    4.327
    335    C    5.251    7.956    3.347
    336    H    4.569    8.116    4.061
    337    C    6.654    7.624    0.975
    338    O    7.305    7.480    -0.057
    339    N    5.327    7.936    0.938
    340    C    4.630    8.101    2.071
    341    N    3.336    8.408    2.003
    342    H    2.906    8.510    1.095
    343    H    2.792    8.537    2.844
    344    C    9.656    8.319    2.126
    345    H    9.189    9.067    1.654
    346    O    10.892    7.957    1.505
    347    H    10.819    7.299    0.810
    348    C    9.845    8.697    3.585
    349    H    9.006    9.105    3.946
    350    O    11.030    9.491    3.768
    351    P    10.932    11.116    3.813
    352    O    12.276    11.659    4.129
    353    O    9.762    11.541    4.628
    354    O    10.609    11.453    2.272
    355    C    11.547    11.099    1.251
    356    H    11.724    10.116    1.298
    357    H    12.330    11.719    1.299
    358    C    10.969    11.319    -0.143
    359    H    11.611    11.070    -0.868
    360    O    9.767    10.552    -0.300
    361    C    8.926    11.212    -1.262
    362    H    8.924    10.644    -2.085
    363    N    7.583    11.334    -0.649
    364    C    7.435    11.275    0.704
    365    H    8.120    11.172    1.425
    366    C    6.219    11.359    1.266
    367    H    5.900    11.337    2.213
    368    C    6.488    11.486    -1.490
    369    O    6.643    11.548    -2.708
    370    N    5.251    11.573    -0.928
    371    C    5.096    11.513    0.401
    372    N    3.878    11.590    0.923
    373    H    3.087    11.693    0.303
    374    H    3.742    11.547    1.923
    375    C    9.599    12.548    -1.580
    376    H    8.902    13.265    -1.580
    377    O    10.332    12.502    -2.807
    378    H    9.949    11.943    -3.487
    379    C    10.518    12.750    -0.382
    380    H    9.982    13.058    0.404
    381    O    11.631    13.587    -0.714
    382    P    11.570    15.181    -0.469
    383    O    12.837    15.785    -0.943
    384    O    11.106    15.426    0.916
    385    O    10.398    15.612    -1.481
    386    C    10.552    15.376    -2.884
    387    H    10.777    14.413    -3.029
    388    H    11.170    16.064    -3.264
    389    C    9.249    15.578    -3.641
    390    H    9.360    15.349    -4.608
    391    O    8.230    14.773    -3.093
    392    C    6.979    15.364    -3.481
    393    H    6.640    14.826    -4.253
    394    N    6.076    15.295    -2.312
    395    C    6.576    15.139    -1.048
    396    H    7.524    15.049    -0.744
    397    C    4.717    15.399    -2.542
    398    O    4.246    15.539    -3.667
    399    N    3.909    15.341    -1.426
    400    H    2.893    15.421    -1.576
    401    C    4.328    15.186    -0.122
    402    O    3.511    15.139    0.793
    403    C    5.762    15.085    0.029
    404    H    5.981    14.979    0.999
    405    C    7.267    16.790    -3.955
    406    H    6.696    17.418    -3.426
    407    O    7.072    16.936    -5.367
    408    H    6.371    16.395    -5.737
    409    C    8.724    17.000    -3.569
    410    H    8.773    17.317    -2.622
    411    O    9.381    17.818    -4.537
    412    P    9.623    19.378    -4.317
    413    O    10.142    19.986    -5.560
    414    O    10.387    19.471    -3.060
    415    O    8.136    19.927    -4.062
    416    C    7.179    19.982    -5.126
    417    H    7.128    19.085    -5.565
    418    H    7.378    20.775    -5.702
    419    C    5.768    20.233    -4.602
    420    H    5.130    20.385    -5.356
    421    O    5.327    19.121    -3.841
    422    C    4.413    19.580    -2.823
    423    H    3.515    19.199    -3.043
    424    N    4.926    19.130    -1.513
    425    C    4.184    18.929    -0.370
    426    N    1.122    18.862    1.265
    427    H    0.686    18.686    2.159
    428    H    0.507    19.118    0.506
    429    N    2.843    19.057    -0.256
    430    C    2.415    18.794    0.981
    431    N    3.242    18.436    2.015
    432    H    2.806    18.257    2.931
    433    C    4.614    18.297    1.924
    434    O    5.260    17.973    2.912
    435    C    5.082    18.573    0.612
    436    N    6.376    18.547    0.102
    437    C    6.213    18.880    -1.139
    438    H    7.104    18.887    -1.594
    439    C    4.354    21.094    -2.954
    440    H    4.373    21.492    -2.037
    441    O    3.218    21.522    -3.717
    442    H    2.432    20.980    -3.613
    443    C    5.660    21.426    -3.666
    444    H    6.416    21.396    -3.012
    445    O    5.544    22.644    -4.393
    446    P    6.251    23.973    -3.885
    447    O    5.990    25.062    -4.843
    448    O    7.631    23.607    -3.522
    449    O    5.417    24.235    -2.538
    450    C    5.938    25.068    -1.504
    451    H    5.998    26.007    -1.842
    452    H    6.768    24.649    -1.135
    453    C    4.984    25.146    -0.315
    454    H    5.432    25.585    0.464
    455    O    3.858    25.927    -0.703
    456    C    2.654    25.144    -0.634
    457    H    2.029    25.649    -0.039
    458    N    2.127    25.016    -2.013
    459    C    2.858    24.408    -2.994
    460    H    3.763    23.983    -2.955
    461    C    2.382    24.309    -4.248
    462    H    2.747    23.914    -5.091
    463    C    0.872    25.548    -2.277
    464    O    0.228    26.086    -1.380
    465    N    0.383    25.451    -3.545
    466    C    1.093    24.858    -4.512
    467    N    0.589    24.785    -5.741
    468    H    -0.323    25.181    -5.919
    469    H    1.108    24.342    -6.486
    470    C    2.991    23.800    0.022
    471    H    2.734    23.082    -0.625
    472    O    2.355    23.643    1.294
    473    H    1.505    24.081    1.379
    474    C    4.504    23.794    0.195
    475    H    4.867    23.075    -0.398
    476    O    4.846    23.680    1.585
    477    P    4.645    22.280    2.372
    478    O    5.576    22.261    3.524
    479    O    4.671    21.173    1.390
    480    O    3.137    22.410    2.945
    481    C    2.784    23.421    3.911
    482    H    2.921    24.323    3.503
    483    H    3.248    23.222    4.774
    484    C    1.293    23.398    4.274
    485    H    1.120    24.001    5.053
    486    O    0.541    23.860    3.152
    487    C    -0.506    22.939    2.837
    488    H    -1.348    23.351    3.185
    489    N    -0.554    22.768    1.372
    490    C    -1.206    22.846    -0.721
    491    N    0.101    22.363    -0.738
    492    C    0.419    22.338    0.519
    493    H    1.353    21.994    0.612
    494    N    -3.333    23.575    -1.369
    495    C    -3.615    23.772    -0.082
    496    H    -4.495    24.113    0.250
    497    N    -2.813    23.561    0.957
    498    C    -1.612    23.092    0.559
    499    C    -2.129    23.112    -1.734
    500    N    -1.849    22.964    -3.026
    501    H    -2.552    23.204    -3.710
    502    H    -0.940    22.615    -3.293
    503    C    -0.248    21.644    3.577
    504    H    0.190    21.011    2.938
    505    O    -1.452    21.122    4.146
    506    H    -2.249    21.301    3.642
    507    C    0.748    22.015    4.669
    508    H    1.493    21.349    4.632
    509    O    0.061    22.130    5.918
    510    P    -0.552    20.840    6.654
    511    O    -0.542    21.101    8.109
    512    O    0.146    19.655    6.109
    513    O    -2.085    20.808    6.153
    514    C    -3.170    20.632    7.082
    515    H    -3.148    21.374    7.753
    516    H    -3.158    19.692    7.422
    517    C    -4.532    20.774    6.399
    518    H    -5.264    20.478    7.012
    519    O    -4.732    22.156    6.065
    520    C    -5.042    22.271    4.671
    521    H    -6.039    22.287    4.591
    522    N    -4.462    23.547    4.146
    523    C    -3.368    24.116    4.752
    524    H    -2.857    23.810    5.555
    525    C    -5.041    24.139    3.023
    526    O    -6.012    23.667    2.444
    527    N    -4.450    25.302    2.578
    528    H    -4.869    25.751    1.751
    529    C    -3.353    25.928    3.128
    530    O    -2.910    26.959    2.630
    531    C    -2.811    25.259    4.284
    532    H    -2.022    25.775    4.619
    533    C    -4.508    20.990    4.012
    534    H    -3.532    21.106    3.828
    535    O    -5.243    20.661    2.826
    536    H    -5.555    21.415    2.320
    537    C    -4.686    19.951    5.126
    538    H    -3.932    19.296    5.068
    539    O    -6.005    19.374    5.050
    540    P    -6.258    17.941    4.318
    541    O    -7.667    17.552    4.569
    542    O    -5.172    16.987    4.658
    543    O    -6.118    18.317    2.750
    544    C    -7.057    19.201    2.116
    545    H    -6.995    20.103    2.544
    546    H    -7.953    18.757    2.086
    547    C    -6.696    19.443    0.651
    548    H    -7.406    19.992    0.209
    549    O    -5.427    20.128    0.530
    550    C    -4.998    19.937    -0.817
    551    H    -5.277    20.756    -1.319
    552    N    -3.533    19.788    -0.811
    553    C    -1.431    19.770    -1.433
    554    N    -1.436    19.444    -0.077
    555    C    -2.700    19.474    0.225
    556    H    -2.809    19.252    1.194
    557    N    -0.749    20.240    -3.624
    558    C    -2.030    20.416    -3.943
    559    H    -2.349    20.660    -4.859
    560    N    -3.077    20.304    -3.136
    561    C    -2.700    19.977    -1.884
    562    C    -0.404    19.914    -2.369
    563    N    0.877    19.742    -2.075
    564    H    1.567    19.860    -2.803
    565    H    1.134    19.497    -1.129
    566    C    -5.749    18.724    -1.384
    567    H    -5.075    18.048    -1.682
    568    O    -6.642    19.108    -2.438
    569    H    -6.339    19.841    -2.979
    570    C    -6.502    18.174    -0.166
    571    H    -5.904    17.550    0.338
    572    O    -7.755    17.604    -0.583
    573    P    -7.895    16.010    -0.845
    574    O    -9.269    15.735    -1.332
    575    O    -7.381    15.272    0.334
    576    O    -6.874    15.766    -2.074
    577    C    -7.117    16.392    -3.340
    578    H    -7.277    17.368    -3.195
    579    H    -7.814    15.871    -3.833
    580    C    -5.904    16.352    -4.267
    581    H    -6.159    16.727    -5.158
    582    O    -4.811    17.136    -3.719
    583    C    -3.577    16.561    -4.195
    584    H    -3.174    17.239    -4.810
    585    N    -2.723    16.298    -3.021
    586    C    -0.992    15.941    -1.720
    587    N    -2.116    15.880    -0.899
    588    C    -3.092    16.094    -1.723
    589    H    -3.955    16.065    -1.219
    590    N    1.216    15.913    -2.502
    591    C    0.744    16.162    -3.725
    592    H    1.320    16.260    -4.537
    593    N    -0.529    16.320    -4.076
    594    C    -1.350    16.194    -3.012
    595    C    0.373    15.797    -1.463
    596    N    0.859    15.570    -0.246
    597    H    1.858    15.489    -0.125
    598    H    0.217    15.484    0.529
    599    C    -3.915    15.295    -4.998
    600    H    -3.295    14.561    -4.721
    601    O    -3.894    15.540    -6.406
    602    H    -3.230    16.169    -6.698
    603    C    -5.320    14.971    -4.503
    604    H    -5.250    14.493    -3.627
    605    O    -6.072    14.315    -5.522
    606    P    -5.989    12.752    -5.802
    607    O    -6.889    12.390    -6.913
    608    O    -6.164    12.161    -4.467
    609    O    -4.472    12.529    -6.279
    610    C    -3.973    13.154    -7.468
    611    H    -4.129    14.140    -7.408
    612    H    -4.333    12.670    -8.266
    613    C    -2.461    13.013    -7.585
    614    H    -2.132    13.421    -8.436
    615    O    -1.800    13.647    -6.475
    616    C    -0.503    13.031    -6.346
    617    H    0.157    13.679    -6.727
    618    N    -0.287    12.776    -4.906