!*** FMO 5.2 (Gamess) INPUT generated by Facio 21.1.1.32 ***
 $CONTRL RUNTYP=OPTFMO NPRINT=-5 ISPHER=-1 MAXIT=50 $END
 $SYSTEM MWORDS=29 $END
 $GDDI NGROUP=1 $END
 $INTGRL NINTIC=-9000000 $END
 $SCF DIRSCF=.FALSE. NPUNCH=0 $END
!*** NumCPU : 2  MemPerNode : 512MB
 $FMOPRP
    NAODIR=210
    NGRFMO(1)=1, 1, 0, 0, 0,   0, 0, 0, 0, 0
    NPRINT=9
 $END
 $FMO
      SCFTYP(1)=RHF
      MODGRD=10
      MODMUL=0
      MAXCAO=5
      MAXBND=34
      NLAYER=1
      NFRAG=32
      ICHARG(1)=-1, -1, -1, -1, -1, -1, -1, -1, -1, -1, 
-1, -1, -1, -1, -1, -1, -1, -1, -1, -1, 
-1, -1, -1, -1, -1, -1, -1, -1, -1, -1, 
-1, 0
      FRGNAM(1)=Frag1, Frag2, Frag3, Frag4, Frag5, Frag6, Frag7, Frag8, Frag9, Frag10, Frag11, Frag12, Frag13, Frag14, Frag15, Frag16, Frag17, Frag18, Frag19, Frag20, Frag21, Frag22, Frag23, Frag24, Frag25, Frag26, Frag27, Frag28, Frag29, Frag30, Frag31, Frag32
      indat(1)=0
               1   -36   0
               37   -69   0
               70   -103   0
               104   -134   0
               135   -167   0
               168   -201   0
               202   -231   0
               232   -261   0
               262   -292   0
               293   -323   0
               324   -354   0
               355   -385   0
               386   -415   0
               416   -449   0
               450   -480   0
               481   -513   0
               514   -543   0
               544   -576   0
               577   -609   0
               610   -643   0
               644   -677   0
               678   -710   0
               711   -740   0
               741   -774   0
               775   -807   0
               808   -840   0
               841   -871   0
               872   -902   0
               903   -936   0
               937   -966   0
               967   -996   0
               997   -1024   0
 $END

 $FMOBND
   -37   36       3-21G    MINI
   -70   69       3-21G    MINI
   -104   103       3-21G    MINI
   -135   134       3-21G    MINI
   -168   167       3-21G    MINI
   -202   201       3-21G    MINI
   -232   231       3-21G    MINI
   -262   261       3-21G    MINI
   -293   292       3-21G    MINI
   -324   323       3-21G    MINI
   -355   354       3-21G    MINI
   -386   385       3-21G    MINI
   -416   415       3-21G    MINI
   -450   449       3-21G    MINI
   -481   480       3-21G    MINI
   -514   513       3-21G    MINI
   -544   543       3-21G    MINI
   -577   576       3-21G    MINI
   -610   609       3-21G    MINI
   -644   643       3-21G    MINI
   -678   677       3-21G    MINI
   -711   710       3-21G    MINI
   -741   740       3-21G    MINI
   -775   774       3-21G    MINI
   -808   807       3-21G    MINI
   -841   840       3-21G    MINI
   -872   871       3-21G    MINI
   -903   902       3-21G    MINI
   -937   936       3-21G    MINI
   -967   966       3-21G    MINI
   -997   996       3-21G    MINI
 $END
 $FMOHYB
 3-21G        9   5
   1 0  -0.070459   0.164841   0.000000   0.000000   0.502116
         0.466939   0.000000   0.000000   0.418036
   0 1  -0.070465   0.164857   0.473392   0.000000  -0.167359
         0.466967   0.394111   0.000000  -0.139327
   0 1  -0.070465   0.164857  -0.236695  -0.409969  -0.167359
         0.466967  -0.197055  -0.341311  -0.139327
   0 1  -0.070465   0.164857  -0.236695   0.409969  -0.167359
         0.466967  -0.197055   0.341311  -0.139327
   0 1   1.006716   0.074826   0.000000   0.000000   0.000000
        -0.143830   0.000000   0.000000  -0.000003
 MINI         5   5
   1 0  -0.104883   0.308874   0.000000   0.000000   0.521806
   0 1  -0.104883   0.308874   0.491961   0.000000  -0.173934
   0 1  -0.104883   0.308876  -0.245980  -0.426050  -0.173933
   0 1  -0.104883   0.308876  -0.245980   0.426050  -0.173933
   0 1   0.988209   0.063992   0.000000   0.000000   0.000000
 $END

 $DATA
 FMO calculation : XXNAMEXX
 C1 
 C.1-1    6
      N21 3
   
 O.1-1    8
      N21 3
   
 N.1-1    7
      N21 3
   
 H.1-1    1
      N21 3
   
 P.1-1   15
      N21 3
   
 $END
 $FMOXYZ
    1    H    0.909    -30.225    0.259
    2    O    0.343    -29.659    -0.340
    3    C    -0.057    -30.437    -1.475
    4    H    -0.648    -31.182    -1.167
    5    H    0.754    -30.673    -2.010
    6    C    -0.929    -29.632    -2.439
    7    H    -1.100    -30.152    -3.276
    8    O    -2.167    -29.317    -1.831
    9    C    -2.744    -28.229    -2.582
    10    H    -3.356    -28.640    -3.258
    11    N    -3.467    -27.344    -1.640
    12    C    -4.468    -26.456    -1.966
    13    N    -6.575    -25.023    -4.324
    14    H    -7.313    -24.343    -4.442
    15    H    -6.283    -25.520    -5.153
    16    N    -4.988    -26.259    -3.200
    17    C    -5.949    -25.333    -3.197
    18    N    -6.360    -24.660    -2.075
    19    H    -7.111    -23.965    -2.188
    20    C    -5.847    -24.840    -0.805
    21    O    -6.287    -24.181    0.133
    22    C    -4.821    -25.826    -0.792
    23    N    -4.056    -26.305    0.268
    24    C    -3.286    -27.185    -0.294
    25    H    -2.690    -27.587    0.401
    26    C    -1.596    -27.527    -3.311
    27    H    -1.550    -26.583    -2.985
    28    O    -1.739    -27.595    -4.737
    29    H    -2.645    -27.584    -5.054
    30    C    -0.361    -28.277    -2.835
    31    H    -0.006    -27.822    -2.019
    32    O    0.605    -28.370    -3.893
    33    P    1.783    -27.275    -4.025
    34    O    2.709    -27.707    -5.101
    35    O    2.313    -27.043    -2.658
    36    O    1.012    -25.937    -4.497
    37    C    0.522    -25.740    -5.833
    38    H    -0.183    -26.423    -6.025
    39    H    1.299    -25.680    -6.459
    40    C    -0.196    -24.405    -6.000
    41    H    -0.476    -24.291    -6.953
    42    O    -1.378    -24.505    -5.171
    43    C    -1.920    -23.174    -5.057
    44    H    -2.606    -23.073    -5.778
    45    N    -2.565    -22.969    -3.735
    46    C    -3.869    -22.194    -2.129
    47    N    -2.873    -22.933    -1.499
    48    C    -2.136    -23.342    -2.489
    49    H    -1.369    -23.871    -2.127
    50    N    -5.756    -20.860    -2.528
    51    C    -5.474    -20.931    -3.830
    52    H    -6.019    -20.488    -4.542
    53    N    -4.458    -21.577    -4.400
    54    C    -3.683    -22.194    -3.483
    55    C    -4.969    -21.484    -1.637
    56    N    -5.263    -21.408    -0.341
    57    H    -6.075    -20.881    -0.053
    58    H    -4.667    -21.879    0.325
    59    C    -0.759    -22.219    -5.338
    60    H    -0.627    -21.665    -4.516
    61    O    -1.047    -21.392    -6.472
    62    H    -1.978    -21.198    -6.606
    63    C    0.467    -23.104    -5.543
    64    H    0.916    -23.259    -4.663
    65    O    1.433    -22.535    -6.470
    66    P    2.310    -21.183    -6.231
    67    O    3.314    -21.062    -7.317
    68    O    2.732    -21.122    -4.814
    69    O    1.287    -19.958    -6.463
    70    C    0.710    -19.734    -7.759
    71    H    0.287    -20.582    -8.078
    72    H    1.392    -19.300    -8.348
    73    C    -0.431    -18.733    -7.676
    74    H    -0.897    -18.655    -8.557
    75    O    -1.327    -19.309    -6.726
    76    C    -2.360    -18.345    -6.442
    77    H    -3.180    -18.571    -6.968
    78    N    -2.729    -18.388    -5.005
    79    C    -3.760    -17.693    -4.406
    80    N    -6.490    -15.553    -4.651
    81    H    -7.188    -15.067    -4.107
    82    H    -6.529    -15.424    -5.652
    83    N    -4.674    -16.919    -5.039
    84    C    -5.528    -16.342    -4.193
    85    N    -5.495    -16.512    -2.832
    86    H    -6.209    -16.020    -2.275
    87    C    -4.577    -17.292    -2.155
    88    O    -4.636    -17.372    -0.931
    89    C    -3.657    -17.912    -3.049
    90    N    -2.589    -18.766    -2.782
    91    C    -2.106    -19.016    -3.961
    92    H    -1.337    -19.649    -3.870
    93    C    -1.726    -17.072    -7.026
    94    H    -1.894    -16.337    -6.369
    95    O    -2.336    -16.822    -8.303
    96    H    -3.247    -17.114    -8.381
    97    C    -0.215    -17.332    -7.110
    98    H    0.216    -17.407    -6.211
    99    O    0.516    -16.416    -7.977
    100    P    1.335    -15.045    -7.581
    101    O    1.887    -14.475    -8.835
    102    O    2.283    -15.289    -6.457
    103    O    0.223    -13.986    -7.062
    104    C    -0.536    -13.194    -7.986
    105    H    -0.969    -13.799    -8.654
    106    H    0.041    -12.453    -8.329
    107    C    -1.706    -12.481    -7.305
    108    H    -2.294    -12.213    -8.068
    109    O    -2.399    -13.444    -6.498
    110    C    -3.136    -12.737    -5.498
    111    H    -4.103    -12.817    -5.741
    112    N    -2.958    -13.446    -4.208
    113    C    -1.843    -14.199    -3.961
    114    H    -1.097    -14.456    -4.575
    115    C    -1.610    -14.725    -2.744
    116    H    -0.865    -15.276    -2.368
    117    C    -3.909    -13.257    -3.214
    118    O    -4.930    -12.616    -3.446
    119    N    -3.682    -13.784    -1.980
    120    C    -2.578    -14.495    -1.723
    121    N    -2.365    -14.968    -0.500
    122    H    -3.047    -14.781    0.221
    123    H    -1.536    -15.506    -0.292
    124    C    -2.715    -11.259    -5.597
    125    H    -2.462    -10.971    -4.674
    126    O    -3.761    -10.513    -6.231
    127    H    -4.649    -10.833    -6.057
    128    C    -1.481    -11.205    -6.489
    129    H    -0.655    -11.314    -5.936
    130    O    -1.547    -9.994    -7.278
    131    P    -1.265    -8.467    -6.847
    132    O    -1.455    -7.705    -8.104
    133    O    0.044    -8.281    -6.167
    134    O    -2.443    -8.026    -5.826
    135    C    -3.603    -7.255    -6.184
    136    H    -4.161    -7.784    -6.824
    137    H    -3.312    -6.339    -6.462
    138    C    -4.556    -6.989    -5.012
    139    H    -5.414    -6.761    -5.472
    140    O    -4.747    -8.211    -4.223
    141    C    -5.145    -7.818    -2.901
    142    H    -6.118    -8.036    -2.824
    143    N    -4.359    -8.637    -1.949
    144    C    -3.686    -9.693    -0.141
    145    N    -2.708    -9.918    -1.107
    146    C    -3.160    -9.270    -2.140
    147    H    -2.513    -9.370    -2.896
    148    N    -4.899    -9.706    1.862
    149    C    -5.814    -8.944    1.265
    150    H    -6.644    -8.615    1.715
    151    N    -5.795    -8.497    0.011
    152    C    -4.691    -8.914    -0.640
    153    C    -3.812    -10.106    1.188
    154    N    -2.910    -10.868    1.800
    155    H    -3.063    -11.130    2.763
    156    H    -2.093    -11.167    1.287
    157    C    -4.962    -6.296    -2.788
    158    H    -4.352    -6.136    -2.012
    159    O    -6.228    -5.624    -2.806
    160    H    -6.948    -6.104    -2.389
    161    C    -4.274    -5.840    -4.058
    162    H    -3.290    -5.791    -3.889
    163    O    -5.088    -4.715    -4.442
    164    P    -5.267    -3.351    -3.657
    165    O    -6.311    -2.522    -4.341
    166    O    -3.932    -2.746    -3.659
    167    O    -5.630    -3.570    -2.073
    168    C    -6.819    -3.133    -1.376
    169    H    -7.622    -3.532    -1.820
    170    H    -6.787    -2.139    -1.270
    171    C    -6.918    -3.644    0.068
    172    H    -7.883    -3.751    0.307
    173    O    -6.298    -4.918    0.070
    174    C    -5.866    -5.242    1.398
    175    H    -6.516    -5.902    1.774
    176    N    -4.513    -5.831    1.296
    177    C    -3.788    -6.386    2.326
    178    N    -3.499    -7.267    5.673
    179    H    -2.879    -7.694    6.346
    180    H    -4.391    -6.946    6.022
    181    N    -4.192    -6.500    3.613
    182    C    -3.269    -7.083    4.381
    183    N    -2.053    -7.515    3.920
    184    H    -1.415    -7.950    4.602
    185    C    -1.615    -7.413    2.612
    186    O    -0.508    -7.844    2.300
    187    C    -2.589    -6.792    1.782
    188    N    -2.547    -6.499    0.420
    189    C    -3.699    -5.940    0.203
    190    H    -3.763    -5.690    -0.763
    191    C    -5.977    -3.931    2.182
    192    H    -5.077    -3.766    2.586
    193    O    -7.091    -3.961    3.078
    194    H    -7.298    -4.826    3.439
    195    C    -6.280    -2.830    1.189
    196    H    -5.424    -2.433    0.857
    197    O    -7.210    -2.010    1.900
    198    P    -6.766    -0.885    2.951
    199    O    -8.000    -0.232    3.408
    200    O    -5.722    -0.054    2.329
    201    O    -6.091    -1.654    4.199
    202    C    -6.642    -1.811    5.523
    203    H    -7.408    -2.452    5.483
    204    H    -6.808    -0.907    5.916
    205    C    -5.699    -2.464    6.547
    206    H    -6.205    -2.753    7.359
    207    O    -5.125    -3.595    5.938
    208    C    -3.806    -3.844    6.462
    209    H    -3.826    -4.726    6.933
    210    N    -2.843    -3.808    5.337
    211    C    -3.178    -3.215    4.151
    212    H    -4.030    -2.766    3.882
    213    C    -1.596    -4.377    5.532
    214    O    -1.268    -4.908    6.587
    215    N    -0.731    -4.312    4.460
    216    H    0.202    -4.731    4.584
    217    C    -0.991    -3.740    3.233
    218    O    -0.138    -3.740    2.352
    219    C    -2.310    -3.167    3.116
    220    H    -2.415    -2.776    2.202
    221    C    -3.587    -2.741    7.485
    222    H    -2.638    -2.433    7.413
    223    O    -3.975    -3.127    8.807
    224    H    -3.825    -4.051    9.020
    225    C    -4.502    -1.633    7.013
    226    H    -4.097    -1.174    6.222
    227    O    -4.711    -0.821    8.172
    228    P    -3.711    0.408    8.471
    229    O    -4.185    1.078    9.698
    230    O    -3.570    1.191    7.224
    231    O    -2.292    -0.305    8.760
    232    C    -1.856    -0.753    10.052
    233    H    -2.423    -1.526    10.337
    234    H    -1.794    0.034    10.666
    235    C    -0.435    -1.329    10.069
    236    H    -0.250    -1.786    10.939
    237    O    -0.295    -2.263    9.021
    238    C    1.095    -2.379    8.637
    239    H    1.414    -3.279    8.933
    240    N    1.182    -2.177    7.172
    241    C    0.155    -1.587    6.486
    242    H    -0.721    -1.241    6.823
    243    C    2.337    -2.585    6.529
    244    O    3.271    -3.115    7.123
    245    N    2.379    -2.371    5.169
    246    H    3.229    -2.673    4.672
    247    C    1.391    -1.790    4.402
    248    O    1.544    -1.646    3.194
    249    C    0.222    -1.390    5.151
    250    H    -0.443    -0.983    4.524
    251    C    1.826    -1.302    9.441
    252    H    2.475    -0.833    8.842
    253    O    2.447    -1.822    10.619
    254    H    2.801    -2.710    10.532
    255    C    0.691    -0.350    9.782
    256    H    0.457    0.187    8.972
    257    O    1.060    0.418    10.933
    258    P    1.837    1.819    10.755
    259    O    2.120    2.358    12.106
    260    O    1.075    2.625    9.774
    261    O    3.217    1.379    10.053
    262    C    4.214    0.608    10.738
    263    H    3.820    -0.272    11.002
    264    H    4.626    1.171    11.455
    265    C    5.385    0.238    9.834
    266    H    6.045    -0.380    10.261
    267    O    4.912    -0.356    8.606
    268    C    5.917    -0.264    7.576
    269    H    6.364    -1.154    7.481
    270    N    5.243    0.193    6.340
    271    C    4.026    0.809    6.386
    272    H    3.448    1.043    7.168
    273    C    3.416    1.207    5.256
    274    H    2.544    1.660    5.070
    275    C    5.895    -0.030    5.136
    276    O    6.997    -0.576    5.120
    277    N    5.286    0.369    3.989
    278    C    4.089    0.970    4.020
    279    N    3.526    1.354    2.881
    280    H    4.014    1.184    2.013
    281    H    2.624    1.809    2.879
    282    C    6.911    0.731    8.183
    283    H    7.164    1.391    7.476
    284    O    8.068    0.092    8.735
    285    H    8.344    -0.708    8.281
    286    C    6.096    1.440    9.253
    287    H    5.421    2.044    8.830
    288    O    6.921    2.084    10.223
    289    P    7.139    3.669    10.128
    290    O    8.038    4.076    11.229
    291    O    5.794    4.266    9.971
    292    O    7.914    3.780    8.724
    293    C    9.128    3.048    8.516
    294    H    8.965    2.083    8.719
    295    H    9.873    3.509    8.998
    296    C    9.543    3.070    7.055
    297    H    10.412    2.627    6.834
    298    O    8.512    2.491    6.263
    299    C    8.555    3.079    4.946
    300    H    8.799    2.361    4.294
    301    N    7.219    3.667    4.680
    302    C    6.351    3.928    5.702
    303    H    6.459    3.795    6.687
    304    C    5.133    4.446    5.461
    305    H    4.370    4.703    6.053
    306    C    6.868    3.929    3.360
    307    O    7.662    3.697    2.453
    308    N    5.634    4.454    3.108
    309    C    4.779    4.713    4.105
    310    N    3.581    5.219    3.829
    311    H    3.338    5.399    2.866
    312    H    2.923    5.420    4.569
    313    C    9.703    4.085    5.031
    314    H    9.518    4.883    4.458
    315    O    10.956    3.477    4.689
    316    H    10.916    2.842    3.970
    317    C    9.518    4.470    6.492
    318    H    8.613    4.866    6.645
    319    O    10.488    5.326    7.101
    320    P    10.128    6.821    7.543
    321    O    11.228    7.373    8.370
    322    O    8.708    6.866    7.945
    323    O    10.208    7.519    6.112
    324    C    11.438    7.324    5.425
    325    H    11.554    6.349    5.235
    326    H    12.167    7.794    5.922
    327    C    11.286    8.026    4.084
    328    H    12.131    8.189    3.575
    329    O    10.435    7.169    3.313
    330    C    9.827    7.997    2.294
    331    H    10.112    7.628    1.409
    332    N    8.355    7.871    2.408
    333    C    7.795    7.605    3.624
    334    H    8.222    7.333    4.486
    335    C    6.466    7.692    3.802
    336    H    5.877    7.559    4.599
    337    C    7.565    8.185    1.306
    338    O    8.064    8.407    0.207
    339    N    6.218    8.269    1.487
    340    C    5.659    8.038    2.682
    341    N    4.337    8.133    2.831
    342    H    3.772    8.380    2.031
    343    H    3.905    7.961    3.728
    344    C    10.422    9.396    2.465
    345    H    9.801    10.123    2.172
    346    O    11.680    9.211    1.746
    347    H    11.593    8.838    0.866
    348    C    10.367    9.276    4.050
    349    H    9.458    9.021    4.379
    350    O    10.764    10.365    5.058
    351    P    9.794    11.414    5.938
    352    O    10.789    12.132    6.767
    353    O    8.519    10.838    6.479
    354    O    9.393    12.544    4.860
    355    C    10.507    13.081    4.142
    356    H    11.151    12.343    3.941
    357    H    10.852    13.884    4.629
    358    C    9.929    13.553    2.833
    359    H    10.590    13.867    2.152
    360    O    9.154    12.490    2.274
    361    C    8.274    13.123    1.328
    362    H    8.580    12.866    0.411
    363    N    6.895    12.638    1.574
    364    C    6.535    12.143    2.793
    365    H    7.083    12.001    3.617
    366    C    5.272    11.755    3.035
    367    H    4.817    11.380    3.843
    368    C    5.968    12.738    0.542
    369    O    6.300    13.186    -0.553
    370    N    4.687    12.347    0.782
    371    C    4.323    11.868    1.978
    372    N    3.067    11.485    2.182
    373    H    2.404    11.563    1.424
    374    H    2.778    11.122    3.079
    375    C    8.500    14.629    1.527
    376    H    7.641    15.127    1.412
    377    O    9.487    15.045    0.567
    378    H    9.417    14.625    -0.294
    379    C    8.871    14.608    3.023
    380    H    8.138    14.235    3.592
    381    O    9.355    15.749    3.770
    382    P    8.522    16.843    4.622
    383    O    9.450    17.901    5.098
    384    O    7.567    16.185    5.535
    385    O    7.681    17.535    3.447
    386    C    8.447    17.627    2.243
    387    H    9.007    16.804    2.150
    388    H    8.909    18.514    2.218
    389    C    7.556    17.624    1.024
    390    H    8.066    17.664    0.165
    391    O    6.671    16.537    0.980
    392    C    5.640    16.968    0.073
    393    H    5.879    16.585    -0.819
    394    N    4.375    16.472    0.643
    395    C    4.285    16.126    1.964
    396    H    4.974    16.161    2.688
    397    C    3.304    16.374    -0.217
    398    O    3.379    16.693    -1.400
    399    N    2.139    15.887    0.334
    400    H    1.322    15.798    -0.287
    401    C    1.959    15.504    1.645
    402    O    0.871    15.075    2.019
    403    C    3.130    15.651    2.479
    404    H    2.907    15.355    3.408
    405    C    5.681    18.497    -0.014
    406    H    4.784    18.863    0.233
    407    O    6.130    18.979    -1.286
    408    H    5.859    18.449    -2.039
    409    C    6.670    18.832    1.085
    410    H    6.199    18.846    1.967
    411    O    7.538    19.905    0.729
    412    P    7.357    21.290    1.510
    413    O    8.395    22.210    1.008
    414    O    7.238    20.958    2.942
    415    O    5.921    21.684    0.920
    416    C    5.774    21.632    -0.501
    417    H    6.136    20.761    -0.834
    418    H    6.140    22.474    -0.897
    419    C    4.317    21.619    -0.942
    420    H    4.227    21.849    -1.911
    421    O    3.722    20.357    -0.712
    422    C    2.326    20.564    -0.426
    423    H    1.813    20.164    -1.186
    424    N    2.050    19.914    0.870
    425    C    0.832    19.434    1.298
    426    N    -2.529    18.795    0.714
    427    H    -3.364    18.412    1.133
    428    H    -2.617    19.141    -0.231
    429    N    -0.315    19.426    0.584
    430    C    -1.330    18.892    1.270
    431    N    -1.217    18.411    2.549
    432    H    -2.064    18.021    2.985
    433    C    -0.056    18.409    3.298
    434    O    -0.065    17.956    4.435
    435    C    1.032    18.972    2.580
    436    N    2.357    19.155    2.963
    437    C    2.894    19.708    1.921
    438    H    3.862    19.880    2.106
    439    C    2.099    22.071    -0.413
    440    H    1.520    22.296    0.371
    441    O    1.557    22.537    -1.654
    442    H    0.960    21.925    -2.091
    443    C    3.497    22.628    -0.174
    444    H    3.725    22.561    0.797
    445    O    3.737    23.892    -0.790
    446    P    4.026    25.162    0.147
    447    O    4.404    26.299    -0.712
    448    O    4.899    24.755    1.268
    449    O    2.523    25.349    0.675
    450    C    2.162    26.039    1.865
    451    H    2.334    27.016    1.740
    452    H    2.588    25.584    2.647
    453    C    0.656    25.892    2.055
    454    H    0.361    26.250    2.941
    455    O    0.015    26.631    1.020
    456    C    -0.849    25.780    0.246
    457    H    -1.761    26.187    0.300
    458    N    -0.325    25.759    -1.140
    459    C    0.929    25.291    -1.414
    460    H    1.625    24.915    -0.803
    461    C    1.404    25.290    -2.673
    462    H    2.271    25.001    -3.079
    463    C    -1.149    26.242    -2.147
    464    O    -2.275    26.652    -1.878
    465    N    -0.675    26.245    -3.424
    466    C    0.554    25.790    -3.702
    467    N    0.988    25.812    -4.959
    468    H    0.379    26.173    -5.679
    469    H    1.911    25.474    -5.192
    470    C    -0.880    24.398    0.909
    471    H    -0.598    23.731    0.219
    472    O    -2.168    24.079    1.446
    473    H    -2.910    24.467    0.977
    474    C    0.172    24.448    2.011
    475    H    0.928    23.860    1.725
    476    O    -0.389    24.152    3.299
    477    P    -0.887    22.670    3.706
    478    O    -0.891    22.576    5.184
    479    O    -0.155    21.682    2.886
    480    O    -2.425    22.693    3.222
    481    C    -3.270    23.748    3.710
    482    H    -2.867    24.629    3.462
    483    H    -3.475    23.581    4.675
    484    C    -4.634    23.738    3.018
    485    H    -5.255    24.331    3.531
    486    O    -4.526    24.223    1.682
    487    C    -5.133    23.304    0.770
    488    H    -6.014    23.707    0.523
    489    N    -4.233    23.179    -0.391
    490    C    -3.400    23.342    -2.410
    491    N    -2.372    22.857    -1.604
    492    C    -2.928    22.784    -0.435
    493    H    -2.259    22.439    0.223
    494    N    -4.641    24.099    -4.244
    495    C    -5.685    24.247    -3.428
    496    H    -6.582    24.576    -3.724
    497    N    -5.725    23.995    -2.123
    498    C    -4.534    23.539    -1.679
    499    C    -3.470    23.648    -3.771
    500    N    -2.427    23.549    -4.590
    501    H    -2.537    23.817    -5.558
    502    H    -1.549    23.208    -4.226
    503    C    -5.374    21.993    1.485
    504    H    -4.617    21.377    1.267
    505    O    -6.647    21.441    1.143
    506    H    -6.938    21.618    0.245
    507    C    -5.301    22.364    2.959
    508    H    -4.705    21.694    3.401
    509    O    -6.624    22.610    3.438
    510    P    -7.625    21.361    3.617
    511    O    -8.527    21.685    4.736
    512    O    -6.786    20.146    3.664
    513    O    -8.467    21.383    2.243
    514    C    -9.893    21.202    2.227
    515    H    -10.323    21.960    2.718
    516    H    -10.106    20.271    2.523
    517    C    -10.490    21.288    0.819
    518    H    -11.439    20.973    0.797
    519    O    -10.447    22.671    0.427
    520    C    -9.790    22.788    -0.839
    521    H    -10.501    22.799    -1.542
    522    N    -9.024    24.075    -0.893
    523    C    -8.575    24.678    0.259
    524    H    -8.692    24.392    1.210
    525    C    -8.765    24.650    -2.138
    526    O    -9.138    24.153    -3.193
    527    N    -8.039    25.822    -2.130
    528    H    -7.841    26.254    -3.044
    529    C    -7.549    26.478    -1.021
    530    O    -6.903    27.514    -1.144
    531    C    -7.860    25.830    0.229
    532    H    -7.471    26.365    0.979
    533    C    -8.952    21.507    -0.993
    534    H    -8.076    21.653    -0.534
    535    O    -8.750    21.166    -2.370
    536    H    -8.703    21.914    -2.970
    537    C    -9.752    20.447    -0.219
    538    H    -9.110    19.840    0.250
    539    O    -10.658    19.731    -1.085
    540    P    -10.310    18.318    -1.801
    541    O    -11.524    17.872    -2.531
    542    O    -9.684    17.408    -0.811
    543    O    -9.192    18.702    -2.906
    544    C    -9.517    19.525    -4.038
    545    H    -9.760    20.440    -3.716
    546    H    -10.175    19.041    -4.615
    547    C    -8.290    19.731    -4.925
    548    H    -8.541    20.233    -5.752
    549    O    -7.299    20.493    -4.193
    550    C    -6.074    20.343    -4.907
    551    H    -5.961    21.171    -5.457
    552    N    -4.957    20.251    -3.945
    553    C    -2.947    20.283    -3.054
    554    N    -3.819    19.918    -2.029
    555    C    -4.979    19.924    -2.618
    556    H    -5.683    19.678    -1.952
    557    N    -1.021    20.826    -4.272
    558    C    -1.796    20.996    -5.341
    559    H    -1.453    21.264    -6.241
    560    N    -3.113    20.847    -5.407
    561    C    -3.632    20.488    -4.216
    562    C    -1.562    20.467    -3.098
    563    N    -0.771    20.302    -2.047
    564    H    0.222    20.450    -2.154
    565    H    -1.180    20.032    -1.164
    566    C    -6.239    19.137    -5.846
    567    H    -5.473    18.512    -5.694
    568    O    -6.264    19.578    -7.214
    569    H    -5.728    20.353    -7.400
    570    C    -7.536    18.473    -5.342
    571    H    -7.349    17.921    -4.529
    572    O    -8.231    17.701    -6.347
    573    P    -8.015    16.120    -6.631
    574    O    -8.743    15.763    -7.876
    575    O    -8.289    15.361    -5.388
    576    O    -6.439    15.984    -6.963
    577    C    -5.901    16.744    -8.051
    578    H    -6.236    17.684    -7.989
    579    H    -6.057    16.246    -8.904
    580    C    -4.384    16.876    -7.961
    581    H    -4.037    17.355    -8.767
    582    O    -3.995    17.610    -6.771
    583    C    -2.666    17.168    -6.423
    584    H    -2.063    17.949    -6.584
    585    N    -2.693    16.740    -5.012
    586    C    -2.100    16.240    -2.960
    587    N    -3.472    16.008    -3.037
    588    C    -3.752    16.315    -4.265
    589    H    -4.729    16.172    -4.422
    590    N    0.103    16.418    -2.184
    591    C    0.455    16.841    -3.399
    592    H    1.390    17.088    -3.655
    593    N    -0.340    17.006    -4.452
    594    C    -1.616    16.683    -4.157
    595    C    -1.177    16.107    -1.922
    596    N    -1.518    15.707    -0.700
    597    H    -0.804    15.644    0.012
    598    H    -2.483    15.475    -0.512
    599    C    -2.273    16.028    -7.376
    600    H    -1.842    15.294    -6.852
    601    O    -1.440    16.485    -8.446
    602    H    -0.823    17.182    -8.210
    603    C    -3.644    15.560    -7.851
    604    H    -4.068    15.007    -7.134
    605    O    -3.584    14.956    -9.151
    606    P    -3.058    13.449    -9.379
    607    O    -3.061    13.190    -10.837
    608    O    -3.806    12.566    -8.460
    609    O    -1.531    13.535    -8.877
    610    C    -0.694    14.601    -9.345
    611    H    -1.167    15.471    -9.207
    612    H    -0.374    14.383    -10.267
    613    C    0.586    14.739    -8.529
    614    H    1.203    15.430    -8.905
    615    O    0.361    15.020    -7.139
    616    C    1.535    14.558    -6.435
    617    H    2.083    15.373    -6.248