!*** FMO 5.2 (Gamess) INPUT generated by Facio 21.1.1.32 ***
 $CONTRL RUNTYP=OPTFMO NPRINT=-5 ISPHER=-1 MAXIT=50 $END
 $SYSTEM MWORDS=29 $END
 $GDDI NGROUP=1 $END
 $INTGRL NINTIC=-9000000 $END
 $SCF DIRSCF=.FALSE. NPUNCH=0 $END
!*** NumCPU : 2  MemPerNode : 512MB
 $FMOPRP
    NAODIR=210
    NGRFMO(1)=1, 1, 0, 0, 0,   0, 0, 0, 0, 0
    NPRINT=9
 $END
 $FMO
      SCFTYP(1)=RHF
      MODGRD=10
      MODMUL=0
      MAXCAO=5
      MAXBND=34
      NLAYER=1
      NFRAG=32
      ICHARG(1)=-1, -1, -1, -1, -1, -1, -1, -1, -1, -1, 
-1, -1, -1, -1, -1, -1, -1, -1, -1, -1, 
-1, -1, -1, -1, -1, -1, -1, -1, -1, -1, 
-1, 0
      FRGNAM(1)=Frag1, Frag2, Frag3, Frag4, Frag5, Frag6, Frag7, Frag8, Frag9, Frag10, Frag11, Frag12, Frag13, Frag14, Frag15, Frag16, Frag17, Frag18, Frag19, Frag20, Frag21, Frag22, Frag23, Frag24, Frag25, Frag26, Frag27, Frag28, Frag29, Frag30, Frag31, Frag32
      indat(1)=0
               1   -36   0
               37   -69   0
               70   -103   0
               104   -134   0
               135   -167   0
               168   -201   0
               202   -231   0
               232   -261   0
               262   -292   0
               293   -323   0
               324   -354   0
               355   -385   0
               386   -415   0
               416   -449   0
               450   -480   0
               481   -513   0
               514   -543   0
               544   -576   0
               577   -609   0
               610   -643   0
               644   -677   0
               678   -710   0
               711   -740   0
               741   -774   0
               775   -807   0
               808   -840   0
               841   -871   0
               872   -902   0
               903   -936   0
               937   -966   0
               967   -996   0
               997   -1024   0
 $END

 $FMOBND
   -37   36       3-21G    MINI
   -70   69       3-21G    MINI
   -104   103       3-21G    MINI
   -135   134       3-21G    MINI
   -168   167       3-21G    MINI
   -202   201       3-21G    MINI
   -232   231       3-21G    MINI
   -262   261       3-21G    MINI
   -293   292       3-21G    MINI
   -324   323       3-21G    MINI
   -355   354       3-21G    MINI
   -386   385       3-21G    MINI
   -416   415       3-21G    MINI
   -450   449       3-21G    MINI
   -481   480       3-21G    MINI
   -514   513       3-21G    MINI
   -544   543       3-21G    MINI
   -577   576       3-21G    MINI
   -610   609       3-21G    MINI
   -644   643       3-21G    MINI
   -678   677       3-21G    MINI
   -711   710       3-21G    MINI
   -741   740       3-21G    MINI
   -775   774       3-21G    MINI
   -808   807       3-21G    MINI
   -841   840       3-21G    MINI
   -872   871       3-21G    MINI
   -903   902       3-21G    MINI
   -937   936       3-21G    MINI
   -967   966       3-21G    MINI
   -997   996       3-21G    MINI
 $END
 $FMOHYB
 3-21G        9   5
   1 0  -0.070459   0.164841   0.000000   0.000000   0.502116
         0.466939   0.000000   0.000000   0.418036
   0 1  -0.070465   0.164857   0.473392   0.000000  -0.167359
         0.466967   0.394111   0.000000  -0.139327
   0 1  -0.070465   0.164857  -0.236695  -0.409969  -0.167359
         0.466967  -0.197055  -0.341311  -0.139327
   0 1  -0.070465   0.164857  -0.236695   0.409969  -0.167359
         0.466967  -0.197055   0.341311  -0.139327
   0 1   1.006716   0.074826   0.000000   0.000000   0.000000
        -0.143830   0.000000   0.000000  -0.000003
 MINI         5   5
   1 0  -0.104883   0.308874   0.000000   0.000000   0.521806
   0 1  -0.104883   0.308874   0.491961   0.000000  -0.173934
   0 1  -0.104883   0.308876  -0.245980  -0.426050  -0.173933
   0 1  -0.104883   0.308876  -0.245980   0.426050  -0.173933
   0 1   0.988209   0.063992   0.000000   0.000000   0.000000
 $END

 $DATA
 FMO calculation : XXNAMEXX
 C1 
 C.1-1    6
      N21 3
   
 O.1-1    8
      N21 3
   
 N.1-1    7
      N21 3
   
 H.1-1    1
      N21 3
   
 P.1-1   15
      N21 3
   
 $END
 $FMOXYZ
    1    H    7.874    -6.504    -3.858
    2    O    7.355    -7.203    -4.350
    3    C    8.128    -7.661    -5.463
    4    H    8.948    -8.121    -5.123
    5    H    8.248    -6.907    -6.109
    6    C    7.388    -8.732    -6.256
    7    H    7.976    -8.925    -7.041
    8    O    7.204    -9.921    -5.516
    9    C    6.161    -10.660    -6.176
    10    H    6.614    -11.293    -6.804
    11    N    5.394    -11.356    -5.120
    12    C    4.606    -12.472    -5.288
    13    N    3.311    -14.963    -7.328
    14    H    2.707    -15.773    -7.331
    15    H    3.744    -14.720    -8.208
    16    N    4.417    -13.144    -6.448
    17    C    3.596    -14.185    -6.294
    18    N    3.013    -14.530    -5.102
    19    H    2.395    -15.354    -5.098
    20    C    3.188    -13.861    -3.906
    21    O    2.614    -14.254    -2.894
    22    C    4.062    -12.748    -4.053
    23    N    4.499    -11.823    -3.108
    24    C    5.272    -11.040    -3.795
    25    H    5.639    -10.333    -3.191
    26    C    5.336    -9.656    -6.988
    27    H    4.433    -9.601    -6.563
    28    O    5.344    -9.978    -8.383
    29    H    5.379    -10.916    -8.582
    30    C    6.041    -8.320    -6.826
    31    H    5.550    -7.779    -6.143
    32    O    6.212    -7.775    -8.140
    33    P    5.069    -6.747    -8.614
    34    O    5.483    -6.168    -9.910
    35    O    4.764    -5.831    -7.474
    36    O    3.789    -7.700    -8.905
    37    C    3.601    -8.480    -10.105
    38    H    4.357    -9.128    -10.194
    39    H    3.422    -7.862    -10.870
    40    C    2.360    -9.380    -10.074
    41    H    2.199    -9.892    -10.918
    42    O    2.516    -10.315    -8.978
    43    C    1.199    -10.845    -8.697
    44    H    1.068    -11.630    -9.302
    45    N    1.107    -11.223    -7.272
    46    C    0.601    -12.272    -5.409
    47    N    1.355    -11.162    -5.037
    48    C    1.614    -10.589    -6.173
    49    H    2.155    -9.765    -6.006
    50    N    -0.672    -14.239    -5.350
    51    C    -0.759    -14.175    -6.680
    52    H    -1.248    -14.844    -7.240
    53    N    -0.232    -13.246    -7.475
    54    C    0.440    -12.317    -6.764
    55    C    0.005    -13.298    -4.672
    56    N    0.086    -13.378    -3.346
    57    H    -0.365    -14.148    -2.873
    58    H    0.597    -12.667    -2.843
    59    C    0.200    -9.755    -9.074
    60    H    -0.223    -9.414    -8.234
    61    O    -0.778    -10.206    -10.017
    62    H    -1.027    -11.129    -9.933
    63    C    1.075    -8.664    -9.666
    64    H    1.283    -8.012    -8.937
    65    O    0.369    -7.962    -10.708
    66    P    -0.822    -6.921    -10.361
    67    O    -1.107    -6.100    -11.569
    68    O    -0.398    -6.323    -9.079
    69    O    -2.059    -7.902    -10.057
    70    C    -2.615    -8.655    -11.133
    71    H    -1.902    -9.234    -11.528
    72    H    -3.107    -8.035    -11.744
    73    C    -3.670    -9.623    -10.614
    74    H    -4.099    -10.166    -11.336
    75    O    -3.008    -10.504    -9.699
    76    C    -4.006    -11.269    -8.983
    77    H    -4.101    -12.166    -9.414
    78    N    -3.583    -11.434    -7.571
    79    C    -4.196    -12.219    -6.619
    80    N    -6.679    -14.480    -5.727
    81    H    -7.052    -15.005    -4.949
    82    H    -7.142    -14.601    -6.616
    83    N    -5.267    -13.023    -6.820
    84    C    -5.646    -13.649    -5.706
    85    N    -5.021    -13.502    -4.494
    86    H    -5.395    -14.040    -3.699
    87    C    -3.930    -12.689    -4.256
    88    O    -3.449    -12.628    -3.128
    89    C    -3.515    -12.011    -5.438
    90    N    -2.470    -11.110    -5.634
    91    C    -2.566    -10.819    -6.895
    92    H    -1.843    -10.171    -7.136
    93    C    -5.276    -10.448    -9.253
    94    H    -5.779    -10.358    -8.393
    95    O    -6.092    -11.107    -10.236
    96    H    -6.044    -12.066    -10.226
    97    C    -4.731    -9.072    -9.660
    98    H    -4.276    -8.615    -8.896
    99    O    -5.661    -8.075    -10.144
    100    P    -6.202    -6.746    -9.375
    101    O    -7.080    -5.965    -10.292
    102    O    -4.996    -6.142    -8.761
    103    O    -7.104    -7.363    -8.195
    104    C    -8.417    -7.837    -8.478
    105    H    -8.354    -8.624    -9.091
    106    H    -8.987    -7.066    -8.762
    107    C    -9.046    -8.364    -7.193
    108    H    -9.973    -8.662    -7.420
    109    O    -8.261    -9.512    -6.830
    110    C    -8.545    -9.823    -5.453
    111    H    -9.030    -10.697    -5.441
    112    N    -7.284    -9.987    -4.687
    113    C    -6.144    -9.343    -5.075
    114    H    -5.965    -8.804    -5.898
    115    C    -5.033    -9.367    -4.318
    116    H    -4.124    -8.963    -4.423
    117    C    -7.311    -10.710    -3.499
    118    O    -8.327    -11.312    -3.158
    119    N    -6.191    -10.741    -2.723
    120    C    -5.077    -10.098    -3.095
    121    N    -4.010    -10.115    -2.304
    122    H    -4.059    -10.617    -1.429
    123    H    -3.163    -9.635    -2.571
    124    C    -9.494    -8.717    -4.960
    125    H    -9.257    -8.478    -4.018
    126    O    -10.841    -9.226    -5.005
    127    H    -10.927    -10.163    -4.815
    128    C    -9.107    -7.547    -5.888
    129    H    -8.191    -7.207    -5.674
    130    O    -9.783    -6.255    -5.887
    131    P    -9.561    -4.885    -5.025
    132    O    -10.529    -3.858    -5.515
    133    O    -8.103    -4.627    -5.073
    134    O    -9.987    -5.232    -3.510
    135    C    -11.368    -5.376    -3.194
    136    H    -11.758    -6.101    -3.762
    137    H    -11.803    -4.476    -3.219
    138    C    -11.491    -5.859    -1.758
    139    H    -12.462    -6.011    -1.573
    140    O    -10.777    -7.145    -1.661
    141    C    -10.595    -7.382    -0.252
    142    H    -11.223    -8.116    0.008
    143    N    -9.202    -7.831    -0.015
    144    C    -7.390    -8.720    0.874
    145    N    -6.982    -8.109    -0.310
    146    C    -8.087    -7.611    -0.778
    147    H    -7.894    -7.145    -1.642
    148    N    -7.397    -9.901    2.896
    149    C    -8.709    -9.680    2.973
    150    H    -9.286    -10.000    3.725
    151    N    -9.465    -9.018    2.098
    152    C    -8.734    -8.559    1.062
    153    C    -6.695    -9.435    1.854
    154    N    -5.386    -9.667    1.796
    155    H    -4.948    -10.191    2.540
    156    H    -4.861    -9.314    1.009
    157    C    -11.024    -6.085    0.451
    158    H    -10.349    -5.896    1.164
    159    O    -12.330    -6.238    1.019
    160    H    -12.549    -7.130    1.297
    161    C    -10.941    -4.990    -0.618
    162    H    -9.993    -4.747    -0.822
    163    O    -11.664    -3.771    -0.307
    164    P    -11.048    -2.428    0.381
    165    O    -12.111    -1.400    0.462
    166    O    -9.772    -2.086    -0.291
    167    O    -10.723    -2.864    1.896
    168    C    -11.769    -3.106    2.842
    169    H    -12.474    -3.669    2.411
    170    H    -12.048    -2.236    3.249
    171    C    -11.251    -3.942    4.007
    172    H    -12.010    -4.350    4.514
    173    O    -10.477    -4.980    3.419
    174    C    -9.660    -5.580    4.442
    175    H    -10.061    -6.464    4.683
    176    N    -8.286    -5.791    3.921
    177    C    -7.254    -6.438    4.569
    178    N    -6.045    -8.176    7.325
    179    H    -5.220    -8.619    7.704
    180    H    -6.874    -8.200    7.901
    181    N    -7.321    -7.025    5.787
    182    C    -6.156    -7.567    6.153
    183    N    -5.022    -7.534    5.383
    184    H    -4.177    -7.983    5.764
    185    C    -4.924    -6.946    4.136
    186    O    -3.861    -6.983    3.523
    187    C    -6.159    -6.363    3.735
    188    N    -6.485    -5.678    2.566
    189    C    -7.736    -5.377    2.741
    190    H    -8.066    -4.878    1.940
    191    C    -9.809    -4.623    5.632
    192    H    -8.900    -4.487    6.027
    193    O    -10.698    -5.175    6.612
    194    H    -10.702    -6.134    6.661
    195    C    -10.288    -3.304    5.017
    196    H    -9.552    -2.845    4.520
    197    O    -10.840    -2.372    5.982
    198    P    -10.097    -1.087    6.654
    199    O    -11.095    -0.298    7.415
    200    O    -9.295    -0.422    5.601
    201    O    -9.072    -1.715    7.728
    202    C    -9.496    -2.183    9.014
    203    H    -10.158    -2.922    8.889
    204    H    -9.768    -1.399    9.572
    205    C    -8.320    -2.816    9.753
    206    H    -8.630    -3.208    10.619
    207    O    -7.876    -3.856    8.911
    208    C    -6.496    -4.156    9.199
    209    H    -6.438    -5.102    9.517
    210    N    -5.688    -4.001    7.959
    211    C    -6.149    -3.236    6.922
    212    H    -7.031    -2.775    6.825
    213    C    -4.428    -4.579    7.903
    214    O    -3.977    -5.275    8.805
    215    N    -3.686    -4.317    6.768
    216    H    -2.745    -4.733    6.719
    217    C    -4.078    -3.552    5.689
    218    O    -3.329    -3.386    4.732
    219    C    -5.403    -2.996    5.820
    220    H    -5.612    -2.458    5.004
    221    C    -6.177    -3.220    10.363
    222    H    -5.213    -2.960    10.314
    223    O    -6.434    -3.915    11.596
    224    H    -6.259    -4.859    11.573
    225    C    -7.044    -1.993    10.031
    226    H    -6.752    -1.549    9.184
    227    O    -7.115    -0.898    10.984
    228    P    -6.335    0.538    11.001
    229    O    -6.846    1.351    12.136
    230    O    -6.373    1.095    9.629
    231    O    -4.807    0.177    11.358
    232    C    -4.481    -0.244    12.680
    233    H    -5.051    -1.029    12.922
    234    H    -4.495    0.550    13.287
    235    C    -3.044    -0.756    12.705
    236    H    -2.808    -1.137    13.599
    237    O    -2.981    -1.784    11.735
    238    C    -1.604    -1.986    11.344
    239    H    -1.322    -2.889    11.667
    240    N    -1.509    -1.954    9.860
    241    C    -2.486    -1.354    9.112
    242    H    -3.352    -0.955    9.412
    243    C    -0.375    -2.469    9.252
    244    O    0.519    -3.026    9.882
    245    N    -0.290    -2.320    7.882
    246    H    0.552    -2.693    7.421
    247    C    -1.224    -1.719    7.064
    248    O    -1.038    -1.637    5.854
    249    C    -2.382    -1.221    7.770
    250    H    -3.011    -0.806    7.112
    251    C    -0.829    -0.910    12.124
    252    H    -0.083    -0.560    11.558
    253    O    -0.295    -1.509    13.316
    254    H    -0.020    -2.424    13.222
    255    C    -1.917    0.179    12.252
    256    H    -2.151    0.562    11.358
    257    O    -1.742    1.393    13.043
    258    P    -1.221    2.899    12.660
    259    O    -1.239    3.749    13.890
    260    O    -1.949    3.285    11.433
    261    O    0.314    2.650    12.272
    262    C    1.124    2.081    13.293
    263    H    0.652    1.288    13.679
    264    H    1.414    2.804    13.919
    265    C    2.398    1.539    12.672
    266    H    2.998    1.044    13.301
    267    O    2.048    0.670    11.573
    268    C    3.191    0.496    10.713
    269    H    3.601    -0.398    10.894
    270    N    2.726    0.598    9.309
    271    C    1.547    1.215    9.001
    272    H    0.862    1.633    9.598
    273    C    1.145    1.335    7.723
    274    H    0.339    1.742    7.294
    275    C    3.539    0.071    8.315
    276    O    4.600    -0.479    8.607
    277    N    3.141    0.188    7.020
    278    C    1.989    0.795    6.707
    279    N    1.632    0.899    5.431
    280    H    2.240    0.516    4.721
    281    H    0.767    1.353    5.173
    282    C    4.137    1.593    11.225
    283    H    4.559    2.037    10.435
    284    O    5.141    1.039    12.090
    285    H    5.413    0.144    11.874
    286    C    3.193    2.584    11.908
    287    H    2.592    3.030    11.245
    288    O    3.786    3.582    12.765
    289    P    4.009    5.144    12.388
    290    O    4.613    5.846    13.551
    291    O    2.744    5.600    11.774
    292    O    5.100    5.009    11.221
    293    C    6.325    4.356    11.549
    294    H    6.120    3.486    11.997
    295    H    6.920    5.001    12.028
    296    C    7.070    3.989    10.280
    297    H    7.943    3.520    10.416
    298    O    6.215    3.160    9.499
    299    C    6.568    3.312    8.110
    300    H    6.925    2.438    7.781
    301    N    5.335    3.704    7.379
    302    C    4.264    4.219    8.050
    303    H    4.141    4.390    9.028
    304    C    3.148    4.588    7.397
    305    H    2.277    4.978    7.696
    306    C    5.303    3.542    5.997
    307    O    6.276    3.084    5.405
    308    N    4.173    3.914    5.326
    309    C    3.121    4.421    5.980
    310    N    2.031    4.769    5.304
    311    H    2.017    4.643    4.302
    312    H    1.228    5.153    5.782
    313    C    7.707    4.336    8.139
    314    H    7.669    4.907    7.319
    315    O    8.975    3.677    8.262
    316    H    9.045    2.842    7.793
    317    C    7.279    5.169    9.346
    318    H    6.400    5.618    9.186
    319    O    8.217    6.139    9.856
    320    P    8.136    7.742    9.636
    321    O    9.137    8.411    10.505
    322    O    6.709    8.131    9.673
    323    O    8.642    7.858    8.125
    324    C    9.970    7.439    7.843
    325    H    10.054    6.463    8.046
    326    H    10.610    8.066    8.286
    327    C    10.226    7.573    6.355
    328    H    11.184    7.379    6.145
    329    O    9.406    6.515    5.822
    330    C    9.106    6.849    4.459
    331    H    9.453    6.118    3.872
    332    N    7.629    6.918    4.273
    333    C    6.812    7.137    5.345
    334    H    7.041    7.206    6.316
    335    C    5.485    7.299    5.195
    336    H    4.740    7.471    5.840
    337    C    7.095    6.837    2.986
    338    O    7.824    6.641    2.016
    339    N    5.749    7.000    2.822
    340    C    4.949    7.225    3.875
    341    N    3.640    7.383    3.689
    342    H    3.270    7.330    2.751
    343    H    3.025    7.553    4.472
    344    C    9.937    8.122    4.218
    345    H    9.479    8.678    3.524
    346    O    11.225    7.706    3.736
    347    H    11.219    6.913    3.196
    348    C    9.843    8.841    5.580
    349    H    8.905    9.096    5.816
    350    O    10.605    10.052    5.875
    351    P    10.294    11.642    5.630
    352    O    11.484    12.425    6.046
    353    O    8.982    12.001    6.216
    354    O    10.204    11.849    4.039
    355    C    11.369    11.614    3.261
    356    H    11.756    10.727    3.514
    357    H    11.963    12.417    3.313
    358    C    10.969    11.489    1.800
    359    H    11.790    11.158    1.335
    360    O    9.954    10.474    1.736
    361    C    9.208    10.689    0.535
    362    H    9.402    9.923    -0.077
    363    N    7.766    10.703    0.887
    364    C    7.371    10.964    2.166
    365    H    7.918    11.152    2.982
    366    C    6.070    10.999    2.495
    367    H    5.586    11.169    3.353
    368    C    6.831    10.463    -0.115
    369    O    7.196    10.236    -1.267
    370    N    5.508    10.497    0.210
    371    C    5.116    10.754    1.465
    372    N    3.821    10.773    1.758
    373    H    3.152    10.592    1.024
    374    H    3.508    10.965    2.699
    375    C    9.780    11.977    -0.079
    376    H    8.993    12.524    -0.364
    377    O    10.704    11.670    -1.121
    378    H    10.521    10.857    -1.598
    379    C    10.537    12.727    1.013
    380    H    9.914    13.270    1.576
    381    O    11.656    13.456    0.458
    382    P    11.508    14.861    -0.367
    383    O    12.844    15.095    -0.929
    384    O    10.940    15.965    0.451
    385    O    10.534    14.579    -1.626
    386    C    10.935    13.915    -2.838
    387    H    11.313    13.018    -2.608
    388    H    11.501    14.538    -3.379
    389    C    9.730    13.613    -3.727
    390    H    10.101    12.916    -4.341
    391    O    8.722    13.032    -2.929
    392    C    7.481    13.184    -3.627
    393    H    7.266    12.290    -4.020
    394    N    6.446    13.579    -2.642
    395    C    6.792    14.132    -1.438
    396    H    7.700    14.311    -1.059
    397    C    5.120    13.402    -2.992
    398    O    4.778    12.909    -4.063
    399    N    4.185    13.819    -2.066
    400    H    3.192    13.699    -2.313
    401    C    4.449    14.384    -0.836
    402    O    3.531    14.710    -0.089
    403    C    5.857    14.533    -0.548
    404    H    5.962    14.951    0.354
    405    C    7.713    14.189    -4.766
    406    H    7.094    14.957    -4.600
    407    O    7.645    13.548    -6.043
    408    H    7.027    12.815    -6.096
    409    C    9.150    14.677    -4.649
    410    H    9.165    15.559    -4.178
    411    O    9.745    14.510    -5.958
    412    P    9.368    15.463    -7.243
    413    O    9.850    14.708    -8.421
    414    O    10.142    16.699    -7.019
    415    O    7.774    15.806    -7.383
    416    C    6.869    15.110    -8.252
    417    H    6.934    14.129    -8.071
    418    H    7.012    15.424    -9.190
    419    C    5.479    15.553    -7.836
    420    H    4.940    15.023    -8.491
    421    O    5.125    15.162    -6.527
    422    C    4.207    16.134    -6.008
    423    H    3.345    15.656    -5.839
    424    N    4.835    16.698    -4.800
    425    C    4.173    17.268    -3.737
    426    N    1.213    18.115    -2.138
    427    H    0.839    18.551    -1.307
    428    H    0.540    17.763    -2.804
    429    N    2.832    17.355    -3.592
    430    C    2.492    17.955    -2.449
    431    N    3.399    18.425    -1.534
    432    H    3.027    18.872    -0.684
    433    C    4.772    18.346    -1.663
    434    O    5.494    18.801    -0.785
    435    C    5.149    17.709    -2.873
    436    N    6.414    17.429    -3.382
    437    C    6.160    16.843    -4.509
    438    H    7.023    16.606    -4.955
    439    C    3.994    17.168    -7.107
    440    H    4.091    18.065    -6.675
    441    O    2.784    16.913    -7.826
    442    H    2.075    16.530    -7.304
    443    C    5.111    16.985    -8.129
    444    H    5.885    17.574    -7.898
    445    O    4.545    16.850    -9.437
    446    P    4.806    18.122    -10.348
    447    O    4.057    17.860    -11.589
    448    O    6.273    18.416    -10.447
    449    O    3.980    19.285    -9.582
    450    C    4.435    20.641    -9.589
    451    H    4.285    21.030    -10.498
    452    H    5.360    20.676    -9.212
    453    C    3.613    21.521    -8.659
    454    H    3.994    22.437    -8.534
    455    O    2.321    21.632    -9.239
    456    C    1.324    21.133    -8.332
    457    H    0.693    21.892    -8.172
    458    N    0.664    19.986    -8.996
    459    C    1.369    18.870    -9.348
    460    H    2.337    18.652    -9.226
    461    C    0.762    17.839    -9.963
    462    H    1.085    16.953    -10.297
    463    C    -0.694    20.093    -9.258
    464    O    -1.308    21.104    -8.928
    465    N    -1.315    19.053    -9.881
    466    C    -0.633    17.955    -10.231
    467    N    -1.269    16.960    -10.843
    468    H    -2.257    17.055    -11.031
    469    H    -0.775    16.123    -11.116
    470    C    2.008    20.766    -7.010
    471    H    1.816    19.801    -6.833
    472    O    1.593    21.610    -5.932
    473    H    0.691    21.933    -5.994
    474    C    3.500    20.937    -7.262
    475    H    3.909    20.025    -7.256
    476    O    4.056    21.914    -6.373
    477    P    4.309    21.549    -4.822
    478    O    5.408    22.404    -4.319
    479    O    4.401    20.078    -4.715
    480    O    2.930    22.025    -4.129
    481    C    2.546    23.412    -4.169
    482    H    2.433    23.691    -5.123
    483    H    3.174    23.940    -3.598
    484    C    1.170    23.631    -3.536
    485    H    1.019    24.613    -3.419
    486    O    0.146    23.101    -4.374
    487    C    -0.717    22.237    -3.633
    488    H    -1.552    22.762    -3.468
    489    N    -0.971    21.038    -4.452
    490    C    -1.966    19.535    -5.699
    491    N    -0.608    19.220    -5.719
    492    C    -0.085    20.137    -4.966
    493    H    0.903    19.991    -4.913
    494    N    -4.277    19.509    -6.068
    495    C    -4.374    20.587    -5.290
    496    H    -5.237    21.046    -5.078
    497    N    -3.382    21.226    -4.677
    498    C    -2.194    20.637    -4.928
    499    C    -3.081    18.949    -6.302
    500    N    -2.997    17.902    -7.116
    501    H    -3.839    17.546    -7.545
    502    H    -2.093    17.486    -7.287
    503    C    -0.065    21.917    -2.305
    504    H    0.382    21.026    -2.386
    505    O    -1.014    21.966    -1.234
    506    H    -1.904    21.693    -1.468
    507    C    1.003    22.997    -2.151
    508    H    1.854    22.535    -1.900
    509    O    0.509    24.033    -1.302
    510    P    0.426    23.745    0.278
    511    O    0.617    25.033    0.984
    512    O    1.332    22.602    0.560
    513    O    -1.108    23.259    0.473
    514    C    -1.982    23.750    1.514
    515    H    -2.113    24.734    1.392
    516    H    -1.647    23.428    2.399
    517    C    -3.409    23.197    1.457
    518    H    -3.961    23.387    2.269
    519    O    -3.989    23.874    0.328
    520    C    -4.548    22.905    -0.564
    521    H    -5.521    22.820    -0.347
    522    N    -4.454    23.379    -1.988
    523    C    -3.487    24.280    -2.372
    524    H    -2.786    24.727    -1.816
    525    C    -5.365    22.888    -2.927
    526    O    -6.247    22.086    -2.645
    527    N    -5.215    23.339    -4.222
    528    H    -5.880    22.978    -4.921
    529    C    -4.264    24.225    -4.679
    530    O    -4.224    24.543    -5.865
    531    C    -3.365    24.699    -3.655
    532    H    -2.710    25.333    -4.065
    533    C    -3.838    21.585    -0.210
    534    H    -2.995    21.554    -0.747
    535    O    -4.622    20.443    -0.554
    536    H    -5.231    20.575    -1.284
    537    C    -3.477    21.674    1.284
    538    H    -2.566    21.288    1.433
    539    O    -4.397    20.996    2.181
    540    P    -4.372    19.447    2.705
    541    O    -5.513    19.265    3.635
    542    O    -3.011    19.106    3.173
    543    O    -4.693    18.554    1.400
    544    C    -5.973    18.635    0.765
    545    H    -6.107    19.564    0.420
    546    H    -6.666    18.259    1.380
    547    C    -6.003    17.740    -0.468
    548    H    -6.929    17.819    -0.837
    549    O    -5.067    18.307    -1.419
    550    C    -4.867    17.315    -2.418
    551    H    -5.432    17.572    -3.202
    552    N    -3.455    17.330    -2.863
    553    C    -1.611    17.008    -4.025
    554    N    -1.225    17.674    -2.863
    555    C    -2.351    17.835    -2.234
    556    H    -2.178    18.318    -1.376
    557    N    -1.586    15.923    -6.102
    558    C    -2.906    15.777    -5.995
    559    H    -3.476    15.330    -6.684
    560    N    -3.676    16.182    -4.994
    561    C    -2.961    16.798    -4.031
    562    C    -0.895    16.538    -5.130
    563    N    0.418    16.671    -5.257
    564    H    0.869    16.306    -6.083
    565    H    0.936    17.134    -4.524
    566    C    -5.398    15.994    -1.829
    567    H    -4.647    15.336    -1.893
    568    O    -6.551    15.571    -2.562
    569    H    -6.569    15.844    -3.482
    570    C    -5.726    16.237    -0.343
    571    H    -4.918    16.101    0.231
    572    O    -6.837    15.424    0.118
    573    P    -6.710    13.903    0.706
    574    O    -8.084    13.392    0.847
    575    O    -5.863    13.836    1.922
    576    O    -6.033    12.991    -0.446
    577    C    -6.727    12.631    -1.650
    578    H    -7.164    13.446    -2.030
    579    H    -7.301    11.833    -1.469
    580    C    -5.773    12.165    -2.757
    581    H    -6.416    12.081    -3.518
    582    O    -4.851    13.251    -3.035
    583    C    -3.630    12.677    -3.534
    584    H    -3.550    12.985    -4.482
    585    N    -2.504    13.199    -2.733
    586    C    -0.493    13.763    -2.051
    587    N    -1.359    14.053    -0.998
    588    C    -2.514    13.695    -1.463
    589    H    -3.211    13.862    -0.766
    590    N    1.429    13.520    -3.368
    591    C    0.654    13.023    -4.334
    592    H    0.996    12.719    -5.223
    593    N    -0.664    12.847    -4.294
    594    C    -1.179    13.241    -3.110
    595    C    0.888    13.907    -2.202
    596    N    1.669    14.422    -1.256
    597    H    2.659    14.512    -1.434
    598    H    1.254    14.711    -0.382
    599    C    -3.763    11.141    -3.514
    600    H    -2.971    10.784    -3.019
    601    O    -4.091    10.632    -4.804
    602    H    -3.687    11.099    -5.539
    603    C    -5.024    10.839    -2.717
    604    H    -4.763    10.641    -1.772
    605    O    -5.806    9.903    -3.514
    606    P    -5.223    8.486    -4.131
    607    O    -6.308    8.049    -5.049
    608    O    -5.121    7.648    -2.937
    609    O    -3.738    8.582    -4.829
    610    C    -3.503    8.599    -6.248
    611    H    -3.916    9.423    -6.636
    612    H    -3.770    7.715    -6.633
    613    C    -2.000    8.727    -6.493
    614    H    -1.917    8.956    -7.463
    615    O    -1.393    9.767    -5.714
    616    C    0.003    9.451    -5.548