!*** FMO 5.2 (Gamess) INPUT generated by Facio 21.1.1.32 ***
 $CONTRL RUNTYP=OPTFMO NPRINT=-5 ISPHER=-1 MAXIT=50 $END
 $SYSTEM MWORDS=29 $END
 $GDDI NGROUP=1 $END
 $INTGRL NINTIC=-9000000 $END
 $SCF DIRSCF=.FALSE. NPUNCH=0 $END
!*** NumCPU : 2  MemPerNode : 512MB
 $FMOPRP
    NAODIR=210
    NGRFMO(1)=1, 1, 0, 0, 0,   0, 0, 0, 0, 0
    NPRINT=9
 $END
 $FMO
      SCFTYP(1)=RHF
      MODGRD=10
      MODMUL=0
      MAXCAO=5
      MAXBND=34
      NLAYER=1
      NFRAG=32
      ICHARG(1)=-1, -1, -1, -1, -1, -1, -1, -1, -1, -1, 
-1, -1, -1, -1, -1, -1, -1, -1, -1, -1, 
-1, -1, -1, -1, -1, -1, -1, -1, -1, -1, 
-1, 0
      FRGNAM(1)=Frag1, Frag2, Frag3, Frag4, Frag5, Frag6, Frag7, Frag8, Frag9, Frag10, Frag11, Frag12, Frag13, Frag14, Frag15, Frag16, Frag17, Frag18, Frag19, Frag20, Frag21, Frag22, Frag23, Frag24, Frag25, Frag26, Frag27, Frag28, Frag29, Frag30, Frag31, Frag32
      indat(1)=0
               1   -36   0
               37   -69   0
               70   -103   0
               104   -134   0
               135   -167   0
               168   -201   0
               202   -231   0
               232   -261   0
               262   -292   0
               293   -323   0
               324   -354   0
               355   -385   0
               386   -415   0
               416   -449   0
               450   -480   0
               481   -513   0
               514   -543   0
               544   -576   0
               577   -609   0
               610   -643   0
               644   -677   0
               678   -710   0
               711   -740   0
               741   -774   0
               775   -807   0
               808   -840   0
               841   -871   0
               872   -902   0
               903   -936   0
               937   -966   0
               967   -996   0
               997   -1024   0
 $END

 $FMOBND
   -37   36       3-21G    MINI
   -70   69       3-21G    MINI
   -104   103       3-21G    MINI
   -135   134       3-21G    MINI
   -168   167       3-21G    MINI
   -202   201       3-21G    MINI
   -232   231       3-21G    MINI
   -262   261       3-21G    MINI
   -293   292       3-21G    MINI
   -324   323       3-21G    MINI
   -355   354       3-21G    MINI
   -386   385       3-21G    MINI
   -416   415       3-21G    MINI
   -450   449       3-21G    MINI
   -481   480       3-21G    MINI
   -514   513       3-21G    MINI
   -544   543       3-21G    MINI
   -577   576       3-21G    MINI
   -610   609       3-21G    MINI
   -644   643       3-21G    MINI
   -678   677       3-21G    MINI
   -711   710       3-21G    MINI
   -741   740       3-21G    MINI
   -775   774       3-21G    MINI
   -808   807       3-21G    MINI
   -841   840       3-21G    MINI
   -872   871       3-21G    MINI
   -903   902       3-21G    MINI
   -937   936       3-21G    MINI
   -967   966       3-21G    MINI
   -997   996       3-21G    MINI
 $END
 $FMOHYB
 3-21G        9   5
   1 0  -0.070459   0.164841   0.000000   0.000000   0.502116
         0.466939   0.000000   0.000000   0.418036
   0 1  -0.070465   0.164857   0.473392   0.000000  -0.167359
         0.466967   0.394111   0.000000  -0.139327
   0 1  -0.070465   0.164857  -0.236695  -0.409969  -0.167359
         0.466967  -0.197055  -0.341311  -0.139327
   0 1  -0.070465   0.164857  -0.236695   0.409969  -0.167359
         0.466967  -0.197055   0.341311  -0.139327
   0 1   1.006716   0.074826   0.000000   0.000000   0.000000
        -0.143830   0.000000   0.000000  -0.000003
 MINI         5   5
   1 0  -0.104883   0.308874   0.000000   0.000000   0.521806
   0 1  -0.104883   0.308874   0.491961   0.000000  -0.173934
   0 1  -0.104883   0.308876  -0.245980  -0.426050  -0.173933
   0 1  -0.104883   0.308876  -0.245980   0.426050  -0.173933
   0 1   0.988209   0.063992   0.000000   0.000000   0.000000
 $END

 $DATA
 FMO calculation : XXNAMEXX
 C1 
 C.1-1    6
      N21 3
   
 O.1-1    8
      N21 3
   
 N.1-1    7
      N21 3
   
 H.1-1    1
      N21 3
   
 P.1-1   15
      N21 3
   
 $END
 $FMOXYZ
    1    H    8.971    -21.349    -1.617
    2    O    8.143    -21.392    -2.176
    3    C    8.406    -22.186    -3.339
    4    H    8.592    -23.127    -3.056
    5    H    9.090    -21.722    -3.902
    6    C    7.180    -22.296    -4.243
    7    H    7.431    -22.766    -5.089
    8    O    6.133    -23.007    -3.616
    9    C    4.921    -22.680    -4.326
    10    H    4.797    -23.390    -5.019
    11    N    3.820    -22.657    -3.338
    12    C    2.479    -22.807    -3.609
    13    N    -0.091    -23.354    -5.877
    14    H    -1.093    -23.450    -5.955
    15    H    0.438    -23.441    -6.733
    16    N    1.935    -23.025    -4.830
    17    C    0.605    -23.127    -4.772
    18    N    -0.121    -23.020    -3.614
    19    H    -1.144    -23.113    -3.686
    20    C    0.409    -22.797    -2.358
    21    O    -0.335    -22.715    -1.384
    22    C    1.827    -22.687    -2.402
    23    N    2.739    -22.466    -1.373
    24    C    3.882    -22.460    -1.986
    25    H    4.609    -22.306    -1.317
    26    C    5.149    -21.337    -5.024
    27    H    4.512    -20.672    -4.635
    28    O    5.027    -21.441    -6.448
    29    H    4.385    -22.086    -6.754
    30    C    6.567    -20.959    -4.622
    31    H    6.522    -20.379    -3.808
    32    O    7.275    -20.391    -5.734
    33    P    7.321    -18.786    -5.930
    34    O    8.203    -18.499    -7.084
    35    O    7.590    -18.141    -4.622
    36    O    5.808    -18.449    -6.361
    37    C    5.284    -18.979    -7.583
    38    H    5.400    -19.972    -7.583
    39    H    5.663    -18.463    -8.351
    40    C    3.779    -18.777    -7.702
    41    H    3.470    -19.095    -8.598
    42    O    3.081    -19.516    -6.674
    43    C    1.756    -18.948    -6.627
    44    H    1.208    -19.439    -7.304
    45    N    1.235    -19.124    -5.257
    46    C    -0.097    -19.482    -3.547
    47    N    1.155    -19.199    -3.010
    48    C    1.888    -18.997    -4.063
    49    H    2.820    -18.780    -3.774
    50    N    -2.369    -20.009    -3.782
    51    C    -2.207    -19.938    -5.104
    52    H    -2.941    -20.094    -5.764
    53    N    -1.085    -19.658    -5.762
    54    C    -0.061    -19.439    -4.912
    55    C    -1.328    -19.786    -2.962
    56    N    -1.504    -19.865    -1.646
    57    H    -2.420    -20.092    -1.287
    58    H    -0.717    -19.696    -1.036
    59    C    1.885    -17.486    -7.056
    60    H    1.760    -16.922    -6.240
    61    O    0.977    -17.159    -8.111
    62    H    0.145    -17.637    -8.092
    63    C    3.317    -17.339    -7.545
    64    H    3.853    -16.902    -6.823
    65    O    3.343    -16.677    -8.820
    66    P    3.002    -15.102    -8.934
    67    O    3.413    -14.638    -10.279
    68    O    3.519    -14.416    -7.728
    69    O    1.393    -15.091    -8.874
    70    C    0.626    -15.656    -9.942
    71    H    0.920    -16.600    -10.090
    72    H    0.645    -15.031    -10.723
    73    C    -0.849    -15.771    -9.586
    74    H    -1.394    -16.176    -10.320
    75    O    -0.994    -16.564    -8.407
    76    C    -2.339    -16.397    -7.908
    77    H    -2.910    -17.136    -8.265
    78    N    -2.269    -16.388    -6.432
    79    C    -3.339    -16.403    -5.568
    80    N    -6.766    -16.472    -5.023
    81    H    -7.468    -16.475    -4.297
    82    H    -7.102    -16.499    -5.975
    83    N    -4.645    -16.437    -5.922
    84    C    -5.451    -16.436    -4.861
    85    N    -5.009    -16.407    -3.563
    86    H    -5.722    -16.414    -2.819
    87    C    -3.683    -16.369    -3.175
    88    O    -3.397    -16.342    -1.982
    89    C    -2.809    -16.368    -4.297
    90    N    -1.417    -16.335    -4.350
    91    C    -1.168    -16.350    -5.624
    92    H    -0.178    -16.330    -5.762
    93    C    -2.763    -15.077    -8.565
    94    H    -3.106    -14.481    -7.839
    95    O    -3.709    -15.284    -9.619
    96    H    -4.297    -16.033    -9.495
    97    C    -1.494    -14.476    -9.139
    98    H    -0.937    -14.068    -8.416
    99    O    -1.781    -13.607    -10.241
    100    P    -1.786    -12.005    -10.055
    101    O    -2.065    -11.376    -11.364
    102    O    -0.572    -11.630    -9.295
    103    O    -3.066    -11.785    -9.106
    104    C    -4.378    -12.023    -9.624
    105    H    -4.430    -12.964    -9.960
    106    H    -4.617    -11.286    -10.256
    107    C    -5.451    -11.952    -8.546
    108    H    -6.362    -12.041    -8.948
    109    O    -5.262    -12.995    -7.585
    110    C    -5.912    -12.578    -6.371
    111    H    -6.751    -13.117    -6.298
    112    N    -4.978    -12.827    -5.255
    113    C    -3.629    -12.862    -5.460
    114    H    -3.101    -12.775    -6.305
    115    C    -2.783    -13.036    -4.431
    116    H    -1.787    -13.091    -4.364
    117    C    -5.519    -12.975    -3.988
    118    O    -6.737    -12.956    -3.829
    119    N    -4.670    -13.149    -2.941
    120    C    -3.345    -13.180    -3.129
    121    N    -2.540    -13.319    -2.082
    122    H    -2.947    -13.399    -1.161
    123    H    -1.538    -13.345    -2.202
    124    C    -6.281    -11.099    -6.537
    125    H    -5.979    -10.601    -5.724
    126    O    -7.676    -10.925    -6.813
    127    H    -8.257    -11.553    -6.378
    128    C    -5.426    -10.679    -7.720
    129    H    -4.490    -10.509    -7.411
    130    O    -6.046    -9.608    -8.440
    131    P    -5.761    -8.074    -8.080
    132    O    -6.416    -7.214    -9.090
    133    O    -4.308    -7.960    -7.840
    134    O    -6.531    -7.887    -6.683
    135    C    -7.961    -7.951    -6.638
    136    H    -8.257    -8.853    -6.953
    137    H    -8.338    -7.147    -7.099
    138    C    -8.489    -7.854    -5.213
    139    H    -9.489    -7.824    -5.210
    140    O    -8.042    -9.001    -4.412
    141    C    -8.145    -8.583    -3.036
    142    H    -8.961    -9.026    -2.664
    143    N    -6.912    -9.025    -2.353
    144    C    -5.479    -9.683    -0.824
    145    N    -4.792    -9.709    -2.036
    146    C    -5.686    -9.310    -2.890
    147    H    -5.279    -9.292    -3.803
    148    N    -6.021    -9.858    1.446
    149    C    -7.250    -9.442    1.145
    150    H    -7.979    -9.321    1.819
    151    N    -7.717    -9.123    -0.060
    152    C    -6.767    -9.268    -1.005
    153    C    -5.099    -9.994    0.483
    154    N    -3.878    -10.413    0.805
    155    H    -3.671    -10.621    1.771
    156    H    -3.187    -10.514    0.076
    157    C    -8.358    -7.064    -3.038
    158    H    -7.707    -6.660    -2.396
    159    O    -9.717    -6.716    -2.754
    160    H    -10.169    -7.308    -2.148
    161    C    -7.986    -6.643    -4.451
    162    H    -6.991    -6.592    -4.540
    163    O    -8.695    -5.461    -4.839
    164    P    -8.087    -4.001    -4.561
    165    O    -9.024    -2.986    -5.087
    166    O    -6.684    -4.029    -5.021
    167    O    -8.102    -3.915    -2.957
    168    C    -9.347    -3.937    -2.253
    169    H    -9.935    -4.640    -2.653
    170    H    -9.704    -3.005    -2.194
    171    C    -9.180    -4.368    -0.802
    172    H    -10.054    -4.577    -0.363
    173    O    -8.353    -5.519    -0.756
    174    C    -7.840    -5.645    0.584
    175    H    -8.384    -6.341    1.052
    176    N    -6.415    -6.023    0.478
    177    C    -5.589    -6.375    1.521
    178    N    -5.077    -6.902    4.914
    179    H    -4.382    -7.176    5.594
    180    H    -5.994    -6.678    5.273
    181    N    -5.935    -6.427    2.829
    182    C    -4.915    -6.805    3.603
    183    N    -3.665    -7.105    3.128
    184    H    -2.951    -7.385    3.816
    185    C    -3.286    -7.062    1.798
    186    O    -2.140    -7.362    1.476
    187    C    -4.363    -6.659    0.961
    188    N    -4.406    -6.487    -0.421
    189    C    -5.630    -6.115    -0.635
    190    H    -5.758    -5.964    -1.615
    191    C    -8.104    -4.283    1.237
    192    H    -7.252    -3.973    1.660
    193    O    -9.196    -4.335    2.162
    194    H    -9.292    -5.168    2.629
    195    C    -8.436    -3.372    0.066
    196    H    -7.598    -3.094    -0.403
    197    O    -9.302    -2.307    0.478
    198    P    -8.712    -0.857    0.857
    199    O    -9.845    0.071    1.055
    200    O    -7.649    -0.533    -0.120
    201    O    -8.021    -1.120    2.286
    202    C    -8.821    -1.432    3.432
    203    H    -9.413    -2.208    3.214
    204    H    -9.251    -0.594    3.767
    205    C    -7.971    -1.917    4.600
    206    H    -8.516    -2.130    5.411
    207    O    -7.269    -3.069    4.204
    208    C    -6.044    -3.163    4.956
    209    H    -6.113    -3.964    5.551
    210    N    -4.932    -3.260    3.983
    211    C    -5.101    -2.857    2.686
    212    H    -5.913    -2.485    2.235
    213    C    -3.721    -3.755    4.431
    214    O    -3.544    -4.121    5.587
    215    N    -2.710    -3.811    3.495
    216    H    -1.799    -4.174    3.810
    217    C    -2.796    -3.428    2.173
    218    O    -1.823    -3.522    1.433
    219    C    -4.092    -2.925    1.789
    220    H    -4.069    -2.670    0.822
    221    C    -6.021    -1.905    5.818
    222    H    -5.084    -1.557    5.854
    223    O    -6.586    -2.128    7.115
    224    H    -6.423    -2.999    7.484
    225    C    -6.874    -0.946    5.010
    226    H    -6.382    -0.647    4.193
    227    O    -7.372    0.114    5.834
    228    P    -6.616    1.539    5.860
    229    O    -7.407    2.463    6.701
    230    O    -6.272    1.910    4.469
    231    O    -5.254    1.184    6.641
    232    C    -5.307    0.768    8.010
    233    H    -5.923    -0.016    8.089
    234    H    -5.487    1.565    8.586
    235    C    -3.970    0.240    8.516
    236    H    -4.014    -0.067    9.467
    237    O    -3.570    -0.839    7.704
    238    C    -2.133    -0.965    7.755
    239    H    -1.923    -1.784    8.289
    240    N    -1.651    -1.057    6.358
    241    C    -2.437    -0.642    5.318
    242    H    -3.365    -0.270    5.330
    243    C    -0.377    -1.550    6.144
    244    O    0.345    -1.932    7.060
    245    N    0.043    -1.592    4.833
    246    H    0.990    -1.956    4.654
    247    C    -0.682    -1.193    3.729
    248    O    -0.198    -1.272    2.605
    249    C    -2.001    -0.696    4.039
    250    H    -2.458    -0.434    3.189
    251    C    -1.646    0.268    8.522
    252    H    -0.858    0.653    8.042
    253    O    -1.375    -0.032    9.893
    254    H    -1.020    -0.909    10.053
    255    C    -2.824    1.223    8.388
    256    H    -2.836    1.619    7.470
    257    O    -2.858    2.170    9.464
    258    P    -2.216    3.639    9.279
    259    O    -2.458    4.403    10.524
    260    O    -2.638    4.195    7.973
    261    O    -0.649    3.292    9.195
    262    C    0.005    2.671    10.309
    263    H    -0.483    1.831    10.546
    264    H    0.141    3.353    11.028
    265    C    1.410    2.207    9.953
    266    H    1.875    1.724    10.695
    267    O    1.338    1.341    8.801
    268    C    2.615    1.271    8.143
    269    H    3.060    0.410    8.390
    270    N    2.373    1.383    6.687
    271    C    1.209    1.910    6.207
    272    H    0.410    2.263    6.694
    273    C    0.999    2.019    4.884
    274    H    0.237    2.365    4.337
    275    C    3.374    0.947    5.831
    276    O    4.419    0.481    6.283
    277    N    3.170    1.053    4.491
    278    C    2.032    1.568    4.009
    279    N    1.868    1.665    2.694
    280    H    2.608    1.347    2.085
    281    H    1.018    2.050    2.307
    282    C    3.372    2.431    8.799
    283    H    3.821    2.942    8.066
    284    O    4.286    1.972    9.800
    285    H    4.666    1.106    9.635
    286    C    2.311    3.312    9.439
    287    H    1.820    3.835    8.742
    288    O    2.874    4.085    10.507
    289    P    3.249    5.634    10.264
    290    O    3.815    6.165    11.523
    291    O    2.110    6.327    9.614
    292    O    4.437    5.510    9.187
    293    C    5.667    4.859    9.527
    294    H    5.463    3.958    9.911
    295    H    6.227    5.484    10.070
    296    C    6.499    4.572    8.288
    297    H    7.348    4.077    8.473
    298    O    5.713    3.818    7.370
    299    C    6.150    4.099    6.027
    300    H    6.545    3.261    5.650
    301    N    4.960    4.560    5.272
    302    C    3.845    4.991    5.930
    303    H    3.666    5.074    6.910
    304    C    2.757    5.391    5.251
    305    H    1.860    5.732    5.534
    306    C    5.010    4.525    3.883
    307    O    6.027    4.144    3.310
    308    N    3.909    4.929    3.187
    309    C    2.811    5.352    3.826
    310    N    1.749    5.735    3.123
    311    H    1.792    5.699    2.115
    312    H    0.912    6.057    3.587
    313    C    7.259    5.136    6.206
    314    H    7.213    5.795    5.456
    315    O    8.547    4.531    6.345
    316    H    8.681    3.738    5.820
    317    C    6.831    5.820    7.492
    318    H    5.993    6.347    7.348
    319    O    7.909    6.554    8.081
    320    P    8.013    8.146    7.880
    321    O    9.113    8.649    8.732
    322    O    6.661    8.748    7.981
    323    O    8.486    8.224    6.350
    324    C    9.772    7.715    5.983
    325    H    9.820    6.746    6.226
    326    H    10.478    8.325    6.343
    327    C    9.986    7.737    4.478
    328    H    10.895    7.411    4.217
    329    O    8.993    6.914    3.842
    330    C    8.746    7.449    2.528
    331    H    9.040    6.758    1.868
    332    N    7.294    7.738    2.440
    333    C    6.550    7.902    3.573
    334    H    6.822    7.870    4.535
    335    C    5.231    8.150    3.499
    336    H    4.522    8.298    4.188
    337    C    6.718    7.823    1.178
    338    O    7.406    7.683    0.170
    339    N    5.381    8.075    1.094
    340    C    4.643    8.236    2.201
    341    N    3.340    8.483    2.087
    342    H    2.934    8.544    1.164
    343    H    2.765    8.608    2.908
    344    C    9.650    8.679    2.399
    345    H    9.165    9.393    1.895
    346    O    10.920    8.357    1.824
    347    H    10.897    7.680    1.144
    348    C    9.778    9.100    3.853
    349    H    8.912    9.479    4.178
    350    O    10.924    9.927    4.050
    351    P    10.795    11.524    4.023
    352    O    12.110    12.101    4.366
    353    O    9.588    11.898    4.792
    354    O    10.509    11.793    2.465
    355    C    11.491    11.455    1.480
    356    H    11.704    10.481    1.553
    357    H    12.248    12.106    1.538
    358    C    10.947    11.624    0.065
    359    H    11.619    11.385    -0.636
    360    O    9.780    10.809    -0.110
    361    C    8.945    11.416    -1.111
    362    H    8.990    10.832    -1.921
    363    N    7.581    11.499    -0.542
    364    C    7.394    11.462    0.808
    365    H    8.061    11.400    1.551
    366    C    6.159    11.511    1.332
    367    H    5.812    11.496    2.270
    368    C    6.507    11.592    -1.418
    369    O    6.696    11.635    -2.631
    370    N    5.251    11.642    -0.894
    371    C    5.058    11.604    0.431
    372    N    3.822    11.645    0.915
    373    H    3.047    11.704    0.270
    374    H    3.657    11.617    1.911
    375    C    9.577    12.770    -1.438
    376    H    8.854    13.460    -1.474
    377    O    10.348    12.727    -2.642
    378    H    10.007    12.141    -3.321
    379    C    10.450    13.031    -0.218
    380    H    9.878    13.334    0.545
    381    O    11.541    13.899    -0.535
    382    P    11.411    15.479    -0.281
    383    O    12.669    16.129    -0.709
    384    O    10.889    15.695    1.087
    385    O    10.259    15.863    -1.332
    386    C    10.471    15.639    -2.730
    387    H    10.740    14.686    -2.870
    388    H    11.074    16.353    -3.086
    389    C    9.188    15.792    -3.532
    390    H    9.342    15.571    -4.495
    391    O    8.183    14.946    -3.022
    392    C    6.924    15.489    -3.452
    393    H    6.634    14.942    -4.237
    394    N    5.984    15.380    -2.316
    395    C    6.445    15.239    -1.036
    396    H    7.385    15.186    -0.700
    397    C    4.631    15.432    -2.594
    398    O    4.194    15.558    -3.734
    399    N    3.787    15.338    -1.507
    400    H    2.774    15.379    -1.692
    401    C    4.167    15.194    -0.189
    402    O    3.320    15.112    0.697
    403    C    5.597    15.148    0.012
    404    H    5.785    15.046    0.989
    405    C    7.172    16.927    -3.911
    406    H    6.560    17.530    -3.399
    407    O    7.022    17.071    -5.329
    408    H    6.356    16.505    -5.726
    409    C    8.606    17.192    -3.476
    410    H    8.610    17.509    -2.527
    411    O    9.266    18.059    -4.409
    412    P    9.480    19.619    -4.050
    413    O    10.038    20.294    -5.244
    414    O    10.181    19.724    -2.748
    415    O    7.966    20.129    -3.847
    416    C    7.060    20.177    -4.955
    417    H    7.062    19.290    -5.416
    418    H    7.258    20.990    -5.502
    419    C    5.617    20.366    -4.494
    420    H    5.011    20.514    -5.275
    421    O    5.180    19.221    -3.781
    422    C    4.203    19.624    -2.799
    423    H    3.331    19.218    -3.072
    424    N    4.668    19.159    -1.476
    425    C    3.881    18.905    -0.375
    426    N    0.748    18.693    1.108
    427    H    0.277    18.480    1.975
    428    H    0.161    18.946    0.326
    429    N    2.532    18.984    -0.324
    430    C    2.055    18.676    0.885
    431    N    2.844    18.320    1.949
    432    H    2.371    18.102    2.838
    433    C    4.222    18.231    1.922
    434    O    4.832    17.905    2.932
    435    C    4.742    18.555    0.641
    436    N    6.060    18.586    0.194
    437    C    5.945    18.944    -1.046
    438    H    6.856    18.993    -1.457
    439    C    4.097    21.138    -2.897
    440    H    4.060    21.514    -1.971
    441    O    2.984    21.545    -3.704
    442    H    2.214    20.974    -3.650
    443    C    5.422    21.531    -3.539
    444    H    6.147    21.512    -2.850
    445    O    5.309    22.780    -4.230
    446    P    5.975    24.096    -3.576
    447    O    5.745    25.233    -4.492
    448    O    7.353    23.769    -3.143
    449    O    5.071    24.296    -2.258
    450    C    5.511    25.100    -1.164
    451    H    5.562    26.054    -1.461
    452    H    6.331    24.688    -0.766
    453    C    4.491    25.103    -0.029
    454    H    4.883    25.522    0.790
    455    O    3.366    25.868    -0.447
    456    C    2.183    25.051    -0.476
    457    H    1.512    25.513    0.104
    458    N    1.736    24.966    -1.886
    459    C    2.537    24.419    -2.848
    460    H    3.450    24.018    -2.776
    461    C    2.132    24.359    -4.129
    462    H    2.553    24.008    -4.965
    463    C    0.483    25.475    -2.198
    464    O    -0.224    25.958    -1.317
    465    N    0.066    25.417    -3.494
    466    C    0.845    24.884    -4.443
    467    N    0.410    24.849    -5.700
    468    H    -0.502    25.227    -5.911
    469    H    0.981    24.452    -6.432
    470    C    2.524    23.691    0.143
    471    H    2.324    22.994    -0.545
    472    O    1.824    23.464    1.371
    473    H    0.958    23.875    1.426
    474    C    4.024    23.718    0.400
    475    H    4.440    23.034    -0.199
    476    O    4.293    23.557    1.801
    477    P    4.078    22.129    2.529
    478    O    4.941    22.090    3.732
    479    O    4.198    21.068    1.505
    480    O    2.537    22.190    3.016
    481    C    2.095    23.148    4.000
    482    H    2.225    24.071    3.637
    483    H    2.514    22.927    4.881
    484    C    0.587    23.064    4.273
    485    H    0.349    23.627    5.064
    486    O    -0.113    23.551    3.128
    487    C    -1.110    22.614    2.713
    488    H    -1.984    22.985    3.027
    489    N    -1.067    22.504    1.243
    490    C    -1.598    22.653    -0.880
    491    N    -0.278    22.210    -0.840
    492    C    -0.032    22.141    0.432
    493    H    0.906    21.822    0.565
    494    N    -3.707    23.345    -1.624
    495    C    -4.070    23.477    -0.348
    496    H    -4.978    23.775    -0.055
    497    N    -3.322    23.246    0.728
    498    C    -2.085    22.831    0.382
    499    C    -2.469    22.934    -1.935
    500    N    -2.110    22.850    -3.213
    501    H    -2.780    23.098    -3.927
    502    H    -1.176    22.540    -3.440
    503    C    -0.853    21.296    3.414
    504    H    -0.358    20.704    2.777
    505    O    -2.070    20.714    3.888
    506    H    -2.842    20.891    3.345
    507    C    0.065    21.650    4.577
    508    H    0.832    21.009    4.557
    509    O    -0.700    21.680    5.791
    510    P    -1.318    20.321    6.423
    511    O    -1.405    20.501    7.891
    512    O    -0.565    19.170    5.870
    513    O    -2.822    20.270    5.834
    514    C    -3.955    20.026    6.686
    515    H    -3.991    20.735    7.391
    516    H    -3.940    19.071    6.982
    517    C    -5.277    20.171    5.930
    518    H    -6.036    19.829    6.484
    519    O    -5.492    21.563    5.650
    520    C    -5.722    21.738    4.247
    521    H    -6.712    21.736    4.108
    522    N    -5.143    23.050    3.818
    523    C    -4.101    23.613    4.515
    524    H    -3.632    23.279    5.333
    525    C    -5.669    23.683    2.692
    526    O    -6.592    23.218    2.034
    527    N    -5.081    24.879    2.338
    528    H    -5.461    25.358    1.509
    529    C    -4.034    25.501    2.981
    530    O    -3.588    26.564    2.561
    531    C    -3.545    24.789    4.136
    532    H    -2.791    25.305    4.541
    533    C    -5.118    20.502    3.562
    534    H    -4.136    20.648    3.443
    535    O    -5.773    20.215    2.320
    536    H    -6.073    20.986    1.832
    537    C    -5.336    19.407    4.613
    538    H    -4.565    18.772    4.570
    539    O    -6.633    18.817    4.437
    540    P    -6.833    17.440    3.619
    541    O    -8.245    17.022    3.770
    542    O    -5.748    16.510    4.003
    543    O    -6.600    17.886    2.084
    544    C    -7.518    18.770    1.420
    545    H    -7.506    19.657    1.881
    546    H    -8.398    18.307    1.316
    547    C    -7.069    19.071    -0.010
    548    H    -7.762    19.619    -0.479
    549    O    -5.812    19.788    -0.024
    550    C    -5.291    19.654    -1.346
    551    H    -5.556    20.484    -1.837
    552    N    -3.826    19.538    -1.249
    553    C    -1.689    19.588    -1.732
    554    N    -1.774    19.215    -0.390
    555    C    -3.055    19.206    -0.171
    556    H    -3.221    18.947    0.781
    557    N    -0.879    20.150    -3.856
    558    C    -2.140    20.309    -4.252
    559    H    -2.405    20.579    -5.178
    560    N    -3.234    20.145    -3.520
    561    C    -2.931    19.783    -2.258
    562    C    -0.608    19.788    -2.593
    563    N    0.655    19.634    -2.221
    564    H    1.388    19.793    -2.898
    565    H    0.855    19.361    -1.269
    566    C    -5.974    18.446    -2.001
    567    H    -5.265    17.796    -2.277
    568    O    -6.807    18.847    -3.098
    569    H    -6.488    19.606    -3.593
    570    C    -6.791    17.837    -0.855
    571    H    -6.212    17.209    -0.334
    572    O    -7.999    17.265    -1.371
    573    P    -8.073    15.691    -1.698
    574    O    -9.402    15.405    -2.283
    575    O    -7.626    14.956    -0.494
    576    O    -6.962    15.498    -2.854
    577    C    -7.130    16.137    -4.125
    578    H    -7.322    17.107    -3.979
    579    H    -7.779    15.608    -4.672
    580    C    -5.854    16.137    -4.964
    581    H    -6.055    16.520    -5.865
    582    O    -4.820    16.936    -4.330
    583    C    -3.543    16.394    -4.726
    584    H    -3.113    17.089    -5.302
    585    N    -2.768    16.132    -3.499
    586    C    -1.125    15.792    -2.083
    587    N    -2.302    15.695    -1.345
    588    C    -3.223    15.900    -2.233
    589    H    -4.119    15.844    -1.792
    590    N    1.133    15.822    -2.708
    591    C    0.742    16.080    -3.958
    592    H    1.371    16.203    -4.726
    593    N    -0.506    16.216    -4.395
    594    C    -1.397    16.057    -3.394
    595    C    0.222    15.673    -1.733
    596    N    0.626    15.438    -0.488
    597    H    1.616    15.376    -0.298
    598    H    -0.066    15.327    0.239
    599    C    -3.796    15.134    -5.568
    600    H    -3.181    14.409    -5.257
    601    O    -3.681    15.400    -6.968
    602    H    -3.012    16.047    -7.204
    603    C    -5.225    14.774    -5.178
    604    H    -5.206    14.284    -4.307
    605    O    -5.885    14.089    -6.255
    606    P    -5.787    12.478    -6.370
    607    O    -6.612    12.052    -7.522
    608    O    -6.021    11.879    -5.035
    609    O    -4.238    12.257    -6.757
    610    C    -3.687    12.877    -7.926
    611    H    -3.869    13.860    -7.890
    612    H    -3.990    12.374    -8.735
    613    C    -2.168    12.770    -7.956
    614    H    -1.801    13.174    -8.794
    615    O    -1.585    13.436    -6.820
    616    C    -0.284    12.852    -6.610
    617    H    0.381    13.509    -6.964