!*** FMO 5.2 (Gamess) INPUT generated by Facio 21.1.1.32 ***
 $CONTRL RUNTYP=OPTFMO NPRINT=-5 ISPHER=-1 MAXIT=50 $END
 $SYSTEM MWORDS=29 $END
 $GDDI NGROUP=1 $END
 $INTGRL NINTIC=-9000000 $END
 $SCF DIRSCF=.FALSE. NPUNCH=0 $END
!*** NumCPU : 2  MemPerNode : 512MB
 $FMOPRP
    NAODIR=210
    NGRFMO(1)=1, 1, 0, 0, 0,   0, 0, 0, 0, 0
    NPRINT=9
 $END
 $FMO
      SCFTYP(1)=RHF
      MODGRD=10
      MODMUL=0
      MAXCAO=5
      MAXBND=34
      NLAYER=1
      NFRAG=32
      ICHARG(1)=-1, -1, -1, -1, -1, -1, -1, -1, -1, -1, 
-1, -1, -1, -1, -1, -1, -1, -1, -1, -1, 
-1, -1, -1, -1, -1, -1, -1, -1, -1, -1, 
-1, 0
      FRGNAM(1)=Frag1, Frag2, Frag3, Frag4, Frag5, Frag6, Frag7, Frag8, Frag9, Frag10, Frag11, Frag12, Frag13, Frag14, Frag15, Frag16, Frag17, Frag18, Frag19, Frag20, Frag21, Frag22, Frag23, Frag24, Frag25, Frag26, Frag27, Frag28, Frag29, Frag30, Frag31, Frag32
      indat(1)=0
               1   -36   0
               37   -69   0
               70   -103   0
               104   -134   0
               135   -167   0
               168   -201   0
               202   -231   0
               232   -261   0
               262   -292   0
               293   -323   0
               324   -354   0
               355   -385   0
               386   -415   0
               416   -449   0
               450   -480   0
               481   -513   0
               514   -543   0
               544   -576   0
               577   -609   0
               610   -643   0
               644   -677   0
               678   -710   0
               711   -740   0
               741   -774   0
               775   -807   0
               808   -840   0
               841   -871   0
               872   -902   0
               903   -936   0
               937   -966   0
               967   -996   0
               997   -1024   0
 $END

 $FMOBND
   -37   36       3-21G    MINI
   -70   69       3-21G    MINI
   -104   103       3-21G    MINI
   -135   134       3-21G    MINI
   -168   167       3-21G    MINI
   -202   201       3-21G    MINI
   -232   231       3-21G    MINI
   -262   261       3-21G    MINI
   -293   292       3-21G    MINI
   -324   323       3-21G    MINI
   -355   354       3-21G    MINI
   -386   385       3-21G    MINI
   -416   415       3-21G    MINI
   -450   449       3-21G    MINI
   -481   480       3-21G    MINI
   -514   513       3-21G    MINI
   -544   543       3-21G    MINI
   -577   576       3-21G    MINI
   -610   609       3-21G    MINI
   -644   643       3-21G    MINI
   -678   677       3-21G    MINI
   -711   710       3-21G    MINI
   -741   740       3-21G    MINI
   -775   774       3-21G    MINI
   -808   807       3-21G    MINI
   -841   840       3-21G    MINI
   -872   871       3-21G    MINI
   -903   902       3-21G    MINI
   -937   936       3-21G    MINI
   -967   966       3-21G    MINI
   -997   996       3-21G    MINI
 $END
 $FMOHYB
 3-21G        9   5
   1 0  -0.070459   0.164841   0.000000   0.000000   0.502116
         0.466939   0.000000   0.000000   0.418036
   0 1  -0.070465   0.164857   0.473392   0.000000  -0.167359
         0.466967   0.394111   0.000000  -0.139327
   0 1  -0.070465   0.164857  -0.236695  -0.409969  -0.167359
         0.466967  -0.197055  -0.341311  -0.139327
   0 1  -0.070465   0.164857  -0.236695   0.409969  -0.167359
         0.466967  -0.197055   0.341311  -0.139327
   0 1   1.006716   0.074826   0.000000   0.000000   0.000000
        -0.143830   0.000000   0.000000  -0.000003
 MINI         5   5
   1 0  -0.104883   0.308874   0.000000   0.000000   0.521806
   0 1  -0.104883   0.308874   0.491961   0.000000  -0.173934
   0 1  -0.104883   0.308876  -0.245980  -0.426050  -0.173933
   0 1  -0.104883   0.308876  -0.245980   0.426050  -0.173933
   0 1   0.988209   0.063992   0.000000   0.000000   0.000000
 $END

 $DATA
 FMO calculation : XXNAMEXX
 C1 
 C.1-1    6
      N21 3
   
 O.1-1    8
      N21 3
   
 N.1-1    7
      N21 3
   
 H.1-1    1
      N21 3
   
 P.1-1   15
      N21 3
   
 $END
 $FMOXYZ
    1    H    6.243    -25.435    -4.290
    2    O    5.294    -25.276    -4.561
    3    C    4.899    -26.290    -5.492
    4    H    4.905    -27.177    -5.030
    5    H    5.440    -26.194    -6.327
    6    C    3.454    -26.114    -5.955
    7    H    3.250    -26.777    -6.675
    8    O    2.542    -26.298    -4.887
    9    C    1.298    -25.689    -5.287
    10    H    0.746    -26.414    -5.699
    11    N    0.670    -25.122    -4.073
    12    C    -0.666    -24.836    -3.905
    13    N    -3.916    -24.812    -5.123
    14    H    -4.866    -24.562    -4.887
    15    H    -3.770    -25.217    -6.037
    16    N    -1.644    -25.047    -4.817
    17    C    -2.840    -24.666    -4.362
    18    N    -3.050    -24.125    -3.120
    19    H    -4.016    -23.866    -2.873
    20    C    -2.070    -23.899    -2.172
    21    O    -2.368    -23.405    -1.088
    22    C    -0.788    -24.301    -2.642
    23    N    0.452    -24.248    -2.010
    24    C    1.258    -24.742    -2.899
    25    H    2.187    -24.745    -2.530
    26    C    1.626    -24.643    -6.357
    27    H    1.384    -23.743    -5.996
    28    O    0.983    -24.929    -7.605
    29    H    0.122    -25.348    -7.531
    30    C    3.135    -24.730    -6.496
    31    H    3.546    -24.043    -5.897
    32    O    3.591    -24.445    -7.821
    33    P    4.066    -22.935    -8.114
    34    O    4.621    -22.999    -9.474
    35    O    4.879    -22.178    -7.115
    36    O    2.682    -22.123    -8.214
    37    C    1.674    -22.613    -9.103
    38    H    1.513    -23.581    -8.911
    39    H    1.912    -22.354    -10.039
    40    C    0.309    -21.972    -8.889
    41    H    -0.334    -22.307    -9.578
    42    O    -0.202    -22.293    -7.573
    43    C    -1.254    -21.338    -7.327
    44    H    -2.092    -21.726    -7.712
    45    N    -1.354    -21.138    -5.867
    46    C    -2.140    -20.805    -3.843
    47    N    -0.754    -20.853    -3.718
    48    C    -0.355    -21.049    -4.938
    49    H    0.644    -21.097    -4.950
    50    N    -4.428    -20.621    -3.371
    51    C    -4.669    -20.799    -4.671
    52    H    -5.585    -20.812    -5.071
    53    N    -3.772    -20.985    -5.637
    54    C    -2.516    -20.976    -5.145
    55    C    -3.165    -20.617    -2.914
    56    N    -2.940    -20.442    -1.614
    57    H    -3.727    -20.315    -0.994
    58    H    -1.988    -20.440    -1.278
    59    C    -0.890    -20.071    -8.102
    60    H    -0.604    -19.383    -7.435
    61    O    -1.963    -19.634    -8.940
    62    H    -2.842    -19.816    -8.600
    63    C    0.303    -20.457    -8.957
    64    H    1.130    -20.108    -8.516
    65    O    0.160    -19.917    -10.272
    66    P    0.411    -18.336    -10.447
    67    O    0.601    -18.142    -11.895
    68    O    1.344    -17.612    -9.535
    69    O    -1.063    -17.824    -10.070
    70    C    -2.175    -18.331    -10.815
    71    H    -2.141    -19.330    -10.811
    72    H    -2.213    -17.867    -11.700
    73    C    -3.510    -18.002    -10.166
    74    H    -4.291    -18.364    -10.675
    75    O    -3.537    -18.528    -8.838
    76    C    -4.651    -17.937    -8.134
    77    H    -5.439    -18.548    -8.207
    78    N    -4.227    -17.714    -6.736
    79    C    -5.033    -17.309    -5.699
    80    N    -8.157    -16.389    -4.496
    81    H    -8.647    -16.092    -3.664
    82    H    -8.709    -16.478    -5.337
    83    N    -6.361    -17.055    -5.776
    84    C    -6.867    -16.674    -4.603
    85    N    -6.130    -16.558    -3.453
    86    H    -6.626    -16.261    -2.600
    87    C    -4.775    -16.808    -3.347
    88    O    -4.211    -16.668    -2.266
    89    C    -4.219    -17.214    -4.592
    90    N    -2.909    -17.557    -4.920
    91    C    -2.984    -17.838    -6.185
    92    H    -2.077    -18.100    -6.515
    93    C    -4.920    -16.674    -8.962
    94    H    -4.933    -15.900    -8.329
    95    O    -6.113    -16.789    -9.744
    96    H    -6.806    -17.323    -9.350
    97    C    -3.728    -16.535    -9.886
    98    H    -2.938    -16.178    -9.388
    99    O    -4.008    -15.755    -11.043
    100    P    -3.347    -14.289    -11.091
    101    O    -3.699    -13.808    -12.434
    102    O    -1.944    -14.121    -10.613
    103    O    -4.292    -13.560    -10.017
    104    C    -5.701    -13.541    -10.259
    105    H    -6.026    -14.481    -10.365
    106    H    -5.896    -12.892    -10.994
    107    C    -6.496    -13.007    -9.075
    108    H    -7.466    -12.930    -9.305
    109    O    -6.351    -13.886    -7.948
    110    C    -6.634    -13.114    -6.767
    111    H    -7.540    -13.397    -6.451
    112    N    -5.574    -13.399    -5.780
    113    C    -4.336    -13.816    -6.177
    114    H    -3.983    -14.015    -7.091
    115    C    -3.360    -14.023    -5.277
    116    H    -2.408    -14.321    -5.352
    117    C    -5.868    -13.183    -4.444
    118    O    -6.993    -12.824    -4.108
    119    N    -4.886    -13.388    -3.526
    120    C    -3.667    -13.791    -3.904
    121    N    -2.719    -13.951    -2.988
    122    H    -2.939    -13.764    -2.020
    123    H    -1.793    -14.254    -3.252
    124    C    -6.691    -11.639    -7.193
    125    H    -6.126    -11.106    -6.564
    126    O    -8.039    -11.164    -7.280
    127    H    -8.644    -11.540    -6.636
    128    C    -6.030    -11.654    -8.560
    129    H    -5.036    -11.672    -8.451
    130    O    -6.290    -10.491    -9.367
    131    P    -5.225    -9.282    -9.435
    132    O    -5.647    -8.405    -10.540
    133    O    -3.736    -9.397    -9.288
    134    O    -5.688    -8.580    -8.074
    135    C    -7.091    -8.321    -7.934
    136    H    -7.593    -9.180    -8.038
    137    H    -7.342    -7.557    -8.528
    138    C    -7.460    -7.842    -6.536
    139    H    -8.428    -7.595    -6.493
    140    O    -7.192    -8.910    -5.549
    141    C    -7.084    -8.241    -4.277
    142    H    -7.937    -8.417    -3.786
    143    N    -5.914    -8.814    -3.579
    144    C    -4.521    -9.487    -2.021
    145    N    -3.963    -9.881    -3.236
    146    C    -4.827    -9.455    -4.107
    147    H    -4.508    -9.692    -5.025
    148    N    -4.884    -9.127    0.263
    149    C    -6.022    -8.511    -0.055
    150    H    -6.647    -8.114    0.617
    151    N    -6.517    -8.318    -1.275
    152    C    -5.705    -8.837    -2.218
    153    C    -4.099    -9.634    -0.697
    154    N    -2.969    -10.247    -0.359
    155    H    -2.724    -10.318    0.618
    156    H    -2.381    -10.627    -1.087
    157    C    -6.976    -6.733    -4.571
    158    H    -6.200    -6.383    -4.047
    159    O    -8.203    -6.054    -4.287
    160    H    -8.715    -6.426    -3.565
    161    C    -6.659    -6.628    -6.058
    162    H    -5.687    -6.795    -6.221
    163    O    -6.848    -5.300    -6.645
    164    P    -5.730    -4.123    -6.800
    165    O    -6.292    -2.972    -7.543
    166    O    -4.275    -4.315    -7.115
    167    O    -5.691    -3.646    -5.271
    168    C    -6.959    -3.378    -4.662
    169    H    -7.628    -4.042    -4.997
    170    H    -7.171    -2.406    -4.765
    171    C    -6.960    -3.591    -3.155
    172    H    -7.885    -3.603    -2.774
    173    O    -6.328    -4.833    -2.874
    174    C    -5.936    -4.821    -1.489
    175    H    -6.613    -5.351    -0.978
    176    N    -4.582    -5.410    -1.407
    177    C    -3.894    -5.709    -0.253
    178    N    -3.706    -5.769    3.213
    179    H    -3.110    -6.030    3.986
    180    H    -4.600    -5.363    3.450
    181    N    -4.334    -5.507    1.011
    182    C    -3.441    -5.901    1.922
    183    N    -2.222    -6.445    1.611
    184    H    -1.609    -6.713    2.394
    185    C    -1.749    -6.663    0.330
    186    O    -0.644    -7.169    0.161
    187    C    -2.691    -6.247    -0.652
    188    N    -2.610    -6.288    -2.042
    189    C    -3.745    -5.784    -2.419
    190    H    -3.779    -5.771    -3.418
    191    C    -6.032    -3.346    -1.067
    192    H    -5.172    -3.105    -0.617
    193    O    -7.180    -3.104    -0.245
    194    H    -7.438    -3.838    0.317
    195    C    -6.144    -2.567    -2.372
    196    H    -5.246    -2.469    -2.801
    197    O    -6.803    -1.282    -2.200
    198    P    -6.133    0.173    -1.927
    199    O    -7.132    1.275    -1.996
    200    O    -4.865    0.392    -2.666
    201    O    -5.735    0.041    -0.373
    202    C    -6.764    -0.110    0.616
    203    H    -7.385    -0.840    0.331
    204    H    -7.156    0.788    0.817
    205    C    -6.208    -0.588    1.952
    206    H    -6.913    -0.683    2.654
    207    O    -5.579    -1.826    1.767
    208    C    -4.539    -1.980    2.754
    209    H    -4.809    -2.725    3.364
    210    N    -3.277    -2.255    2.028
    211    C    -3.148    -1.935    0.703
    212    H    -3.813    -1.523    0.080
    213    C    -2.236    -2.829    2.734
    214    O    -2.326    -3.123    3.921
    215    N    -1.075    -3.050    2.023
    216    H    -0.287    -3.474    2.533
    217    C    -0.862    -2.759    0.692
    218    O    0.219    -3.000    0.167
    219    C    -1.998    -2.164    0.030
    220    H    -1.761    -1.984    -0.925
    221    C    -4.544    -0.674    3.535
    222    H    -3.601    -0.418    3.747
    223    O    -5.372    -0.741    4.701
    224    H    -5.381    -1.593    5.143
    225    C    -5.100    0.296    2.508
    226    H    -4.427    0.466    1.788
    227    O    -5.767    1.374    3.177
    228    P    -5.067    2.744    3.691
    229    O    -6.047    3.639    4.349
    230    O    -4.446    3.050    2.397
    231    O    -3.980    2.221    4.750
    232    C    -4.376    1.815    6.063
    233    H    -5.045    1.075    5.987
    234    H    -4.631    2.625    6.591
    235    C    -3.212    1.204    6.833
    236    H    -3.474    0.905    7.751
    237    O    -2.715    0.103    6.118
    238    C    -1.334    -0.113    6.479
    239    H    -1.297    -0.944    7.033
    240    N    -0.565    -0.235    5.220
    241    C    -1.079    0.227    4.039
    242    H    -1.963    0.655    3.853
    243    C    0.693    -0.807    5.282
    244    O    1.172    -1.234    6.328
    245    N    1.385    -0.877    4.093
    246    H    2.324    -1.300    4.120
    247    C    0.944    -0.434    2.863
    248    O    1.656    -0.544    1.871
    249    C    -0.378    0.146    2.885
    250    H    -0.621    0.437    1.960
    251    C    -0.947    1.084    7.350
    252    H    -0.048    1.417    7.066
    253    O    -1.005    0.773    8.743
    254    H    -0.746    -0.123    8.969
    255    C    -2.004    2.107    6.951
    256    H    -1.788    2.481    6.049
    257    O    -2.312    2.935    8.078
    258    P    -1.558    4.338    8.371
    259    O    -2.093    4.983    9.592
    260    O    -1.787    4.842    7.013
    261    O    -0.035    3.881    8.577
    262    C    0.388    3.253    9.791
    263    H    -0.139    2.413    9.924
    264    H    0.384    3.930    10.527
    265    C    1.835    2.797    9.685
    266    H    2.159    2.306    10.494
    267    O    1.973    1.942    8.529
    268    C    3.347    1.880    8.110
    269    H    3.743    1.017    8.425
    270    N    3.369    2.006    6.635
    271    C    2.308    2.536    5.960
    272    H    1.433    2.883    6.299
    273    C    2.338    2.658    4.622
    274    H    1.685    3.009    3.951
    275    C    4.508    1.579    5.968
    276    O    5.457    1.110    6.595
    277    N    4.547    1.699    4.615
    278    C    3.512    2.217    3.941
    279    N    3.585    2.327    2.619
    280    H    4.423    2.016    2.149
    281    H    2.816    2.715    2.091
    282    C    3.971    3.034    8.902
    283    H    4.542    3.553    8.265
    284    O    4.692    2.566    10.046
    285    H    5.096    1.701    9.944
    286    C    2.812    3.910    9.355
    287    H    2.452    4.443    8.589
    288    O    3.178    4.683    10.509
    289    P    3.518    6.251    10.366
    290    O    3.858    6.834    11.684
    291    O    2.434    6.854    9.558
    292    O    4.856    6.243    9.471
    293    C    6.081    5.707    9.986
    294    H    5.909    4.791    10.349
    295    H    6.501    6.381    10.594
    296    C    7.103    5.497    8.880
    297    H    7.956    5.077    9.190
    298    O    6.521    4.675    7.870
    299    C    7.114    4.993    6.597
    300    H    7.631    4.195    6.289
    301    N    6.006    5.345    5.677
    302    C    4.776    5.675    6.168
    303    H    4.455    5.741    7.113
    304    C    3.762    5.977    5.340
    305    H    2.808    6.237    5.491
    306    C    6.252    5.315    4.309
    307    O    7.369    5.026    3.889
    308    N    5.228    5.619    3.462
    309    C    4.018    5.942    3.936
    310    N    3.035    6.228    3.088
    311    H    3.221    6.196    2.096
    312    H    2.116    6.474    3.428
    313    C    8.091    6.127    6.917
    314    H    8.089    6.779    6.159
    315    O    9.395    5.637    7.240
    316    H    9.668    4.857    6.751
    317    C    7.440    6.774    8.127
    318    H    6.590    7.233    7.868
    319    O    8.305    7.699    8.805
    320    P    8.138    9.279    8.541
    321    O    9.007    10.035    9.471
    322    O    6.713    9.690    8.452
    323    O    8.756    9.489    7.073
    324    C    10.145    9.220    6.854
    325    H    10.341    8.278    7.127
    326    H    10.687    9.951    7.268
    327    C    10.530    9.264    5.384
    328    H    11.506    9.100    5.239
    329    O    9.777    8.276    4.661
    330    C    9.599    8.749    3.312
    331    H    10.084    8.114    2.711
    332    N    8.140    8.779    3.050
    333    C    7.250    8.819    4.084
    334    H    7.407    8.843    5.071
    335    C    5.926    8.832    3.851
    336    H    5.125    8.858    4.450
    337    C    7.712    8.752    1.728
    338    O    8.529    8.726    0.810
    339    N    6.371    8.765    1.483
    340    C    5.490    8.804    2.493
    341    N    4.187    8.818    2.222
    342    H    3.889    8.799    1.257
    343    H    3.506    8.847    2.967
    344    C    10.286    10.117    3.252
    345    H    9.749    10.733    2.675
    346    O    11.651    10.018    2.839
    347    H    11.827    9.344    2.179
    348    C    10.162    10.561    4.699
    349    H    9.209    10.781    4.909
    350    O    11.144    11.556    4.991
    351    P    10.797    13.102    4.704
    352    O    11.956    13.912    5.131
    353    O    9.486    13.211    5.372
    354    O    10.588    13.284    3.116
    355    C    11.689    13.174    2.207
    356    H    12.098    12.266    2.300
    357    H    12.284    13.970    2.318
    358    C    11.225    13.240    0.757
    359    H    11.981    13.149    0.109
    360    O    10.264    12.207    0.501
    361    C    9.397    12.641    -0.561
    362    H    9.617    12.085    -1.362
    363    N    8.007    12.441    -0.093
    364    C    7.734    12.354    1.240
    365    H    8.343    12.421    2.030
    366    C    6.480    12.146    1.672
    367    H    6.076    12.052    2.582
    368    C    7.003    12.321    -1.046
    369    O    7.267    12.413    -2.243
    370    N    5.729    12.110    -0.615
    371    C    5.452    12.022    0.692
    372    N    4.202    11.806    1.085
    373    H    3.480    11.712    0.385
    374    H    3.975    11.737    2.067
    375    C    9.762    14.097    -0.850
    376    H    8.919    14.627    -0.942
    377    O    10.611    14.224    -1.994
    378    H    10.445    13.589    -2.694
    379    C    10.473    14.514    0.430
    380    H    9.797    14.686    1.146
    381    O    11.391    15.573    0.165
    382    P    10.838    17.078    0.263
    383    O    11.938    17.993    -0.103
    384    O    10.235    17.095    1.609
    385    O    9.664    17.215    -0.833
    386    C    9.963    17.125    -2.230
    387    H    10.444    16.266    -2.405
    388    H    10.399    17.975    -2.525
    389    C    8.702    17.033    -3.076
    390    H    8.930    16.899    -4.040
    391    O    7.896    15.960    -2.641
    392    C    6.560    16.232    -3.098
    393    H    6.422    15.674    -3.917
    394    N    5.634    15.861    -2.006
    395    C    6.078    15.761    -0.716
    396    H    6.996    15.899    -0.344
    397    C    4.313    15.626    -2.336
    398    O    3.893    15.709    -3.486
    399    N    3.480    15.293    -1.288
    400    H    2.490    15.118    -1.512
    401    C    3.842    15.170    0.036
    402    O    3.010    14.858    0.883
    403    C    5.240    15.432    0.292
    404    H    5.417    15.325    1.270
    405    C    6.496    17.711    -3.486
    406    H    5.751    18.137    -2.972
    407    O    6.358    17.889    -4.901
    408    H    5.847    17.210    -5.347
    409    C    7.822    18.266    -2.988
    410    H    7.729    18.532    -2.029
    411    O    8.279    19.344    -3.816
    412    P    8.068    20.862    -3.318
    413    O    8.459    21.767    -4.421
    414    O    8.695    21.045    -1.988
    415    O    6.476    21.017    -3.116
    416    C    5.588    20.952    -4.240
    417    H    5.795    20.130    -4.771
    418    H    5.599    21.832    -4.715
    419    C    4.133    20.770    -3.814
    420    H    3.521    20.836    -4.602
    421    O    3.963    19.501    -3.201
    422    C    2.907    19.589    -2.223
    423    H    2.155    19.018    -2.552
    424    N    3.449    19.139    -0.924
    425    C    2.727    18.624    0.130
    426    N    -0.293    17.583    1.493
    427    H    -0.715    17.199    2.327
    428    H    -0.912    17.758    0.714
    429    N    1.395    18.388    0.144
    430    C    0.986    17.883    1.311
    431    N    1.821    17.634    2.370
    432    H    1.399    17.244    3.225
    433    C    3.183    17.865    2.379
    434    O    3.838    17.608    3.381
    435    C    3.631    18.401    1.143
    436    N    4.912    18.769    0.741
    437    C    4.734    19.189    -0.471
    438    H    5.614    19.478    -0.848
    439    C    2.456    21.043    -2.211
    440    H    2.324    21.324    -1.261
    441    O    1.290    21.246    -3.020
    442    H    0.673    20.511    -3.033
    443    C    3.658    21.782    -2.784
    444    H    4.359    21.881    -2.077
    445    O    3.293    23.056    -3.324
    446    P    3.624    24.368    -2.451
    447    O    3.159    25.548    -3.206
    448    O    5.033    24.327    -1.999
    449    O    2.708    24.235    -1.126
    450    C    2.956    24.987    0.069
    451    H    2.794    25.956    -0.117
    452    H    3.846    24.723    0.441
    453    C    1.960    24.638    1.175
    454    H    2.250    25.034    2.046
    455    O    0.694    25.181    0.817
    456    C    -0.281    24.134    0.665
    457    H    -1.038    24.369    1.275
    458    N    -0.697    24.118    -0.757
    459    C    0.206    23.873    -1.753
    460    H    1.185    23.674    -1.703
    461    C    -0.175    23.875    -3.043
    462    H    0.314    23.725    -3.902
    463    C    -2.031    24.372    -1.042
    464    O    -2.828    24.583    -0.131
    465    N    -2.424    24.375    -2.347
    466    C    -1.546    24.138    -3.329
    467    N    -1.961    24.154    -4.593
    468    H    -2.934    24.345    -4.785
    469    H    -1.316    23.978    -5.350
    470    C    0.350    22.819    1.136
    471    H    0.308    22.178    0.369
    472    O    -0.283    22.304    2.312
    473    H    -1.218    22.506    2.391
    474    C    1.808    23.145    1.431
    475    H    2.363    22.643    0.768
    476    O    2.101    22.900    2.815
    477    P    2.191    21.387    3.378
    478    O    3.033    21.408    4.595
    479    O    2.560    20.529    2.231
    480    O    0.672    21.035    3.813
    481    C    0.014    21.726    4.894
    482    H    -0.078    22.693    4.654
    483    H    0.472    21.498    5.753
    484    C    -1.433    21.255    5.106
    485    H    -1.798    21.645    5.951
    486    O    -2.224    21.708    4.005
    487    C    -2.968    20.625    3.444
    488    H    -3.906    20.737    3.771
    489    N    -2.896    20.718    1.973
    490    C    -3.440    21.008    -0.132
    491    N    -2.053    20.886    -0.102
    492    C    -1.802    20.714    1.159
    493    H    -0.815    20.609    1.283
    494    N    -5.650    21.275    -0.854
    495    C    -6.038    21.154    0.415
    496    H    -6.992    21.191    0.712
    497    N    -5.261    20.969    1.478
    498    C    -3.960    20.903    1.126
    499    C    -4.350    21.209    -1.172
    500    N    -3.977    21.377    -2.438
    501    H    -4.684    21.552    -3.138
    502    H    -2.995    21.326    -2.670
    503    C    -2.408    19.325    3.985
    504    H    -1.780    18.957    3.299
    505    O    -3.455    18.418    4.341
    506    H    -4.244    18.476    3.797
    507    C    -1.612    19.729    5.221
    508    H    -0.716    19.290    5.157
    509    O    -2.357    19.367    6.396
    510    P    -2.620    17.822    6.811
    511    O    -2.749    17.731    8.285
    512    O    -1.645    16.926    6.140
    513    O    -4.075    17.491    6.185
    514    C    -5.132    16.887    6.957
    515    H    -5.324    17.462    7.752
    516    H    -4.910    15.925    7.117
    517    C    -6.454    16.849    6.188
    518    H    -7.121    16.275    6.663
    519    O    -6.969    18.185    6.096
    520    C    -7.231    18.504    4.724
    521    H    -8.197    18.307    4.555
    522    N    -6.954    19.958    4.500
    523    C    -6.061    20.628    5.301
    524    H    -5.530    20.292    6.079
    525    C    -7.606    20.615    3.456
    526    O    -8.404    20.060    2.711
    527    N    -7.294    21.947    3.290
    528    H    -7.769    22.445    2.524
    529    C    -6.409    22.684    4.046
    530    O    -6.206    23.868    3.791
    531    C    -5.776    21.938    5.106
    532    H    -5.153    22.542    5.602
    533    C    -6.371    17.540    3.893
    534    H    -5.446    17.913    3.824
    535    O    -6.948    17.296    2.604
    536    H    -7.411    18.044    2.219
    537    C    -6.340    16.287    4.777
    538    H    -5.446    15.851    4.671
    539    O    -7.499    15.487    4.497
    540    P    -7.426    14.244    3.467
    541    O    -8.722    13.531    3.527
    542    O    -6.166    13.548    3.799
    543    O    -7.280    14.934    2.013
    544    C    -8.365    15.664    1.417
    545    H    -8.560    16.471    1.975
    546    H    -9.117    15.033    1.228
    547    C    -7.972    16.222    0.050
    548    H    -8.763    16.655    -0.383
    549    O    -6.907    17.194    0.166
    550    C    -6.349    17.334    -1.140
    551    H    -6.785    18.137    -1.546
    552    N    -4.897    17.532    -0.997
    553    C    -2.818    18.108    -1.384
    554    N    -2.838    17.570    -0.097
    555    C    -4.088    17.254    0.067
    556    H    -4.206    16.855    0.976
    557    N    -2.122    19.080    -3.397
    558    C    -3.381    19.003    -3.824
    559    H    -3.685    19.315    -4.724
    560    N    -4.422    18.518    -3.160
    561    C    -4.065    18.085    -1.935
    562    C    -1.796    18.640    -2.173
    563    N    -0.536    18.726    -1.769
    564    H    0.152    19.122    -2.393
    565    H    -0.294    18.394    -0.847
    566    C    -6.735    16.091    -1.953
    567    H    -5.896    15.650    -2.270
    568    O    -7.620    16.425    -3.031
    569    H    -7.471    17.288    -3.425
    570    C    -7.412    15.188    -0.915
    571    H    -6.715    14.647    -0.444
    572    O    -8.462    14.447    -1.549
    573    P    -8.164    12.958    -2.092
    574    O    -9.377    12.443    -2.767
    575    O    -7.609    12.260    -0.916
    576    O    -6.996    13.119    -3.199
    577    C    -7.256    13.788    -4.438
    578    H    -7.666    14.680    -4.247
    579    H    -7.749    13.166    -5.047
    580    C    -5.981    14.127    -5.211
    581    H    -6.230    14.522    -6.095
    582    O    -5.177    15.089    -4.472
    583    C    -3.796    14.874    -4.830
    584    H    -3.510    15.686    -5.339
    585    N    -3.030    14.703    -3.582
    586    C    -1.408    14.637    -2.104
    587    N    -2.561    14.229    -1.436
    588    C    -3.470    14.288    -2.358
    589    H    -4.347    14.005    -1.969
    590    N    0.807    15.210    -2.604
    591    C    0.417    15.462    -3.855
    592    H    1.032    15.774    -4.579
    593    N    -0.812    15.349    -4.350
    594    C    -1.682    14.927    -3.409
    595    C    -0.084    14.794    -1.690
    596    N    0.314    14.567    -0.441
    597    H    1.284    14.713    -0.202
    598    H    -0.364    14.254    0.240
    599    C    -3.729    13.650    -5.760
    600    H    -2.981    13.059    -5.457
    601    O    -3.621    14.035    -7.132
    602    H    -3.108    14.831    -7.290
    603    C    -5.056    12.952    -5.483
    604    H    -4.967    12.408    -4.649
    605    O    -5.460    12.107    -6.579
    606    P    -5.049    10.542    -6.590
    607    O    -5.682    9.867    -7.744
    608    O    -5.181    9.874    -5.271
    609    O    -3.470    10.588    -6.907
    610    C    -3.001    11.294    -8.064
    611    H    -3.387    12.217    -8.061
    612    H    -3.150    10.727    -8.874
    613    C    -1.494    11.520    -8.039
    614    H    -1.192    11.987    -8.870
    615    O    -1.120    12.313    -6.892
    616    C    0.266    12.032    -6.620