!*** FMO 5.2 (Gamess) INPUT generated by Facio 21.1.1.32 ***
 $CONTRL RUNTYP=OPTFMO NPRINT=-5 ISPHER=-1 MAXIT=50 $END
 $SYSTEM MWORDS=29 $END
 $GDDI NGROUP=1 $END
 $INTGRL NINTIC=-9000000 $END
 $SCF DIRSCF=.FALSE. NPUNCH=0 $END
!*** NumCPU : 2  MemPerNode : 512MB
 $FMOPRP
    NAODIR=210
    NGRFMO(1)=1, 1, 0, 0, 0,   0, 0, 0, 0, 0
    NPRINT=9
 $END
 $FMO
      SCFTYP(1)=RHF
      MODGRD=10
      MODMUL=0
      MAXCAO=5
      MAXBND=34
      NLAYER=1
      NFRAG=32
      ICHARG(1)=-1, -1, -1, -1, -1, -1, -1, -1, -1, -1, 
-1, -1, -1, -1, -1, -1, -1, -1, -1, -1, 
-1, -1, -1, -1, -1, -1, -1, -1, -1, -1, 
-1, 0
      FRGNAM(1)=Frag1, Frag2, Frag3, Frag4, Frag5, Frag6, Frag7, Frag8, Frag9, Frag10, Frag11, Frag12, Frag13, Frag14, Frag15, Frag16, Frag17, Frag18, Frag19, Frag20, Frag21, Frag22, Frag23, Frag24, Frag25, Frag26, Frag27, Frag28, Frag29, Frag30, Frag31, Frag32
      indat(1)=0
               1   -36   0
               37   -69   0
               70   -103   0
               104   -134   0
               135   -167   0
               168   -201   0
               202   -231   0
               232   -261   0
               262   -292   0
               293   -323   0
               324   -354   0
               355   -385   0
               386   -415   0
               416   -449   0
               450   -480   0
               481   -513   0
               514   -543   0
               544   -576   0
               577   -609   0
               610   -643   0
               644   -677   0
               678   -710   0
               711   -740   0
               741   -774   0
               775   -807   0
               808   -840   0
               841   -871   0
               872   -902   0
               903   -936   0
               937   -966   0
               967   -996   0
               997   -1024   0
 $END

 $FMOBND
   -37   36       3-21G    MINI
   -70   69       3-21G    MINI
   -104   103       3-21G    MINI
   -135   134       3-21G    MINI
   -168   167       3-21G    MINI
   -202   201       3-21G    MINI
   -232   231       3-21G    MINI
   -262   261       3-21G    MINI
   -293   292       3-21G    MINI
   -324   323       3-21G    MINI
   -355   354       3-21G    MINI
   -386   385       3-21G    MINI
   -416   415       3-21G    MINI
   -450   449       3-21G    MINI
   -481   480       3-21G    MINI
   -514   513       3-21G    MINI
   -544   543       3-21G    MINI
   -577   576       3-21G    MINI
   -610   609       3-21G    MINI
   -644   643       3-21G    MINI
   -678   677       3-21G    MINI
   -711   710       3-21G    MINI
   -741   740       3-21G    MINI
   -775   774       3-21G    MINI
   -808   807       3-21G    MINI
   -841   840       3-21G    MINI
   -872   871       3-21G    MINI
   -903   902       3-21G    MINI
   -937   936       3-21G    MINI
   -967   966       3-21G    MINI
   -997   996       3-21G    MINI
 $END
 $FMOHYB
 3-21G        9   5
   1 0  -0.070459   0.164841   0.000000   0.000000   0.502116
         0.466939   0.000000   0.000000   0.418036
   0 1  -0.070465   0.164857   0.473392   0.000000  -0.167359
         0.466967   0.394111   0.000000  -0.139327
   0 1  -0.070465   0.164857  -0.236695  -0.409969  -0.167359
         0.466967  -0.197055  -0.341311  -0.139327
   0 1  -0.070465   0.164857  -0.236695   0.409969  -0.167359
         0.466967  -0.197055   0.341311  -0.139327
   0 1   1.006716   0.074826   0.000000   0.000000   0.000000
        -0.143830   0.000000   0.000000  -0.000003
 MINI         5   5
   1 0  -0.104883   0.308874   0.000000   0.000000   0.521806
   0 1  -0.104883   0.308874   0.491961   0.000000  -0.173934
   0 1  -0.104883   0.308876  -0.245980  -0.426050  -0.173933
   0 1  -0.104883   0.308876  -0.245980   0.426050  -0.173933
   0 1   0.988209   0.063992   0.000000   0.000000   0.000000
 $END

 $DATA
 FMO calculation : XXNAMEXX
 C1 
 C.1-1    6
      N21 3
   
 O.1-1    8
      N21 3
   
 N.1-1    7
      N21 3
   
 H.1-1    1
      N21 3
   
 P.1-1   15
      N21 3
   
 $END
 $FMOXYZ
    1    H    9.240    -14.444    -6.080
    2    O    8.367    -14.623    -6.533
    3    C    8.615    -14.999    -7.891
    4    H    9.111    -15.867    -7.903
    5    H    9.018    -14.223    -8.375
    6    C    7.310    -15.283    -8.625
    7    H    7.571    -15.437    -9.578
    8    O    6.658    -16.433    -8.136
    9    C    5.297    -16.355    -8.601
    10    H    5.255    -16.884    -9.448
    11    N    4.443    -16.919    -7.533
    12    C    3.174    -17.428    -7.691
    13    N    0.491    -18.243    -9.735
    14    H    -0.439    -18.637    -9.730
    15    H    0.854    -17.956    -10.633
    16    N    2.497    -17.525    -8.859
    17    C    1.287    -18.062    -8.690
    18    N    0.790    -18.465    -7.478
    19    H    -0.159    -18.866    -7.464
    20    C    1.460    -18.376    -6.272
    21    O    0.919    -18.765    -5.240
    22    C    2.753    -17.806    -6.435
    23    N    3.740    -17.544    -5.488
    24    C    4.699    -17.027    -6.193
    25    H    5.463    -16.803    -5.588
    26    C    5.007    -14.883    -8.917
    27    H    4.312    -14.571    -8.270
    28    O    4.651    -14.699    -10.293
    29    H    4.177    -15.433    -10.691
    30    C    6.310    -14.142    -8.641
    31    H    6.267    -13.734    -7.729
    32    O    6.670    -13.372    -9.802
    33    P    6.152    -11.839    -9.935
    34    O    6.645    -11.246    -11.203
    35    O    6.568    -11.245    -8.635
    36    O    4.535    -11.940    -10.038
    37    C    3.871    -12.345    -11.247
    38    H    4.222    -13.238    -11.528
    39    H    3.913    -11.596    -11.908
    40    C    2.381    -12.573    -11.018
    41    H    1.928    -12.796    -11.881
    42    O    2.168    -13.654    -10.082
    43    C    0.806    -13.506    -9.630
    44    H    0.230    -13.994    -10.286
    45    N    0.717    -14.079    -8.272
    46    C    -0.002    -15.121    -6.477
    47    N    1.246    -14.598    -6.149
    48    C    1.611    -14.000    -7.242
    49    H    2.510    -13.586    -7.102
    50    N    -2.069    -16.221    -6.375
    51    C    -2.279    -15.857    -7.641
    52    H    -3.104    -16.088    -8.157
    53    N    -1.464    -15.148    -8.420
    54    C    -0.334    -14.811    -7.765
    55    C    -0.932    -15.869    -5.752
    56    N    -0.735    -16.242    -4.491
    57    H    -1.447    -16.785    -4.024
    58    H    0.122    -15.974    -4.029
    59    C    0.478    -12.014    -9.694
    60    H    0.449    -11.671    -8.755
    61    O    -0.726    -11.766    -10.427
    62    H    -1.392    -12.453    -10.356
    63    C    1.658    -11.383    -10.415
    64    H    2.249    -10.955    -9.732
    65    O    1.189    -10.533    -11.472
    66    P    0.570    -9.097    -11.081
    67    O    0.467    -8.275    -12.310
    68    O    1.332    -8.602    -9.911
    69    O    -0.919    -9.485    -10.603
    70    C    -1.890    -9.943    -11.552
    71    H    -1.520    -10.733    -12.041
    72    H    -2.209    -9.165    -12.093
    73    C    -3.153    -10.475    -10.883
    74    H    -3.852    -10.814    -11.513
    75    O    -2.796    -11.522    -9.977
    76    C    -3.920    -11.788    -9.105
    77    H    -4.457    -12.537    -9.493
    78    N    -3.386    -12.108    -7.764
    79    C    -4.113    -12.563    -6.689
    80    N    -7.142    -13.530    -5.296
    81    H    -7.570    -13.860    -4.443
    82    H    -7.755    -13.410    -6.090
    83    N    -5.444    -12.809    -6.676
    84    C    -5.863    -13.237    -5.486
    85    N    -5.042    -13.411    -4.402
    86    H    -5.473    -13.751    -3.531
    87    C    -3.682    -13.166    -4.387
    88    O    -3.039    -13.353    -3.358
    89    C    -3.218    -12.706    -5.651
    90    N    -1.936    -12.350    -6.061
    91    C    -2.105    -12.011    -7.302
    92    H    -1.224    -11.735    -7.687
    93    C    -4.728    -10.489    -9.209
    94    H    -4.923    -10.167    -8.283
    95    O    -5.914    -10.648    -9.996
    96    H    -6.328    -11.512    -9.935
    97    C    -3.763    -9.525    -9.874
    98    H    -3.056    -9.240    -9.226
    99    O    -4.400    -8.372    -10.428
    100    P    -4.353    -6.946    -9.673
    101    O    -5.037    -5.977    -10.551
    102    O    -2.980    -6.689    -9.194
    103    O    -5.252    -7.240    -8.379
    104    C    -6.634    -7.541    -8.570
    105    H    -6.713    -8.357    -9.142
    106    H    -7.110    -6.713    -8.866
    107    C    -7.343    -7.929    -7.278
    108    H    -8.327    -8.054    -7.401
    109    O    -6.775    -9.150    -6.787
    110    C    -7.050    -9.226    -5.373
    111    H    -7.765    -9.916    -5.258
    112    N    -5.806    -9.610    -4.672
    113    C    -4.582    -9.343    -5.215
    114    H    -4.342    -8.934    -6.095
    115    C    -3.453    -9.636    -4.546
    116    H    -2.482    -9.526    -4.758
    117    C    -5.924    -10.196    -3.421
    118    O    -7.033    -10.444    -2.956
    119    N    -4.787    -10.493    -2.735
    120    C    -3.582    -10.230    -3.256
    121    N    -2.491    -10.501    -2.550
    122    H    -2.593    -10.902    -1.629
    123    H    -1.573    -10.310    -2.926
    124    C    -7.600    -7.861    -4.942
    125    H    -7.153    -7.567    -4.098
    126    O    -9.025    -7.879    -4.802
    127    H    -9.388    -8.697    -4.454
    128    C    -7.095    -7.006    -6.094
    129    H    -6.110    -6.865    -5.992
    130    O    -7.554    -5.644    -6.163
    131    P    -6.920    -4.338    -5.443
    132    O    -7.621    -3.145    -5.937
    133    O    -5.452    -4.383    -5.474
    134    O    -7.319    -4.633    -3.933
    135    C    -8.714    -4.831    -3.704
    136    H    -9.032    -5.591    -4.270
    137    H    -9.186    -3.953    -3.790
    138    C    -8.995    -5.275    -2.281
    139    H    -9.975    -5.332    -2.091
    140    O    -8.382    -6.585    -2.026
    141    C    -8.273    -6.692    -0.590
    142    H    -9.002    -7.310    -0.294
    143    N    -6.936    -7.246    -0.287
    144    C    -5.261    -8.275    0.694
    145    N    -4.771    -7.816    -0.527
    146    C    -5.801    -7.222    -1.051
    147    H    -5.544    -6.852    -1.944
    148    N    -5.434    -9.279    2.802
    149    C    -6.708    -8.889    2.840
    150    H    -7.326    -9.074    3.604
    151    N    -7.367    -8.209    1.905
    152    C    -6.574    -7.933    0.851
    153    C    -4.671    -8.990    1.739
    154    N    -3.403    -9.390    1.720
    155    H    -3.040    -9.905    2.509
    156    H    -2.832    -9.170    0.917
    157    C    -8.534    -5.296    -0.007
    158    H    -7.822    -5.088    0.663
    159    O    -9.847    -5.189    0.555
    160    H    -10.177    -5.990    0.968
    161    C    -8.344    -4.403    -1.226
    162    H    -7.370    -4.314    -1.433
    163    O    -8.871    -3.070    -1.127
    164    P    -7.994    -1.790    -0.674
    165    O    -8.825    -0.581    -0.817
    166    O    -6.647    -1.833    -1.269
    167    O    -7.826    -2.155    0.870
    168    C    -9.033    -2.394    1.591
    169    H    -9.655    -2.928    1.017
    170    H    -9.366    -1.528    1.964
    171    C    -8.812    -3.266    2.813
    172    H    -9.665    -3.588    3.224
    173    O    -8.027    -4.387    2.439
    174    C    -7.456    -4.945    3.637
    175    H    -8.002    -5.744    3.889
    176    N    -6.054    -5.308    3.336
    177    C    -5.195    -5.993    4.166
    178    N    -4.550    -7.583    7.184
    179    H    -3.836    -8.075    7.702
    180    H    -5.440    -7.463    7.646
    181    N    -5.483    -6.450    5.407
    182    C    -4.444    -7.078    5.964
    183    N    -3.230    -7.239    5.350
    184    H    -2.497    -7.740    5.873
    185    C    -2.910    -6.783    4.084
    186    O    -1.792    -6.991    3.621
    187    C    -4.007    -6.111    3.478
    188    N    -4.105    -5.508    2.226
    189    C    -5.323    -5.059    2.209
    190    H    -5.489    -4.601    1.336
    191    C    -7.641    -3.857    4.705
    192    H    -6.764    -3.720    5.166
    193    O    -8.690    -4.185    5.622
    194    H    -8.792    -5.122    5.803
    195    C    -7.974    -2.614    3.894
    196    H    -7.145    -2.238    3.481
    197    O    -8.685    -1.611    4.638
    198    P    -7.950    -0.266    5.151
    199    O    -8.958    0.708    5.613
    200    O    -6.945    0.147    4.154
    201    O    -7.168    -0.817    6.436
    202    C    -7.908    -1.291    7.563
    203    H    -8.554    -1.991    7.258
    204    H    -8.270    -0.507    8.067
    205    C    -7.005    -2.006    8.557
    206    H    -7.498    -2.313    9.371
    207    O    -6.485    -3.134    7.882
    208    C    -5.222    -3.487    8.470
    209    H    -5.317    -4.384    8.901
    210    N    -4.201    -3.515    7.392
    211    C    -4.412    -2.845    6.216
    212    H    -5.213    -2.324    5.921
    213    C    -3.016    -4.195    7.621
    214    O    -2.795    -4.805    8.661
    215    N    -2.080    -4.142    6.607
    216    H    -1.191    -4.638    6.764
    217    C    -2.216    -3.489    5.400
    218    O    -1.311    -3.510    4.575
    219    C    -3.479    -2.810    5.238
    220    H    -3.497    -2.364    4.343
    221    C    -5.028    -2.428    9.560
    222    H    -4.054    -2.205    9.607
    223    O    -5.508    -2.918    10.818
    224    H    -5.412    -3.864    10.948
    225    C    -5.787    -1.222    9.030
    226    H    -5.329    -0.822    8.236
    227    O    -5.963    -0.076    9.902
    228    P    -5.216    1.379    9.826
    229    O    -5.807    2.367    10.735
    230    O    -5.024    1.785    8.439
    231    O    -3.778    1.068    10.432
    232    C    -3.649    0.707    11.807
    233    H    -4.271    -0.051    12.004
    234    H    -3.722    1.531    12.368
    235    C    -2.268    0.153    12.131
    236    H    -2.207    -0.123    13.090
    237    O    -2.101    -0.990    11.310
    238    C    -0.694    -1.252    11.152
    239    H    -0.477    -2.093    11.647
    240    N    -0.408    -1.416    9.703
    241    C    -1.277    -0.930    8.763
    242    H    -2.162    -0.483    8.892
    243    C    0.782    -2.019    9.326
    244    O    1.578    -2.472    10.143
    245    N    1.031    -2.085    7.971
    246    H    1.913    -2.527    7.676
    247    C    0.212    -1.615    6.966
    248    O    0.542    -1.724    5.790
    249    C    -1.011    -1.008    7.438
    250    H    -1.546    -0.699    6.652
    251    C    -0.019    -0.063    11.862
    252    H    0.763    0.221    11.307
    253    O    0.403    -0.455    13.170
    254    H    0.658    -1.377    13.254
    255    C    -1.071    1.040    11.838
    256    H    -1.167    1.424    10.919
    257    O    -0.865    2.249    12.621
    258    P    -0.319    3.734    12.193
    259    O    -0.346    4.689    13.305
    260    O    -0.902    4.179    10.938
    261    O    1.217    3.476    11.912
    262    C    2.057    3.030    12.980
    263    H    1.620    2.255    13.436
    264    H    2.318    3.817    13.539
    265    C    3.377    2.474    12.470
    266    H    3.935    2.071    13.195
    267    O    3.093    1.462    11.477
    268    C    4.249    1.232    10.652
    269    H    4.691    0.382    10.940
    270    N    3.798    1.167    9.242
    271    C    2.598    1.696    8.865
    272    H    1.893    2.152    9.409
    273    C    2.200    1.652    7.581
    274    H    1.380    1.972    7.106
    275    C    4.643    0.569    8.317
    276    O    5.724    0.102    8.674
    277    N    4.249    0.520    7.017
    278    C    3.074    1.037    6.636
    279    N    2.722    0.980    5.356
    280    H    3.351    0.546    4.696
    281    H    1.841    1.363    5.046
    282    C    5.144    2.417    11.039
    283    H    5.517    2.792    10.190
    284    O    6.174    2.021    11.951
    285    H    6.476    1.115    11.853
    286    C    4.227    3.450    11.677
    287    H    3.655    3.895    10.988
    288    O    4.946    4.430    12.445
    289    P    5.317    5.905    11.893
    290    O    6.091    6.631    12.914
    291    O    4.112    6.536    11.327
    292    O    6.304    5.598    10.669
    293    C    7.580    4.990    10.891
    294    H    7.459    4.178    11.461
    295    H    8.224    5.689    11.202
    296    C    8.184    4.462    9.598
    297    H    9.041    3.961    9.717
    298    O    7.243    3.620    8.944
    299    C    7.460    3.667    7.519
    300    H    7.768    2.762    7.226
    301    N    6.174    4.062    6.898
    302    C    5.191    4.643    7.646
    303    H    5.177    4.887    8.616
    304    C    4.014    4.982    7.093
    305    H    3.183    5.404    7.455
    306    C    5.995    3.808    5.543
    307    O    6.896    3.295    4.886
    308    N    4.803    4.150    4.975
    309    C    3.833    4.718    5.703
    310    N    2.679    5.035    5.125
    311    H    2.556    4.840    4.142
    312    H    1.936    5.464    5.658
    313    C    8.605    4.663    7.343
    314    H    8.456    5.204    6.515
    315    O    9.889    4.033    7.380
    316    H    9.928    3.168    6.966
    317    C    8.379    5.545    8.556
    318    H    7.526    6.058    8.456
    319    O    9.515    6.365    8.826
    320    P    9.522    7.895    8.342
    321    O    10.731    8.524    8.919
    322    O    8.179    8.477    8.571
    323    O    9.716    7.713    6.761
    324    C    10.924    7.127    6.278
    325    H    10.992    6.190    6.622
    326    H    11.684    7.750    6.462
    327    C    10.917    6.975    4.766
    328    H    11.773    6.623    4.387
    329    O    9.846    6.070    4.428
    330    C    9.376    6.405    3.107
    331    H    9.555    5.617    2.518
    332    N    7.918    6.683    3.202
    333    C    7.356    7.033    4.397
    334    H    7.776    7.137    5.298
    335    C    6.042    7.302    4.493
    336    H    5.451    7.568    5.254
    337    C    7.145    6.594    2.047
    338    O    7.664    6.288    0.975
    339    N    5.811    6.866    2.134
    340    C    5.257    7.211    3.305
    341    N    3.953    7.472    3.359
    342    H    3.406    7.404    2.513
    343    H    3.515    7.734    4.231
    344    C    10.251    7.581    2.649
    345    H    9.713    8.211    2.089
    346    O    11.403    7.109    1.940
    347    H    11.251    6.341    1.385
    348    C    10.518    8.227    4.004
    349    H    9.670    8.588    4.392
    350    O    11.346    9.401    4.127
    351    P    10.983    10.985    4.177
    352    O    12.190    11.789    4.407
    353    O    9.785    11.261    4.973
    354    O    10.518    11.161    2.674
    355    C    11.459    10.699    1.705
    356    H    11.712    9.756    1.921
    357    H    12.193    11.373    1.617
    358    C    10.837    10.624    0.325
    359    H    11.463    10.325    -0.395
    360    O    9.714    9.731    0.369
    361    C    8.795    10.114    -0.671
    362    H    8.826    9.397    -1.368
    363    N    7.450    10.217    -0.056
    364    C    7.318    10.408    1.287
    365    H    8.018    10.504    1.995
    366    C    6.105    10.496    1.857
    367    H    5.799    10.632    2.799
    368    C    6.334    10.106    -0.878
    369    O    6.468    9.943    -2.089
    370    N    5.099    10.194    -0.309
    371    C    4.964    10.381    1.010
    372    N    3.749    10.454    1.541
    373    H    2.946    10.366    0.935
    374    H    3.628    10.595    2.534
    375    C    9.342    11.415    -1.269
    376    H    8.587    12.050    -1.430
    377    O    10.062    11.173    -2.482
    378    H    9.715    10.461    -3.024
    379    C    10.185    11.930    -0.101
    380    H    9.589    12.252    0.635
    381    O    11.082    13.037    -0.290
    382    P    10.824    14.613    -0.037
    383    O    12.038    15.367    -0.395
    384    O    10.149    14.885    1.243
    385    O    9.703    14.798    -1.146
    386    C    10.061    14.242    -2.411
    387    H    10.406    13.314    -2.273
    388    H    10.645    14.891    -2.899
    389    C    8.858    14.066    -3.313
    390    H    9.083    13.647    -4.193
    391    O    7.855    13.306    -2.688
    392    C    6.619    13.636    -3.352
    393    H    6.448    12.895    -4.001
    394    N    5.578    13.723    -2.307
    395    C    5.912    13.922    -0.995
    396    H    6.813    14.024    -0.574
    397    C    4.261    13.598    -2.706
    398    O    3.939    13.419    -3.877
    399    N    3.316    13.692    -1.706
    400    H    2.328    13.607    -1.983
    401    C    3.564    13.890    -0.365
    402    O    2.636    13.949    0.438
    403    C    4.965    14.010    -0.034
    404    H    5.055    14.155    0.951
    405    C    6.819    14.940    -4.127
    406    H    6.121    15.602    -3.854
    407    O    6.826    14.741    -5.547
    408    H    6.227    14.061    -5.864
    409    C    8.168    15.383    -3.572
    410    H    8.019    15.849    -2.700
    411    O    8.972    16.151    -4.469
    412    P    9.226    17.712    -4.190
    413    O    10.092    18.175    -5.299
    414    O    9.595    17.947    -2.776
    415    O    7.704    18.183    -4.366
    416    C    7.075    17.836    -5.600
    417    H    7.199    16.857    -5.765
    418    H    7.377    18.473    -6.310
    419    C    5.567    18.027    -5.527
    420    H    5.136    17.954    -6.426
    421    O    4.997    17.061    -4.662
    422    C    3.819    17.623    -4.049
    423    H    3.036    17.106    -4.395
    424    N    3.975    17.516    -2.583
    425    C    2.959    17.479    -1.653
    426    N    -0.428    17.418    -0.886
    427    H    -1.083    17.387    -0.118
    428    H    -0.824    17.438    -1.815
    429    N    1.633    17.478    -1.919
    430    C    0.896    17.436    -0.806
    431    N    1.424    17.399    0.459
    432    H    0.763    17.370    1.248
    433    C    2.773    17.398    0.757
    434    O    3.139    17.364    1.925
    435    C    3.569    17.441    -0.419
    436    N    4.953    17.452    -0.560
    437    C    5.121    17.496    -1.844
    438    H    6.101    17.507    -2.044
    439    C    3.722    19.060    -4.543
    440    H    3.461    19.647    -3.777
    441    O    2.816    19.183    -5.649
    442    H    2.058    18.595    -5.619
    443    C    5.166    19.363    -4.932
    444    H    5.709    19.529    -4.108
    445    O    5.309    20.415    -5.893
    446    P    5.941    21.836    -5.479
    447    O    6.066    22.656    -6.700
    448    O    7.115    21.655    -4.598
    449    O    4.716    22.348    -4.578
    450    C    4.836    23.443    -3.678
    451    H    4.995    24.280    -4.202
    452    H    5.494    23.206    -2.963
    453    C    3.512    23.667    -2.951
    454    H    3.626    24.324    -2.206
    455    O    2.582    24.192    -3.894
    456    C    1.454    23.312    -4.036
    457    H    0.644    23.866    -3.843
    458    N    1.457    22.801    -5.427
    459    C    2.507    22.070    -5.906
    460    H    3.349    21.777    -5.453
    461    C    2.513    21.622    -7.175
    462    H    3.166    21.086    -7.710
    463    C    0.365    23.102    -6.229
    464    O    -0.572    23.755    -5.777
    465    N    0.363    22.650    -7.515
    466    C    1.389    21.935    -7.993
    467    N    1.359    21.515    -9.256
    468    H    0.559    21.746    -9.828
    469    H    2.122    20.974    -9.638
    470    C    1.569    22.210    -2.976
    471    H    1.573    21.334    -3.459
    472    O    0.525    22.284    -2.000
    473    H    -0.309    22.631    -2.324
    474    C    2.923    22.415    -2.310
    475    H    3.493    21.629    -2.548
    476    O    2.777    22.621    -0.895
    477    P    2.310    21.451    0.123
    478    O    2.782    21.808    1.479
    479    O    2.645    20.125    -0.434
    480    O    0.706    21.612    0.093
    481    C    0.109    22.855    0.501
    482    H    0.440    23.586    -0.095
    483    H    0.228    22.965    1.488
    484    C    -1.405    22.841    0.293
    485    H    -1.790    23.643    0.750
    486    O    -1.709    22.909    -1.097
    487    C    -2.627    21.874    -1.459
    488    H    -3.515    22.320    -1.566
    489    N    -2.164    21.272    -2.723
    490    C    -2.034    20.684    -4.831
    491    N    -0.831    20.297    -4.244
    492    C    -0.976    20.667    -3.010
    493    H    -0.152    20.423    -2.498
    494    N    -3.758    21.057    -6.369
    495    C    -4.465    21.610    -5.384
    496    H    -5.387    21.979    -5.499
    497    N    -4.090    21.767    -4.118
    498    C    -2.851    21.274    -3.912
    499    C    -2.528    20.579    -6.133
    500    N    -1.820    20.071    -7.137
    501    H    -2.224    20.055    -8.062
    502    H    -0.894    19.713    -6.951
    503    C    -2.709    20.879    -0.320
    504    H    -2.112    20.109    -0.543
    505    O    -4.060    20.478    -0.077
    506    H    -4.620    20.447    -0.856
    507    C    -2.130    21.626    0.879
    508    H    -1.459    21.023    1.310
    509    O    -3.196    22.205    1.637
    510    P    -4.202    21.226    2.437
    511    O    -4.698    21.987    3.610
    512    O    -3.462    19.944    2.598
    513    O    -5.448    21.005    1.424
    514    C    -6.810    21.072    1.897
    515    H    -6.986    21.990    2.253
    516    H    -6.984    20.294    2.500
    517    C    -7.835    20.907    0.773
    518    H    -8.762    20.780    1.125
    519    O    -7.802    22.089    -0.041
    520    C    -7.591    21.720    -1.410
    521    H    -8.493    21.648    -1.837
    522    N    -6.782    22.785    -2.080
    523    C    -5.939    23.585    -1.346
    524    H    -5.767    23.590    -0.361
    525    C    -6.887    22.941    -3.462
    526    O    -7.619    22.248    -4.159
    527    N    -6.104    23.927    -4.022
    528    H    -6.174    24.055    -5.042
    529    C    -5.234    24.762    -3.356
    530    O    -4.579    25.599    -3.971
    531    C    -5.180    24.542    -1.931
    532    H    -4.529    25.185    -1.527
    533    C    -6.939    20.330    -1.382
    534    H    -5.955    20.439    -1.245
    535    O    -7.229    19.584    -2.571
    536    H    -7.300    20.109    -3.372
    537    C    -7.553    19.708    -0.121
    538    H    -6.858    19.135    0.313
    539    O    -8.777    19.035    -0.447
    540    P    -8.819    17.438    -0.686
    541    O    -10.242    17.057    -0.839
    542    O    -7.983    16.773    0.338
    543    O    -8.082    17.282    -2.114
    544    C    -8.667    17.846    -3.299
    545    H    -8.698    18.841    -3.205
    546    H    -9.522    17.367    -3.500
    547    C    -7.796    17.606    -4.533
    548    H    -8.240    17.907    -5.377
    549    O    -6.524    18.285    -4.401
    550    C    -5.641    17.681    -5.349
    551    H    -5.658    18.267    -6.159
    552    N    -4.290    17.644    -4.763
    553    C    -2.110    17.555    -4.535
    554    N    -2.627    17.703    -3.249
    555    C    -3.910    17.750    -3.455
    556    H    -4.377    17.859    -2.577
    557    N    -0.652    17.307    -6.351
    558    C    -1.716    17.282    -7.152
    559    H    -1.665    17.184    -8.146
    560    N    -2.989    17.379    -6.792
    561    C    -3.114    17.516    -5.457
    562    C    -0.807    17.443    -5.026
    563    N    0.266    17.463    -4.248
    564    H    1.179    17.375    -4.671
    565    H    0.146    17.566    -3.250
    566    C    -6.210    16.303    -5.716
    567    H    -5.518    15.604    -5.533
    568    O    -6.638    16.258    -7.085
    569    H    -6.110    16.781    -7.692
    570    C    -7.349    16.160    -4.694
    571    H    -6.971    15.838    -3.826
    572    O    -8.401    15.267    -5.088
    573    P    -8.486    13.717    -4.642
    574    O    -9.669    13.151    -5.323
    575    O    -8.345    13.571    -3.181
    576    O    -7.134    13.151    -5.297
    577    C    -6.960    13.388    -6.695
    578    H    -7.124    14.356    -6.884
    579    H    -7.492    12.714    -7.208
    580    C    -5.528    13.161    -7.170
    581    H    -5.452    13.225    -8.165
    582    O    -4.634    14.132    -6.564
    583    C    -3.326    13.526    -6.458
    584    H    -2.737    14.027    -7.092
    585    N    -2.872    13.667    -5.061
    586    C    -1.623    13.808    -3.261
    587    N    -2.943    13.916    -2.829
    588    C    -3.620    13.823    -3.930
    589    H    -4.595    13.887    -3.719
    590    N    0.717    13.693    -3.311
    591    C    0.641    13.550    -4.636
    592    H    1.437    13.446    -5.233
    593    N    -0.462    13.521    -5.377
    594    C    -1.569    13.656    -4.616
    595    C    -0.403    13.829    -2.582
    596    N    -0.312    13.992    -1.265
    597    H    0.602    14.011    -0.836
    598    H    -1.159    14.093    -0.724
    599    C    -3.428    12.063    -6.920
    600    H    -2.925    11.470    -6.291
    601    O    -2.991    11.895    -8.272
    602    H    -2.245    12.443    -8.528
    603    C    -4.926    11.844    -6.719
    604    H    -5.099    11.725    -5.741
    605    O    -5.481    10.715    -7.410
    606    P    -5.511    9.204    -6.840
    607    O    -6.245    8.398    -7.838
    608    O    -5.894    9.161    -5.414
    609    O    -3.937    8.931    -6.896
    610    C    -3.293    9.350    -8.100
    611    H    -3.535    10.302    -8.284
    612    H    -3.470    8.674    -8.816
    613    C    -1.782    9.363    -7.953
    614    H    -1.310    9.577    -8.808
    615    O    -1.354    10.284    -6.940
    616    C    -0.063    9.834    -6.477