!*** FMO 5.2 (Gamess) INPUT generated by Facio 21.1.1.32 ***
 $CONTRL RUNTYP=OPTFMO NPRINT=-5 ISPHER=-1 MAXIT=50 $END
 $SYSTEM MWORDS=29 $END
 $GDDI NGROUP=1 $END
 $INTGRL NINTIC=-9000000 $END
 $SCF DIRSCF=.FALSE. NPUNCH=0 $END
!*** NumCPU : 2  MemPerNode : 512MB
 $FMOPRP
    NAODIR=210
    NGRFMO(1)=1, 1, 0, 0, 0,   0, 0, 0, 0, 0
    NPRINT=9
 $END
 $FMO
      SCFTYP(1)=RHF
      MODGRD=10
      MODMUL=0
      MAXCAO=5
      MAXBND=34
      NLAYER=1
      NFRAG=32
      ICHARG(1)=-1, -1, -1, -1, -1, -1, -1, -1, -1, -1, 
-1, -1, -1, -1, -1, -1, -1, -1, -1, -1, 
-1, -1, -1, -1, -1, -1, -1, -1, -1, -1, 
-1, 0
      FRGNAM(1)=Frag1, Frag2, Frag3, Frag4, Frag5, Frag6, Frag7, Frag8, Frag9, Frag10, Frag11, Frag12, Frag13, Frag14, Frag15, Frag16, Frag17, Frag18, Frag19, Frag20, Frag21, Frag22, Frag23, Frag24, Frag25, Frag26, Frag27, Frag28, Frag29, Frag30, Frag31, Frag32
      indat(1)=0
               1   -36   0
               37   -69   0
               70   -103   0
               104   -134   0
               135   -167   0
               168   -201   0
               202   -231   0
               232   -261   0
               262   -292   0
               293   -323   0
               324   -354   0
               355   -385   0
               386   -415   0
               416   -449   0
               450   -480   0
               481   -513   0
               514   -543   0
               544   -576   0
               577   -609   0
               610   -643   0
               644   -677   0
               678   -710   0
               711   -740   0
               741   -774   0
               775   -807   0
               808   -840   0
               841   -871   0
               872   -902   0
               903   -936   0
               937   -966   0
               967   -996   0
               997   -1024   0
 $END

 $FMOBND
   -37   36       3-21G    MINI
   -70   69       3-21G    MINI
   -104   103       3-21G    MINI
   -135   134       3-21G    MINI
   -168   167       3-21G    MINI
   -202   201       3-21G    MINI
   -232   231       3-21G    MINI
   -262   261       3-21G    MINI
   -293   292       3-21G    MINI
   -324   323       3-21G    MINI
   -355   354       3-21G    MINI
   -386   385       3-21G    MINI
   -416   415       3-21G    MINI
   -450   449       3-21G    MINI
   -481   480       3-21G    MINI
   -514   513       3-21G    MINI
   -544   543       3-21G    MINI
   -577   576       3-21G    MINI
   -610   609       3-21G    MINI
   -644   643       3-21G    MINI
   -678   677       3-21G    MINI
   -711   710       3-21G    MINI
   -741   740       3-21G    MINI
   -775   774       3-21G    MINI
   -808   807       3-21G    MINI
   -841   840       3-21G    MINI
   -872   871       3-21G    MINI
   -903   902       3-21G    MINI
   -937   936       3-21G    MINI
   -967   966       3-21G    MINI
   -997   996       3-21G    MINI
 $END
 $FMOHYB
 3-21G        9   5
   1 0  -0.070459   0.164841   0.000000   0.000000   0.502116
         0.466939   0.000000   0.000000   0.418036
   0 1  -0.070465   0.164857   0.473392   0.000000  -0.167359
         0.466967   0.394111   0.000000  -0.139327
   0 1  -0.070465   0.164857  -0.236695  -0.409969  -0.167359
         0.466967  -0.197055  -0.341311  -0.139327
   0 1  -0.070465   0.164857  -0.236695   0.409969  -0.167359
         0.466967  -0.197055   0.341311  -0.139327
   0 1   1.006716   0.074826   0.000000   0.000000   0.000000
        -0.143830   0.000000   0.000000  -0.000003
 MINI         5   5
   1 0  -0.104883   0.308874   0.000000   0.000000   0.521806
   0 1  -0.104883   0.308874   0.491961   0.000000  -0.173934
   0 1  -0.104883   0.308876  -0.245980  -0.426050  -0.173933
   0 1  -0.104883   0.308876  -0.245980   0.426050  -0.173933
   0 1   0.988209   0.063992   0.000000   0.000000   0.000000
 $END

 $DATA
 FMO calculation : XXNAMEXX
 C1 
 C.1-1    6
      N21 3
   
 O.1-1    8
      N21 3
   
 N.1-1    7
      N21 3
   
 H.1-1    1
      N21 3
   
 P.1-1   15
      N21 3
   
 $END
 $FMOXYZ
    1    H    0.473    -31.206    -0.619
    2    O    0.149    -30.688    -1.411
    3    C    0.501    -31.393    -2.605
    4    H    0.006    -32.262    -2.628
    5    H    1.497    -31.419    -2.686
    6    C    0.034    -30.653    -3.847
    7    H    0.397    -31.265    -4.550
    8    O    -1.376    -30.650    -3.924
    9    C    -1.729    -29.633    -4.871
    10    H    -1.884    -30.090    -5.747
    11    N    -3.002    -29.024    -4.401
    12    C    -3.908    -28.324    -5.169
    13    N    -4.929    -27.112    -8.260
    14    H    -5.651    -26.577    -8.721
    15    H    -4.189    -27.469    -8.847
    16    N    -3.826    -28.119    -6.505
    17    C    -4.848    -27.396    -6.967
    18    N    -5.863    -26.915    -6.181
    19    H    -6.602    -26.367    -6.644
    20    C    -5.974    -27.107    -4.817
    21    O    -6.926    -26.628    -4.206
    22    C    -4.890    -27.878    -4.309
    23    N    -4.623    -28.295    -3.008
    24    C    -3.514    -28.960    -3.133
    25    H    -3.241    -29.310    -2.237
    26    C    -0.497    -28.714    -4.995
    27    H    -0.767    -27.841    -4.589
    28    O    -0.059    -28.653    -6.353
    29    H    -0.753    -28.758    -7.008
    30    C    0.647    -29.308    -4.181
    31    H    0.772    -28.788    -3.336
    32    O    1.835    -29.562    -4.954
    33    P    2.918    -28.373    -5.210
    34    O    3.869    -28.991    -6.140
    35    O    3.530    -27.860    -3.951
    36    O    2.226    -27.170    -6.052
    37    C    1.970    -27.230    -7.464
    38    H    1.490    -28.082    -7.672
    39    H    2.818    -27.037    -7.957
    40    C    1.011    -26.117    -7.851
    41    H    0.874    -26.226    -8.835
    42    O    -0.260    -26.249    -7.182
    43    C    -0.886    -24.962    -7.307
    44    H    -1.409    -24.976    -8.159
    45    N    -1.775    -24.805    -6.136
    46    C    -3.466    -24.269    -4.838
    47    N    -2.518    -24.866    -4.011
    48    C    -1.555    -25.156    -4.833
    49    H    -0.815    -25.597    -4.325
    50    N    -5.403    -23.213    -5.630
    51    C    -4.866    -23.231    -6.850
    52    H    -5.318    -22.864    -7.663
    53    N    -3.678    -23.721    -7.198
    54    C    -3.026    -24.228    -6.131
    55    C    -4.729    -23.727    -4.588
    56    N    -5.279    -23.704    -3.377
    57    H    -6.197    -23.299    -3.264
    58    H    -4.766    -24.092    -2.599
    59    C    0.246    -23.933    -7.432
    60    H    0.306    -23.466    -6.550
    61    O    0.031    -23.061    -8.543
    62    H    -0.890    -22.891    -8.752
    63    C    1.537    -24.712    -7.671
    64    H    2.097    -24.678    -6.844
    65    O    2.174    -24.421    -8.923
    66    P    2.920    -23.011    -9.090
    67    O    3.554    -23.031    -10.420
    68    O    3.785    -22.705    -7.917
    69    O    1.709    -21.946    -9.199
    70    C    0.863    -21.838    -10.358
    71    H    0.459    -22.732    -10.550
    72    H    1.371    -21.386    -11.091
    73    C    -0.328    -20.924    -10.093
    74    H    -0.938    -20.788    -10.874
    75    O    -1.069    -21.506    -9.020
    76    C    -2.013    -20.530    -8.524
    77    H    -2.902    -20.689    -8.953
    78    N    -2.090    -20.650    -7.051
    79    C    -2.977    -19.995    -6.227
    80    N    -5.645    -17.812    -5.805
    81    H    -6.235    -17.383    -5.107
    82    H    -5.836    -17.570    -6.767
    83    N    -3.954    -19.144    -6.624
    84    C    -4.647    -18.658    -5.595
    85    N    -4.405    -18.985    -4.286
    86    H    -5.008    -18.555    -3.571
    87    C    -3.416    -19.846    -3.851
    88    O    -3.283    -20.066    -2.650
    89    C    -2.664    -20.372    -4.939
    90    N    -1.593    -21.263    -4.941
    91    C    -1.309    -21.381    -6.202
    92    H    -0.540    -22.012    -6.305
    93    C    -1.420    -19.225    -9.072
    94    H    -1.399    -18.562    -8.324
    95    O    -2.182    -18.729    -10.181
    96    H    -3.121    -18.928    -10.149
    97    C    0.010    -19.586    -9.456
    98    H    0.574    -19.744    -8.646
    99    O    0.637    -18.667    -10.375
    100    P    1.493    -17.322    -10.052
    101    O    1.755    -16.633    -11.340
    102    O    2.627    -17.713    -9.182
    103    O    0.495    -16.427    -9.161
    104    C    -0.691    -15.885    -9.739
    105    H    -1.311    -16.634    -9.973
    106    H    -0.437    -15.244    -10.463
    107    C    -1.480    -15.042    -8.754
    108    H    -2.247    -14.695    -9.294
    109    O    -1.960    -16.045    -7.856
    110    C    -2.387    -15.386    -6.661
    111    H    -3.380    -15.482    -6.599
    112    N    -1.846    -16.064    -5.452
    113    C    -0.682    -16.777    -5.512
    114    H    -0.137    -17.034    -6.310
    115    C    -0.088    -17.255    -4.404
    116    H    0.750    -17.778    -4.248
    117    C    -2.465    -15.850    -4.223
    118    O    -3.528    -15.236    -4.159
    119    N    -1.873    -16.327    -3.092
    120    C    -0.721    -17.008    -3.151
    121    N    -0.146    -17.434    -2.032
    122    H    -0.592    -17.235    -1.148
    123    H    0.723    -17.949    -2.062
    124    C    -2.039    -13.902    -6.891
    125    H    -1.659    -13.570    -6.027
    126    O    -3.234    -13.216    -7.270
    127    H    -4.045    -13.590    -6.918
    128    C    -0.955    -13.819    -7.979
    129    H    -0.046    -14.028    -7.619
    130    O    -0.796    -12.584    -8.755
    131    P    -0.241    -11.089    -8.367
    132    O    -0.543    -10.259    -9.545
    133    O    1.181    -11.047    -7.943
    134    O    -1.121    -10.439    -7.186
    135    C    -2.486    -10.118    -7.434
    136    H    -2.958    -10.935    -7.765
    137    H    -2.529    -9.292    -7.996
    138    C    -3.151    -9.760    -6.120
    139    H    -4.112    -9.651    -6.373
    140    O    -3.018    -10.926    -5.235
    141    C    -3.320    -10.445    -3.917
    142    H    -4.210    -10.822    -3.661
    143    N    -2.307    -10.979    -2.972
    144    C    -1.245    -11.614    -1.145
    145    N    -0.343    -11.778    -2.194
    146    C    -1.026    -11.391    -3.229
    147    H    -0.455    -11.474    -4.046
    148    N    -2.218    -11.578    0.985
    149    C    -3.332    -11.110    0.423
    150    H    -4.164    -10.891    0.932
    151    N    -3.535    -10.857    -0.869
    152    C    -2.439    -11.133    -1.605
    153    C    -1.144    -11.846    0.231
    154    N    -0.042    -12.314    0.811
    155    H    -0.038    -12.458    1.811
    156    H    0.765    -12.515    0.238
    157    C    -3.442    -8.914    -4.048
    158    H    -2.923    -8.531    -3.283
    159    O    -4.820    -8.538    -4.027
    160    H    -5.393    -9.127    -3.531
    161    C    -2.786    -8.479    -5.363
    162    H    -1.791    -8.422    -5.280
    163    O    -3.322    -7.267    -5.962
    164    P    -2.970    -5.723    -5.554
    165    O    -3.817    -4.879    -6.413
    166    O    -1.521    -5.401    -5.536
    167    O    -3.553    -5.492    -4.075
    168    C    -4.954    -5.579    -3.838
    169    H    -5.336    -6.308    -4.406
    170    H    -5.355    -4.666    -3.915
    171    C    -5.175    -6.011    -2.402
    172    H    -6.110    -6.364    -2.370
    173    O    -4.277    -7.051    -2.054
    174    C    -4.254    -7.135    -0.623
    175    H    -4.816    -7.918    -0.357
    176    N    -2.839    -7.308    -0.233
    177    C    -2.373    -7.570    1.035
    178    N    -2.974    -8.132    4.408
    179    H    -2.519    -8.323    5.289
    180    H    -3.981    -8.058    4.428
    181    N    -3.132    -7.718    2.146
    182    C    -2.392    -7.967    3.228
    183    N    -1.025    -8.060    3.215
    184    H    -0.554    -8.253    4.111
    185    C    -0.227    -7.915    2.094
    186    O    0.992    -8.030    2.189
    187    C    -1.002    -7.648    0.932
    188    N    -0.597    -7.436    -0.384
    189    C    -1.718    -7.243    -1.010
    190    H    -1.526    -7.078    -1.978
    191    C    -4.936    -5.843    -0.141
    192    H    -4.304    -5.416    0.506
    193    O    -6.243    -6.114    0.372
    194    H    -6.347    -6.977    0.780
    195    C    -5.105    -4.929    -1.345
    196    H    -4.281    -4.382    -1.493
    197    O    -6.383    -4.280    -1.304
    198    P    -6.468    -2.797    -0.683
    199    O    -7.831    -2.313    -0.957
    200    O    -5.325    -1.945    -1.117
    201    O    -6.394    -3.015    0.917
    202    C    -7.483    -3.526    1.706
    203    H    -7.795    -4.390    1.310
    204    H    -8.158    -2.800    1.838
    205    C    -7.040    -3.895    3.121
    206    H    -7.781    -4.287    3.666
    207    O    -5.983    -4.819    3.054
    208    C    -5.132    -4.662    4.205
    209    H    -5.223    -5.488    4.761
    210    N    -3.757    -4.440    3.702
    211    C    -3.542    -4.017    2.418
    212    H    -4.202    -3.818    1.693
    213    C    -2.708    -4.665    4.573
    214    O    -2.877    -5.041    5.727
    215    N    -1.446    -4.436    4.066
    216    H    -0.650    -4.596    4.700
    217    C    -1.141    -4.013    2.790
    218    O    0.025    -3.841    2.454
    219    C    -2.293    -3.802    1.947
    220    H    -1.985    -3.497    1.046
    221    C    -5.716    -3.480    4.972
    222    H    -4.963    -2.913    5.305
    223    O    -6.636    -3.889    5.988
    224    H    -6.414    -4.712    6.428
    225    C    -6.465    -2.721    3.894
    226    H    -5.818    -2.231    3.309
    227    O    -7.518    -1.928    4.441
    228    P    -7.329    -0.336    4.361
    229    O    -8.610    0.306    4.720
    230    O    -6.679    -0.010    3.070
    231    O    -6.286    -0.102    5.566
    232    C    -6.691    -0.437    6.898
    233    H    -6.998    -1.389    6.915
    234    H    -7.320    0.264    7.233
    235    C    -5.531    -0.399    7.879
    236    H    -5.807    -0.580    8.823
    237    O    -4.628    -1.399    7.466
    238    C    -3.305    -1.065    7.932
    239    H    -3.063    -1.708    8.659
    240    N    -2.369    -1.193    6.787
    241    C    -2.836    -1.175    5.500
    242    H    -3.778    -1.123    5.168
    243    C    -1.013    -1.283    7.052
    244    O    -0.564    -1.312    8.193
    245    N    -0.181    -1.337    5.954
    246    H    0.831    -1.400    6.135
    247    C    -0.569    -1.315    4.631
    248    O    0.267    -1.362    3.734
    249    C    -1.998    -1.230    4.440
    250    H    -2.196    -1.222    3.460
    251    C    -3.463    0.338    8.538
    252    H    -2.679    0.888    8.250
    253    O    -3.571    0.256    9.960
    254    H    -3.076    -0.461    10.363
    255    C    -4.726    0.889    7.878
    256    H    -4.542    1.157    6.932
    257    O    -5.382    1.942    8.620
    258    P    -5.270    3.512    8.222
    259    O    -6.127    4.294    9.139
    260    O    -5.451    3.679    6.759
    261    O    -3.751    3.871    8.602
    262    C    -3.301    3.832    9.963
    263    H    -3.485    2.925    10.341
    264    H    -3.667    4.625    10.450
    265    C    -1.789    3.987    10.059
    266    H    -1.522    3.856    11.014
    267    O    -1.297    2.875    9.276
    268    C    0.077    3.075    8.922
    269    H    0.656    2.476    9.475
    270    N    0.279    2.759    7.485
    271    C    -0.777    2.727    6.620
    272    H    -1.754    2.851    6.794
    273    C    -0.591    2.501    5.308
    274    H    -1.215    2.441    4.529
    275    C    1.578    2.553    7.030
    276    O    2.526    2.586    7.814
    277    N    1.775    2.324    5.704
    278    C    0.744    2.294    4.850
    279    N    0.969    2.075    3.559
    280    H    1.919    1.935    3.246
    281    H    0.204    2.049    2.900
    282    C    0.273    4.527    9.385
    283    H    0.776    4.963    8.639
    284    O    0.934    4.556    10.652
    285    H    1.501    3.802    10.831
    286    C    -1.060    5.242    9.569
    287    H    -1.456    5.529    8.697
    288    O    -0.844    6.303    10.535
    289    P    -0.392    7.824    10.127
    290    O    -0.180    8.502    11.415
    291    O    -1.362    8.475    9.201
    292    O    1.057    7.733    9.395
    293    C    2.360    7.794    10.023
    294    H    2.446    7.036    10.670
    295    H    2.514    8.721    10.365
    296    C    3.489    7.565    9.010
    297    H    4.269    7.307    9.580
    298    O    3.054    6.422    8.272
    299    C    3.623    6.436    6.956
    300    H    4.182    5.614    6.848
    301    N    2.522    6.425    5.958
    302    C    1.246    6.731    6.332
    303    H    0.880    6.970    7.231
    304    C    0.246    6.743    5.435
    305    H    -0.733    6.935    5.503
    306    C    2.828    6.118    4.634
    307    O    3.983    5.854    4.308
    308    N    1.818    6.128    3.717
    309    C    0.564    6.427    4.081
    310    N    -0.404    6.424    3.170
    311    H    -0.174    6.195    2.214
    312    H    -1.355    6.647    3.427
    313    C    4.541    7.666    6.976
    314    H    4.453    8.094    6.076
    315    O    5.850    7.330    7.436
    316    H    6.145    6.445    7.208
    317    C    4.022    8.626    8.033
    318    H    3.253    9.161    7.682
    319    O    5.213    9.316    8.513
    320    P    6.026    10.474    7.671
    321    O    7.163    10.759    8.571
    322    O    5.112    11.620    7.423
    323    O    6.558    9.897    6.234
    324    C    7.933    9.577    5.956
    325    H    8.188    8.760    6.474
    326    H    8.489    10.400    6.074
    327    C    8.131    9.184    4.492
    328    H    9.020    8.729    4.439
    329    O    7.114    8.279    4.033
    330    C    6.860    8.500    2.632
    331    H    7.074    7.644    2.161
    332    N    5.441    8.904    2.503
    333    C    4.764    9.402    3.578
    334    H    5.074    9.581    4.512
    335    C    3.468    9.739    3.475
    336    H    2.803    10.109    4.124
    337    C    4.823    8.736    1.270
    338    O    5.455    8.298    0.311
    339    N    3.509    9.076    1.157
    340    C    2.834    9.563    2.209
    341    N    1.551    9.889    2.068
    342    H    1.111    9.762    1.168
    343    H    1.024    10.257    2.847
    344    C    7.839    9.579    2.173
    345    H    7.368    10.202    1.548
    346    O    9.066    9.037    1.671
    347    H    8.975    8.220    1.175
    348    C    8.123    10.306    3.474
    349    H    7.356    10.918    3.670
    350    O    9.520    10.535    3.323
    351    P    10.055    11.341    2.018
    352    O    11.547    11.330    1.952
    353    O    9.344    12.573    2.378
    354    O    9.309    11.074    0.590
    355    C    9.968    10.536    -0.569
    356    H    10.141    9.562    -0.422
    357    H    10.745    11.120    -0.802
    358    C    9.135    10.545    -1.857
    359    H    9.531    9.990    -2.588
    360    O    7.786    10.117    -1.625
    361    C    6.895    10.792    -2.535
    362    H    6.576    10.101    -3.184
    363    N    5.824    11.386    -1.709
    364    C    6.020    11.608    -0.379
    365    H    6.831    11.466    0.189
    366    C    5.031    12.095    0.386
    367    H    4.965    12.323    1.357
    368    C    4.608    11.660    -2.320
    369    O    4.460    11.463    -3.524
    370    N    3.600    12.154    -1.550
    371    C    3.781    12.372    -0.241
    372    N    2.778    12.846    0.487
    373    H    1.894    13.034    0.036
    374    H    2.894    13.017    1.476
    375    C    7.711    11.837    -3.285
    376    H    7.217    12.706    -3.290
    377    O    8.114    11.416    -4.592
    378    H    7.469    10.883    -5.063
    379    C    8.915    11.958    -2.367
    380    H    8.659    12.545    -1.599
    381    O    9.994    12.383    -3.181
    382    P    10.275    13.947    -3.180
    383    O    11.457    14.182    -4.048
    384    O    10.230    14.363    -1.755
    385    O    8.930    14.478    -3.891
    386    C    8.621    14.185    -5.263
    387    H    8.542    13.194    -5.375
    388    H    9.264    14.673    -5.853
    389    C    7.257    14.707    -5.709
    390    H    7.002    14.458    -6.643
    391    O    6.252    14.264    -4.826
    392    C    5.141    15.177    -4.946
    393    H    4.470    14.726    -5.535
    394    N    4.607    15.416    -3.586
    395    C    5.372    15.177    -2.477
    396    H    6.309    14.833    -2.412
    397    C    3.314    15.893    -3.479
    398    O    2.608    16.114    -4.458
    399    N    2.855    16.115    -2.197
    400    H    1.895    16.476    -2.097
    401    C    3.557    15.901    -1.030
    402    O    3.038    16.128    0.060
    403    C    4.898    15.402    -1.232
    404    H    5.337    15.278    -0.342
    405    C    5.645    16.442    -5.643
    406    H    5.405    17.246    -5.099
    407    O    5.130    16.573    -6.978
    408    H    4.232    16.255    -7.099
    409    C    7.152    16.211    -5.550
    410    H    7.460    16.464    -4.633
    411    O    7.938    16.909    -6.529
    412    P    8.819    18.221    -6.203
    413    O    9.369    18.757    -7.480
    414    O    9.687    17.802    -5.080
    415    O    7.682    19.191    -5.610
    416    C    6.618    19.608    -6.469
    417    H    6.189    18.800    -6.872
    418    H    6.958    20.316    -7.088
    419    C    5.499    20.288    -5.684
    420    H    4.803    20.700    -6.272
    421    O    4.879    19.341    -4.829
    422    C    4.362    20.024    -3.664
    423    H    3.365    19.954    -3.703
    424    N    4.929    19.384    -2.458
    425    C    4.383    19.391    -1.192
    426    N    1.812    20.255    0.978
    427    H    1.512    20.197    1.941
    428    H    1.185    20.720    0.338
    429    N    3.199    19.939    -0.838
    430    C    2.941    19.785    0.464
    431    N    3.781    19.145    1.338
    432    H    3.484    19.084    2.322
    433    C    4.995    18.576    1.001
    434    O    5.670    18.028    1.863
    435    C    5.280    18.732    -0.381
    436    N    6.382    18.309    -1.118
    437    C    6.112    18.720    -2.317
    438    H    6.859    18.456    -2.927
    439    C    4.762    21.485    -3.811
    440    H    5.043    21.847    -2.922
    441    O    3.707    22.276    -4.381
    442    H    2.820    22.018    -4.119
    443    C    5.994    21.341    -4.701
    444    H    6.749    20.959    -4.168
    445    O    6.427    22.570    -5.304
    446    P    7.694    23.409    -4.769
    447    O    7.858    24.603    -5.633
    448    O    8.775    22.405    -4.644
    449    O    7.197    23.814    -3.293
    450    C    8.142    24.294    -2.345
    451    H    8.522    25.159    -2.673
    452    H    8.780    23.557    -2.119
    453    C    7.456    24.640    -1.027
    454    H    8.132    24.812    -0.310
    455    O    6.676    25.817    -1.221
    456    C    5.279    25.541    -1.016
    457    H    4.965    26.197    -0.330
    458    N    4.593    25.720    -2.317
    459    C    4.927    24.958    -3.401
    460    H    5.601    24.225    -3.492
    461    C    4.314    25.138    -4.585
    462    H    4.407    24.699    -5.479
    463    C    3.612    26.699    -2.401
    464    O    3.323    27.369    -1.413
    465    N    2.987    26.887    -3.598
    466    C    3.309    26.146    -4.665
    467    N    2.683    26.359    -5.820
    468    H    1.976    27.078    -5.866
    469    H    2.910    25.812    -6.638
    470    C    5.147    24.124    -0.449
    471    H    4.559    23.608    -1.071
    472    O    4.646    24.116    0.891
    473    H    4.045    24.834    1.103
    474    C    6.551    23.536    -0.492
    475    H    6.534    22.782    -1.149
    476    O    6.979    23.170    0.829
    477    P    6.340    21.899    1.600
    478    O    7.316    21.441    2.616
    479    O    5.832    20.951    0.585
    480    O    5.069    22.545    2.366
    481    C    5.257    23.572    3.358
    482    H    5.676    24.370    2.925
    483    H    5.715    23.176    4.154
    484    C    3.928    24.099    3.912
    485    H    4.102    24.679    4.708
    486    O    3.287    24.876    2.902
    487    C    1.937    24.446    2.723
    488    H    1.367    25.130    3.179
    489    N    1.652    24.389    1.276
    490    C    0.836    24.827    -0.712
    491    N    1.841    23.882    -0.904
    492    C    2.273    23.667    0.300
    493    H    3.005    22.986    0.267
    494    N    -0.905    26.351    -1.071
    495    C    -0.932    26.569    0.244
    496    H    -1.564    27.202    0.691
    497    N    -0.156    26.009    1.167
    498    C    0.713    25.138    0.611
    499    C    -0.027    25.483    -1.594
    500    N    0.017    25.311    -2.912
    501    H    -0.615    25.840    -3.496
    502    H    0.681    24.655    -3.298
    503    C    1.760    23.113    3.420
    504    H    1.842    22.395    2.729
    505    O    0.524    23.061    4.135
    506    H    -0.195    23.558    3.738
    507    C    2.942    23.017    4.378
    508    H    3.360    22.118    4.249
    509    O    2.509    23.339    5.706
    510    P    1.488    22.376    6.510
    511    O    1.762    22.534    7.956
    512    O    1.537    21.027    5.899
    513    O    0.036    23.017    6.213
    514    C    -0.908    23.261    7.271
    515    H    -0.498    23.885    7.936
    516    H    -1.257    22.385    7.604
    517    C    -2.148    24.001    6.765
    518    H    -2.859    24.004    7.469
    519    O    -1.792    25.357    6.455
    520    C    -2.181    25.660    5.110
    521    H    -3.084    26.087    5.155
    522    N    -1.182    26.603    4.519
    523    C    0.110    26.628    4.986
    524    H    0.531    26.094    5.719
    525    C    -1.580    27.439    3.476
    526    O    -2.718    27.446    3.021
    527    N    -0.609    28.271    2.963
    528    H    -0.889    28.897    2.195
    529    C    0.704    28.352    3.374
    530    O    1.481    29.129    2.827
    531    C    1.040    27.457    4.454
    532    H    2.004    27.578    4.689
    533    C    -2.301    24.311    4.385
    534    H    -1.392    24.017    4.090
    535    O    -3.244    24.376    3.306
    536    H    -3.264    25.212    2.835
    537    C    -2.779    23.395    5.518
    538    H    -2.392    22.486    5.366
    539    O    -4.208    23.477    5.599
    540    P    -5.117    22.318    4.942
    541    O    -6.517    22.545    5.369
    542    O    -4.467    21.013    5.204
    543    O    -5.007    22.632    3.359
    544    C    -5.604    23.804    2.772
    545    H    -5.138    24.617    3.122
    546    H    -6.597    23.751    2.877
    547    C    -5.385    23.863    1.259
    548    H    -5.875    24.629    0.843
    549    O    -3.973    23.991    0.964
    550    C    -3.809    23.625    -0.408
    551    H    -3.797    24.479    -0.928
    552    N    -2.527    22.912    -0.554
    553    C    -0.695    22.053    -1.402
    554    N    -0.658    21.772    -0.037
    555    C    -1.760    22.305    0.400
    556    H    -1.825    22.156    1.387
    557    N    -0.163    22.188    -3.680
    558    C    -1.301    22.855    -3.865
    559    H    -1.610    23.197    -4.752
    560    N    -2.198    23.176    -2.942
    561    C    -1.828    22.742    -1.722
    562    C    0.180    21.766    -2.453
    563    N    1.316    21.103    -2.292
    564    H    1.900    20.929    -3.098
    565    H    1.572    20.787    -1.367
    566    C    -5.038    22.806    -0.822
    567    H    -4.729    21.923    -1.177
    568    O    -5.834    23.507    -1.789
    569    H    -5.338    24.059    -2.398
    570    C    -5.756    22.583    0.518
    571    H    -5.344    21.803    0.989
    572    O    -7.171    22.409    0.325
    573    P    -7.864    20.948    0.297
    574    O    -9.319    21.117    0.056
    575    O    -7.385    20.223    1.494
    576    O    -7.201    20.254    -1.001
    577    C    -7.477    20.744    -2.318
    578    H    -7.217    21.708    -2.368
    579    H    -8.414    20.498    -2.567
    580    C    -6.612    20.064    -3.379
    581    H    -6.895    20.351    -4.294
    582    O    -5.260    20.536    -3.132
    583    C    -4.335    19.550    -3.643
    584    H    -3.823    19.989    -4.382
    585    N    -3.385    19.144    -2.582
    586    C    -1.664    18.292    -1.496
    587    N    -2.575    18.701    -0.525
    588    C    -3.550    19.186    -1.227
    589    H    -4.266    19.511    -0.609
    590    N    0.228    17.412    -2.563
    591    C    -0.342    17.718    -3.731
    592    H    0.078    17.538    -4.620
    593    N    -1.526    18.295    -3.920
    594    C    -2.144    18.558    -2.748
    595    C    -0.406    17.687    -1.412
    596    N    0.182    17.396    -0.255
    597    H    1.099    16.972    -0.265
    598    H    -0.302    17.606    0.606
    599    C    -5.184    18.409    -4.231
    600    H    -4.743    17.534    -4.033
    601    O    -5.322    18.587    -5.648
    602    H    -4.558    18.970    -6.085
    603    C    -6.470    18.529    -3.381
    604    H    -6.296    18.217    -2.447
    605    O    -7.646    17.760    -3.757
    606    P    -8.074    16.223    -3.418
    607    O    -9.374    15.915    -4.083
    608    O    -7.935    16.101    -1.944
    609    O    -6.945    15.296    -4.106
    610    C    -6.786    15.257    -5.523
    611    H    -6.575    16.177    -5.852
    612    H    -7.569    14.783    -5.926
    613    C    -5.573    14.410    -5.877
    614    H    -5.489    14.452    -6.873
    615    O    -4.491    15.153    -5.283
    616    C    -3.346    14.287    -5.228