!*** FMO 5.2 (Gamess) INPUT generated by Facio 21.1.1.32 ***
 $CONTRL RUNTYP=OPTFMO NPRINT=-5 ISPHER=-1 MAXIT=50 $END
 $SYSTEM MWORDS=29 $END
 $GDDI NGROUP=1 $END
 $INTGRL NINTIC=-9000000 $END
 $SCF DIRSCF=.FALSE. NPUNCH=0 $END
!*** NumCPU : 2  MemPerNode : 512MB
 $FMOPRP
    NAODIR=210
    NGRFMO(1)=1, 1, 0, 0, 0,   0, 0, 0, 0, 0
    NPRINT=9
 $END
 $FMO
      SCFTYP(1)=RHF
      MODGRD=10
      MODMUL=0
      MAXCAO=5
      MAXBND=34
      NLAYER=1
      NFRAG=32
      ICHARG(1)=-1, -1, -1, -1, -1, -1, -1, -1, -1, -1, 
-1, -1, -1, -1, -1, -1, -1, -1, -1, -1, 
-1, -1, -1, -1, -1, -1, -1, -1, -1, -1, 
-1, 0
      FRGNAM(1)=Frag1, Frag2, Frag3, Frag4, Frag5, Frag6, Frag7, Frag8, Frag9, Frag10, Frag11, Frag12, Frag13, Frag14, Frag15, Frag16, Frag17, Frag18, Frag19, Frag20, Frag21, Frag22, Frag23, Frag24, Frag25, Frag26, Frag27, Frag28, Frag29, Frag30, Frag31, Frag32
      indat(1)=0
               1   -36   0
               37   -69   0
               70   -103   0
               104   -134   0
               135   -167   0
               168   -201   0
               202   -231   0
               232   -261   0
               262   -292   0
               293   -323   0
               324   -354   0
               355   -385   0
               386   -415   0
               416   -449   0
               450   -480   0
               481   -513   0
               514   -543   0
               544   -576   0
               577   -609   0
               610   -643   0
               644   -677   0
               678   -710   0
               711   -740   0
               741   -774   0
               775   -807   0
               808   -840   0
               841   -871   0
               872   -902   0
               903   -936   0
               937   -966   0
               967   -996   0
               997   -1024   0
 $END

 $FMOBND
   -37   36       3-21G    MINI
   -70   69       3-21G    MINI
   -104   103       3-21G    MINI
   -135   134       3-21G    MINI
   -168   167       3-21G    MINI
   -202   201       3-21G    MINI
   -232   231       3-21G    MINI
   -262   261       3-21G    MINI
   -293   292       3-21G    MINI
   -324   323       3-21G    MINI
   -355   354       3-21G    MINI
   -386   385       3-21G    MINI
   -416   415       3-21G    MINI
   -450   449       3-21G    MINI
   -481   480       3-21G    MINI
   -514   513       3-21G    MINI
   -544   543       3-21G    MINI
   -577   576       3-21G    MINI
   -610   609       3-21G    MINI
   -644   643       3-21G    MINI
   -678   677       3-21G    MINI
   -711   710       3-21G    MINI
   -741   740       3-21G    MINI
   -775   774       3-21G    MINI
   -808   807       3-21G    MINI
   -841   840       3-21G    MINI
   -872   871       3-21G    MINI
   -903   902       3-21G    MINI
   -937   936       3-21G    MINI
   -967   966       3-21G    MINI
   -997   996       3-21G    MINI
 $END
 $FMOHYB
 3-21G        9   5
   1 0  -0.070459   0.164841   0.000000   0.000000   0.502116
         0.466939   0.000000   0.000000   0.418036
   0 1  -0.070465   0.164857   0.473392   0.000000  -0.167359
         0.466967   0.394111   0.000000  -0.139327
   0 1  -0.070465   0.164857  -0.236695  -0.409969  -0.167359
         0.466967  -0.197055  -0.341311  -0.139327
   0 1  -0.070465   0.164857  -0.236695   0.409969  -0.167359
         0.466967  -0.197055   0.341311  -0.139327
   0 1   1.006716   0.074826   0.000000   0.000000   0.000000
        -0.143830   0.000000   0.000000  -0.000003
 MINI         5   5
   1 0  -0.104883   0.308874   0.000000   0.000000   0.521806
   0 1  -0.104883   0.308874   0.491961   0.000000  -0.173934
   0 1  -0.104883   0.308876  -0.245980  -0.426050  -0.173933
   0 1  -0.104883   0.308876  -0.245980   0.426050  -0.173933
   0 1   0.988209   0.063992   0.000000   0.000000   0.000000
 $END

 $DATA
 FMO calculation : XXNAMEXX
 C1 
 C.1-1    6
      N21 3
   
 O.1-1    8
      N21 3
   
 N.1-1    7
      N21 3
   
 H.1-1    1
      N21 3
   
 P.1-1   15
      N21 3
   
 $END
 $FMOXYZ
    1    H    3.556    -31.214    2.177
    2    O    3.154    -30.675    1.437
    3    C    3.435    -31.314    0.190
    4    H    2.970    -32.199    0.165
    5    H    4.422    -31.299    0.032
    6    C    2.846    -30.538    -0.989
    7    H    3.163    -30.917    -1.858
    8    O    1.432    -30.669    -0.915
    9    C    0.862    -29.642    -1.746
    10    H    0.663    -30.059    -2.633
    11    N    -0.399    -29.148    -1.132
    12    C    -1.428    -28.487    -1.773
    13    N    -2.841    -27.220    -4.681
    14    H    -3.645    -26.727    -5.041
    15    H    -2.136    -27.485    -5.354
    16    N    -1.494    -28.212    -3.098
    17    C    -2.611    -27.557    -3.420
    18    N    -3.579    -27.202    -2.516
    19    H    -4.402    -26.698    -2.876
    20    C    -3.539    -27.467    -1.160
    21    O    -4.461    -27.101    -0.436
    22    C    -2.353    -28.167    -0.800
    23    N    -1.927    -28.621    0.445
    24    C    -0.786    -29.183    0.179
    25    H    -0.397    -29.548    1.025
    26    C    1.960    -28.581    -1.927
    27    H    1.602    -27.711    -1.589
    28    O    2.328    -28.445    -3.303
    29    H    1.624    -28.624    -3.930
    30    C    3.083    -29.037    -1.021
    31    H    2.937    -28.665    -0.104
    32    O    4.428    -28.557    -1.273
    33    P    5.250    -27.191    -0.969
    34    O    6.574    -27.249    -1.572
    35    O    5.146    -26.942    0.469
    36    O    4.411    -26.059    -1.678
    37    C    4.260    -26.119    -3.094
    38    H    3.901    -27.018    -3.345
    39    H    5.110    -25.817    -3.525
    40    C    3.212    -25.139    -3.597
    41    H    3.217    -25.291    -4.585
    42    O    1.927    -25.542    -3.064
    43    C    1.061    -24.425    -3.320
    44    H    0.649    -24.572    -4.219
    45    N    0.013    -24.379    -2.273
    46    C    -1.896    -24.091    -1.215
    47    N    -0.969    -24.464    -0.246
    48    C    0.125    -24.615    -0.932
    49    H    0.862    -24.886    -0.313
    50    N    -3.875    -23.446    -2.293
    51    C    -3.196    -23.428    -3.441
    52    H    -3.600    -23.192    -4.324
    53    N    -1.907    -23.710    -3.616
    54    C    -1.311    -24.037    -2.450
    55    C    -3.256    -23.776    -1.148
    56    N    -3.947    -23.793    -0.011
    57    H    -4.929    -23.556    -0.031
    58    H    -3.474    -24.042    0.846
    59    C    1.971    -23.187    -3.383
    60    H    1.813    -22.689    -2.531
    61    O    1.749    -22.447    -4.580
    62    H    0.855    -22.497    -4.927
    63    C    3.418    -23.643    -3.428
    64    H    3.854    -23.472    -2.545
    65    O    4.208    -23.056    -4.491
    66    P    4.488    -21.477    -4.746
    67    O    5.406    -21.370    -5.888
    68    O    4.881    -20.746    -3.536
    69    O    3.121    -20.846    -5.293
    70    C    2.576    -21.138    -6.583
    71    H    2.510    -22.130    -6.692
    72    H    3.083    -20.623    -7.275
    73    C    1.143    -20.640    -6.702
    74    H    0.799    -20.949    -7.589
    75    O    0.355    -21.228    -5.667
    76    C    -0.915    -20.553    -5.634
    77    H    -1.582    -21.091    -6.150
    78    N    -1.301    -20.399    -4.213
    79    C    -2.509    -19.937    -3.746
    80    N    -5.719    -18.759    -4.348
    81    H    -6.557    -18.430    -3.891
    82    H    -5.738    -18.788    -5.357
    83    N    -3.567    -19.566    -4.506
    84    C    -4.596    -19.156    -3.766
    85    N    -4.587    -19.118    -2.395
    86    H    -5.441    -18.787    -1.924
    87    C    -3.523    -19.489    -1.596
    88    O    -3.621    -19.412    -0.375
    89    C    -2.414    -19.927    -2.371
    90    N    -1.160    -20.381    -1.967
    91    C    -0.562    -20.639    -3.090
    92    H    0.360    -20.976    -2.898
    93    C    -0.605    -19.260    -6.410
    94    H    -0.906    -18.513    -5.817
    95    O    -1.214    -19.274    -7.703
    96    H    -2.024    -19.786    -7.764
    97    C    0.898    -19.145    -6.629
    98    H    1.361    -18.778    -5.822
    99    O    1.208    -18.557    -7.911
    100    P    1.288    -16.947    -8.136
    101    O    1.433    -16.712    -9.587
    102    O    2.333    -16.364    -7.255
    103    O    -0.153    -16.325    -7.745
    104    C    -1.306    -16.430    -8.593
    105    H    -1.488    -17.396    -8.777
    106    H    -1.192    -15.817    -9.375
    107    C    -2.560    -15.929    -7.889
    108    H    -3.295    -16.025    -8.560
    109    O    -2.848    -16.757    -6.761
    110    C    -3.683    -15.984    -5.888
    111    H    -4.601    -16.375    -5.953
    112    N    -3.125    -16.101    -4.524
    113    C    -1.802    -16.371    -4.324
    114    H    -1.074    -16.561    -4.983
    115    C    -1.290    -16.413    -3.082
    116    H    -0.374    -16.590    -2.723
    117    C    -3.982    -15.867    -3.461
    118    O    -5.172    -15.642    -3.663
    119    N    -3.472    -15.905    -2.201
    120    C    -2.175    -16.164    -1.993
    121    N    -1.700    -16.162    -0.753
    122    H    -2.330    -15.964    0.011
    123    H    -0.725    -16.355    -0.574
    124    C    -3.711    -14.546    -6.434
    125    H    -3.498    -13.936    -5.671
    126    O    -4.937    -14.264    -7.115
    127    H    -5.709    -14.710    -6.761
    128    C    -2.584    -14.470    -7.462
    129    H    -1.720    -14.249    -7.011
    130    O    -2.993    -13.764    -8.659
    131    P    -3.267    -12.155    -8.686
    132    O    -3.859    -11.817    -10.003
    133    O    -1.939    -11.561    -8.387
    134    O    -4.339    -11.692    -7.552
    135    C    -5.772    -11.677    -7.731
    136    H    -6.096    -12.616    -7.843
    137    H    -6.004    -11.013    -8.442
    138    C    -6.488    -11.169    -6.482
    139    H    -7.475    -11.185    -6.640
    140    O    -6.170    -12.051    -5.347
    141    C    -6.447    -11.282    -4.164
    142    H    -7.302    -11.634    -3.782
    143    N    -5.318    -11.476    -3.228
    144    C    -4.096    -11.624    -1.406
    145    N    -3.255    -11.959    -2.465
    146    C    -4.031    -11.851    -3.502
    147    H    -3.508    -12.073    -4.325
    148    N    -4.932    -11.178    0.735
    149    C    -6.112    -10.912    0.176
    150    H    -6.923    -10.636    0.691
    151    N    -6.417    -10.962    -1.119
    152    C    -5.351    -11.327    -1.858
    153    C    -3.891    -11.541    -0.027
    154    N    -2.722    -11.804    0.550
    155    H    -2.642    -11.725    1.554
    156    H    -1.941    -12.077    -0.029
    157    C    -6.665    -9.832    -4.626
    158    H    -6.104    -9.250    -4.037
    159    O    -8.053    -9.485    -4.607
    160    H    -8.572    -9.927    -3.931
    161    C    -6.135    -9.754    -6.049
    162    H    -5.140    -9.653    -6.048
    163    O    -6.828    -8.752    -6.820
    164    P    -6.381    -7.196    -6.849
    165    O    -7.321    -6.452    -7.709
    166    O    -4.936    -7.081    -7.137
    167    O    -6.648    -6.676    -5.353
    168    C    -7.971    -6.597    -4.813
    169    H    -8.473    -7.426    -5.059
    170    H    -8.372    -5.715    -5.061
    171    C    -7.970    -6.595    -3.288
    172    H    -8.882    -6.763    -2.914
    173    O    -7.097    -7.633    -2.861
    174    C    -6.750    -7.385    -1.488
    175    H    -7.296    -7.999    -0.918
    176    N    -5.302    -7.648    -1.327
    177    C    -4.601    -7.652    -0.141
    178    N    -4.517    -7.281    3.311
    179    H    -3.903    -7.310    4.113
    180    H    -5.487    -7.069    3.494
    181    N    -5.115    -7.418    1.089
    182    C    -4.186    -7.491    2.045
    183    N    -2.865    -7.769    1.808
    184    H    -2.234    -7.799    2.621
    185    C    -2.313    -8.013    0.563
    186    O    -1.116    -8.265    0.461
    187    C    -3.293    -7.938    -0.466
    188    N    -3.159    -8.113    -1.842
    189    C    -4.367    -7.930    -2.281
    190    H    -4.372    -8.037    -3.275
    191    C    -7.201    -5.937    -1.238
    192    H    -6.445    -5.458    -0.793
    193    O    -8.396    -5.893    -0.450
    194    H    -8.491    -6.609    0.182
    195    C    -7.414    -5.347    -2.624
    196    H    -6.538    -5.115    -3.048
    197    O    -8.326    -4.231    -2.639
    198    P    -7.911    -2.669    -2.547
    199    O    -9.112    -1.842    -2.746
    200    O    -6.728    -2.407    -3.380
    201    O    -7.475    -2.498    -1.016
    202    C    -8.439    -2.662    0.027
    203    H    -8.908    -3.536    -0.098
    204    H    -8.997    -1.835    0.087
    205    C    -7.765    -2.775    1.388
    206    H    -8.449    -2.888    2.109
    207    O    -6.933    -3.910    1.363
    208    C    -5.867    -3.723    2.308
    209    H    -5.976    -4.402    3.034
    210    N    -4.585    -3.877    1.580
    211    C    -4.535    -3.743    0.219
    212    H    -5.275    -3.562    -0.429
    213    C    -3.443    -4.131    2.318
    214    O    -3.457    -4.254    3.538
    215    N    -2.270    -4.235    1.599
    216    H    -1.408    -4.421    2.131
    217    C    -2.135    -4.114    0.232
    218    O    -1.034    -4.223    -0.297
    219    C    -3.372    -3.851    -0.461
    220    H    -3.187    -3.777    -1.441
    221    C    -6.123    -2.331    2.886
    222    H    -5.237    -1.887    3.018
    223    O    -6.892    -2.399    4.091
    224    H    -6.737    -3.180    4.627
    225    C    -6.884    -1.601    1.794
    226    H    -6.283    -1.366    1.030
    227    O    -7.635    -0.484    2.306
    228    P    -7.057    1.030    2.343
    229    O    -8.095    1.917    2.898
    230    O    -6.456    1.391    1.044
    231    O    -5.888    0.969    3.443
    232    C    -6.187    0.706    4.817
    233    H    -6.729    -0.132    4.878
    234    H    -6.558    1.536    5.234
    235    C    -4.930    0.405    5.621
    236    H    -5.205    0.187    6.557
    237    O    -4.288    -0.715    5.060
    238    C    -2.896    -0.674    5.421
    239    H    -2.733    -1.411    6.076
    240    N    -2.117    -0.844    4.172
    241    C    -2.693    -0.615    2.952
    242    H    -3.631    -0.349    2.730
    243    C    -0.788    -1.208    4.283
    244    O    -0.251    -1.424    5.365
    245    N    -0.091    -1.322    3.100
    246    H    0.901    -1.593    3.162
    247    C    -0.592    -1.108    1.833
    248    O    0.129    -1.233    0.849
    249    C    -1.987    -0.735    1.806
    250    H    -2.270    -0.603    0.856
    251    C    -2.708    0.676    6.130
    252    H    -1.878    1.093    5.760
    253    O    -2.706    0.519    7.549
    254    H    -2.336    -0.309    7.865
    255    C    -3.911    1.522    5.727
    256    H    -3.770    1.921    4.821
    257    O    -4.321    2.364    6.825
    258    P    -3.671    3.842    7.004
    259    O    -4.231    4.448    8.233
    260    O    -3.837    4.573    5.718
    261    O    -2.096    3.604    7.293
    262    C    -1.586    3.091    8.536
    263    H    -2.010    2.205    8.721
    264    H    -1.660    3.801    9.236
    265    C    -0.096    2.796    8.436
    266    H    0.232    2.349    9.269
    267    O    0.113    1.911    7.314
    268    C    1.483    1.964    6.892
    269    H    1.958    1.147    7.220
    270    N    1.493    2.059    5.414
    271    C    0.389    2.479    4.731
    272    H    -0.514    2.750    5.065
    273    C    0.409    2.581    3.391
    274    H    -0.273    2.860    2.715
    275    C    2.667    1.726    4.752
    276    O    3.654    1.356    5.386
    277    N    2.696    1.827    3.397
    278    C    1.618    2.238    2.716
    279    N    1.682    2.332    1.393
    280    H    2.545    2.091    0.928
    281    H    0.882    2.640    0.859
    282    C    1.995    3.186    7.668
    283    H    2.501    3.736    7.004
    284    O    2.761    2.792    8.809
    285    H    3.218    1.952    8.720
    286    C    0.806    3.991    8.174
    287    H    0.407    4.547    7.445
    288    O    1.174    4.626    9.414
    289    P    1.739    6.144    9.412
    290    O    2.140    6.501    10.789
    291    O    0.737    7.006    8.729
    292    O    3.101    6.115    8.538
    293    C    4.344    5.562    9.004
    294    H    4.185    4.628    9.324
    295    H    4.771    6.208    9.637
    296    C    5.329    5.425    7.853
    297    H    6.168    4.961    8.136
    298    O    4.707    4.669    6.818
    299    C    5.271    5.055    5.554
    300    H    5.758    4.267    5.178
    301    N    4.146    5.494    4.693
    302    C    2.940    5.821    5.241
    303    H    2.648    5.830    6.197
    304    C    1.913    6.205    4.466
    305    H    0.971    6.478    4.663
    306    C    4.354    5.552    3.319
    307    O    5.450    5.264    2.847
    308    N    3.315    5.940    2.526
    309    C    2.128    6.261    3.057
    310    N    1.131    6.631    2.259
    311    H    1.290    6.663    1.262
    312    H    0.229    6.877    2.641
    313    C    6.286    6.139    5.923
    314    H    6.270    6.834    5.204
    315    O    7.583    5.591    6.168
    316    H    7.808    4.827    5.632
    317    C    5.734    6.740    7.205
    318    H    4.912    7.281    7.024
    319    O    6.802    7.358    7.943
    320    P    7.143    8.923    7.731
    321    O    8.252    9.288    8.641
    322    O    5.871    9.693    7.796
    323    O    7.729    9.021    6.233
    324    C    9.049    8.576    5.889
    325    H    9.132    7.604    6.107
    326    H    9.718    9.204    6.286
    327    C    9.298    8.652    4.390
    328    H    10.214    8.315    4.173
    329    O    8.333    7.888    3.654
    330    C    8.162    8.515    2.368
    331    H    8.481    7.862    1.681
    332    N    6.722    8.841    2.252
    333    C    5.938    8.949    3.365
    334    H    6.172    8.858    4.333
    335    C    4.627    9.219    3.256
    336    H    3.894    9.336    3.926
    337    C    6.197    9.007    0.977
    338    O    6.923    8.915    -0.010
    339    N    4.868    9.281    0.858
    340    C    4.090    9.389    1.945
    341    N    2.795    9.660    1.796
    342    H    2.425    9.779    0.864
    343    H    2.190    9.746    2.600
    344    C    9.081    9.739    2.356
    345    H    8.615    10.494    1.895
    346    O    10.373    9.445    1.820
    347    H    10.377    8.816    1.095
    348    C    9.183    10.053    3.838
    349    H    8.327    10.460    4.157
    350    O    10.483    10.602    4.034
    351    P    10.668    12.182    3.706
    352    O    12.105    12.503    3.935
    353    O    9.547    12.768    4.504
    354    O    10.317    12.343    2.126
    355    C    11.238    12.075    1.049
    356    H    11.446    11.097    1.034
    357    H    12.003    12.716    1.108
    358    C    10.625    12.348    -0.323
    359    H    11.227    12.094    -1.080
    360    O    9.379    11.655    -0.465
    361    C    8.543    12.395    -1.375
    362    H    8.496    11.863    -2.221
    363    N    7.232    12.554    -0.710
    364    C    7.126    12.443    0.645
    365    H    7.829    12.281    1.338
    366    C    5.933    12.552    1.250
    367    H    5.643    12.502    2.206
    368    C    6.119    12.786    -1.507
    369    O    6.239    12.894    -2.725
    370    N    4.906    12.898    -0.900
    371    C    4.791    12.788    0.430
    372    N    3.594    12.892    0.995
    373    H    2.789    13.053    0.407
    374    H    3.488    12.812    1.996
    375    C    9.257    13.714    -1.657
    376    H    8.596    14.461    -1.586
    377    O    9.957    13.701    -2.903
    378    H    9.530    13.201    -3.603
    379    C    10.232    13.803    -0.492
    380    H    9.741    14.105    0.325
    381    O    11.376    14.537    -0.925
    382    P    11.374    16.115    -0.621
    383    O    12.641    16.671    -1.156
    384    O    10.999    16.260    0.813
    385    O    10.142    16.621    -1.533
    386    C    10.197    16.551    -2.967
    387    H    10.363    15.604    -3.241
    388    H    10.825    17.253    -3.303
    389    C    8.866    16.899    -3.623
    390    H    8.877    16.785    -4.616
    391    O    7.838    16.099    -3.080
    392    C    6.597    16.791    -3.308
    393    H    6.175    16.358    -4.104
    394    N    5.768    16.636    -2.092
    395    C    6.339    16.315    -0.891
    396    H    7.299    16.144    -0.668
    397    C    4.406    16.833    -2.211
    398    O    3.870    17.121    -3.278
    399    N    3.670    16.693    -1.053
    400    H    2.653    16.841    -1.120
    401    C    4.164    16.372    0.194
    402    O    3.407    16.266    1.155
    403    C    5.596    16.182    0.231
    404    H    5.871    15.957    1.166
    405    C    6.930    18.245    -3.650
    406    H    6.427    18.847    -3.030
    407    O    6.655    18.555    -5.023
    408    H    5.896    18.101    -5.397
    409    C    8.414    18.313    -3.312
    410    H    8.517    18.479    -2.331
    411    O    9.123    19.291    -4.081
    412    P    9.577    20.709    -3.465
    413    O    10.143    21.533    -4.554
    414    O    10.355    20.435    -2.244
    415    O    8.165    21.318    -3.011
    416    C    7.186    21.644    -4.002
    417    H    7.039    20.848    -4.589
    418    H    7.439    22.507    -4.438
    419    C    5.817    21.918    -3.384
    420    H    5.162    22.259    -4.059
    421    O    5.311    20.721    -2.812
    422    C    4.464    21.051    -1.691
    423    H    3.534    20.779    -1.937
    424    N    4.968    20.333    -0.502
    425    C    4.241    19.989    0.618
    426    N    1.224    19.865    2.335
    427    H    0.798    19.566    3.201
    428    H    0.613    20.297    1.657
    429    N    2.918    20.196    0.805
    430    C    2.500    19.751    1.993
    431    N    3.321    19.154    2.915
    432    H    2.895    18.848    3.802
    433    C    4.674    18.930    2.749
    434    O    5.317    18.388    3.639
    435    C    5.130    19.398    1.488
    436    N    6.405    19.364    0.931
    437    C    6.239    19.924    -0.226
    438    H    7.116    19.945    -0.706
    439    C    4.517    22.566    -1.550
    440    H    4.575    22.800    -0.579
    441    O    3.399    23.202    -2.187
    442    H    2.576    22.710    -2.146
    443    C    5.845    22.895    -2.219
    444    H    6.597    22.650    -1.607
    445    O    5.965    24.276    -2.574
    446    P    6.848    25.316    -1.714
    447    O    6.765    26.634    -2.362
    448    O    8.157    24.684    -1.490
    449    O    6.061    25.338    -0.315
    450    C    6.683    25.857    0.860
    451    H    6.850    26.835    0.735
    452    H    7.460    25.276    1.101
    453    C    5.748    25.774    2.065
    454    H    6.255    25.973    2.903
    455    O    4.719    26.743    1.905
    456    C    3.431    26.106    1.812
    457    H    2.861    26.527    2.517
    458    N    2.906    26.357    0.450
    459    C    3.574    25.912    -0.656
    460    H    4.425    25.392    -0.730
    461    C    3.101    26.157    -1.891
    462    H    3.428    25.928    -2.808
    463    C    1.720    27.070    0.335
    464    O    1.132    27.456    1.342
    465    N    1.235    27.321    -0.914
    466    C    1.884    26.890    -2.002
    467    N    1.386    27.158    -3.207
    468    H    0.526    27.683    -3.274
    469    H    1.859    26.843    -4.042
    470    C    3.610    24.619    2.137
    471    H    3.282    24.101    1.347
    472    O    2.948    24.246    3.350
    473    H    2.151    24.744    3.546
    474    C    5.111    24.407    2.281
    475    H    5.395    23.795    1.543
    476    O    5.418    23.941    3.604
    477    P    5.027    22.441    4.073
    478    O    5.924    22.060    5.188
    479    O    4.946    21.583    2.870
    480    O    3.532    22.615    4.669
    481    C    3.266    23.412    5.842
    482    H    3.503    24.364    5.649
    483    H    3.689    22.975    6.636
    484    C    1.775    23.470    6.205
    485    H    1.653    23.900    7.099
    486    O    1.106    24.254    5.216
    487    C    -0.030    23.553    4.706
    488    H    -0.829    23.969    5.140
    489    N    -0.069    23.718    3.241
    490    C    -0.670    24.331    1.221
    491    N    0.576    23.720    1.088
    492    C    0.866    23.382    2.307
    493    H    1.755    22.924    2.315
    494    N    -2.691    25.420    0.764
    495    C    -2.973    25.356    2.065
    496    H    -3.816    25.710    2.469
    497    N    -2.219    24.832    3.026
    498    C    -1.070    24.330    2.526
    499    C    -1.539    24.916    0.298
    500    N    -1.252    25.028    -0.996
    501    H    -1.910    25.493    -1.605
    502    H    -0.382    24.646    -1.340
    503    C    0.067    22.105    5.138
    504    H    0.447    21.586    4.373
    505    O    -1.198    21.609    5.582
    506    H    -1.960    21.985    5.136
    507    C    1.070    22.105    6.284
    508    H    1.737    21.383    6.099
    509    O    0.367    21.980    7.529
    510    P    -0.442    20.637    7.934
    511    O    -0.440    20.532    9.409
    512    O    0.086    19.518    7.125
    513    O    -1.956    20.931    7.458
    514    C    -3.072    20.696    8.334
    515    H    -2.956    21.243    9.163
    516    H    -3.202    19.710    8.438
    517    C    -4.379    21.197    7.719
    518    H    -5.152    20.871    8.263
    519    O    -4.382    22.631    7.717
    520    C    -4.637    23.110    6.389
    521    H    -5.620    23.283    6.323
    522    N    -3.865    24.374    6.174
    523    C    -2.716    24.618    6.887
    524    H    -2.276    24.061    7.592
    525    C    -4.323    25.289    5.226
    526    O    -5.336    25.113    4.561
    527    N    -3.558    26.424    5.061
    528    H    -3.885    27.110    4.366
    529    C    -2.396    26.736    5.733
    530    O    -1.796    27.778    5.488
    531    C    -1.987    25.743    6.695
    532    H    -1.141    26.044    7.134
    533    C    -4.268    21.958    5.443
    534    H    -3.280    21.966    5.290
    535    O    -5.019    22.020    4.223
    536    H    -5.202    22.907    3.904
    537    C    -4.632    20.733    6.291
    538    H    -3.991    19.999    6.069
    539    O    -6.031    20.461    6.113
    540    P    -6.490    19.302    5.084
    541    O    -7.950    19.106    5.257
    542    O    -5.559    18.157    5.244
    543    O    -6.233    19.974    3.633
    544    C    -7.028    21.075    3.155
    545    H    -6.868    21.870    3.740
    546    H    -7.971    20.766    3.031
    547    C    -6.590    21.532    1.762
    548    H    -7.198    22.245    1.411
    549    O    -5.233    22.036    1.779
    550    C    -4.784    22.029    0.423
    551    H    -4.933    22.954    0.075
    552    N    -3.354    21.678    0.418
    553    C    -1.253    21.479    -0.174
    554    N    -1.351    20.923    1.102
    555    C    -2.609    21.074    1.390
    556    H    -2.781    20.702    2.302
    557    N    -0.438    22.229    -2.237
    558    C    -1.672    22.634    -2.533
    559    H    -1.923    23.078    -3.393
    560    N    -2.752    22.527    -1.772
    561    C    -2.467    21.936    -0.595
    562    C    -0.185    21.643    -1.058
    563    N    1.050    21.246    -0.784
    564    H    1.776    21.394    -1.471
    565    H    1.237    20.805    0.105
    566    C    -5.667    21.051    -0.364
    567    H    -5.082    20.351    -0.773
    568    O    -6.469    21.732    -1.340
    569    H    -6.053    22.498    -1.743
    570    C    -6.518    20.410    0.737
    571    H    -6.015    19.641    1.131
    572    O    -7.803    20.071    0.204
    573    P    -8.096    18.558    -0.268
    574    O    -9.479    18.506    -0.795
    575    O    -7.681    17.659    0.833
    576    O    -7.065    18.356    -1.496
    577    C    -7.205    19.121    -2.698
    578    H    -7.219    20.093    -2.465
    579    H    -7.969    18.755    -3.230
    580    C    -6.008    18.991    -3.645
    581    H    -6.178    19.465    -4.509
    582    O    -4.845    19.588    -2.997
    583    C    -3.666    18.930    -3.504
    584    H    -3.163    19.617    -4.029
    585    N    -2.864    18.451    -2.359
    586    C    -1.213    17.740    -1.092
    587    N    -2.352    17.729    -0.291
    588    C    -3.278    18.153    -1.093
    589    H    -4.148    18.178    -0.601
    590    N    0.991    17.523    -1.858
    591    C    0.577    17.962    -3.049
    592    H    1.177    18.075    -3.841
    593    N    -0.659    18.315    -3.388
    594    C    -1.512    18.177    -2.351
    595    C    0.119    17.399    -0.844
    596    N    0.548    16.981    0.343
    597    H    1.527    16.763    0.461
    598    H    -0.115    16.891    1.099
    599    C    -4.130    17.811    -4.456
    600    H    -3.588    16.988    -4.287
    601    O    -4.044    18.224    -5.824
    602    H    -3.305    18.802    -6.027
    603    C    -5.550    17.579    -3.960
    604    H    -5.514    17.051    -3.111
    605    O    -6.413    16.813    -4.827
    606    P    -6.581    15.201    -4.915
    607    O    -7.598    14.856    -5.914
    608    O    -6.699    14.708    -3.542
    609    O    -5.154    14.754    -5.455
    610    C    -4.678    15.326    -6.675
    611    H    -4.710    16.323    -6.602
    612    H    -5.154    14.897    -7.443
    613    C    -3.208    15.002    -6.901
    614    H    -2.901    15.378    -7.775
    615    O    -2.437    15.600    -5.835
    616    C    -1.184    14.896    -5.785
    617    H    -0.497    15.499    -6.191
    618    N    -0.876    14.610    -4.363