!*** FMO 5.2 (Gamess) INPUT generated by Facio 21.1.1.32 ***
 $CONTRL RUNTYP=OPTFMO NPRINT=-5 ISPHER=-1 MAXIT=50 $END
 $SYSTEM MWORDS=29 $END
 $GDDI NGROUP=1 $END
 $INTGRL NINTIC=-9000000 $END
 $SCF DIRSCF=.FALSE. NPUNCH=0 $END
!*** NumCPU : 2  MemPerNode : 512MB
 $FMOPRP
    NAODIR=210
    NGRFMO(1)=1, 1, 0, 0, 0,   0, 0, 0, 0, 0
    NPRINT=9
 $END
 $FMO
      SCFTYP(1)=RHF
      MODGRD=10
      MODMUL=0
      MAXCAO=5
      MAXBND=34
      NLAYER=1
      NFRAG=32
      ICHARG(1)=-1, -1, -1, -1, -1, -1, -1, -1, -1, -1, 
-1, -1, -1, -1, -1, -1, -1, -1, -1, -1, 
-1, -1, -1, -1, -1, -1, -1, -1, -1, -1, 
-1, 0
      FRGNAM(1)=Frag1, Frag2, Frag3, Frag4, Frag5, Frag6, Frag7, Frag8, Frag9, Frag10, Frag11, Frag12, Frag13, Frag14, Frag15, Frag16, Frag17, Frag18, Frag19, Frag20, Frag21, Frag22, Frag23, Frag24, Frag25, Frag26, Frag27, Frag28, Frag29, Frag30, Frag31, Frag32
      indat(1)=0
               1   -36   0
               37   -69   0
               70   -103   0
               104   -134   0
               135   -167   0
               168   -201   0
               202   -231   0
               232   -261   0
               262   -292   0
               293   -323   0
               324   -354   0
               355   -385   0
               386   -415   0
               416   -449   0
               450   -480   0
               481   -513   0
               514   -543   0
               544   -576   0
               577   -609   0
               610   -643   0
               644   -677   0
               678   -710   0
               711   -740   0
               741   -774   0
               775   -807   0
               808   -840   0
               841   -871   0
               872   -902   0
               903   -936   0
               937   -966   0
               967   -996   0
               997   -1024   0
 $END

 $FMOBND
   -37   36       3-21G    MINI
   -70   69       3-21G    MINI
   -104   103       3-21G    MINI
   -135   134       3-21G    MINI
   -168   167       3-21G    MINI
   -202   201       3-21G    MINI
   -232   231       3-21G    MINI
   -262   261       3-21G    MINI
   -293   292       3-21G    MINI
   -324   323       3-21G    MINI
   -355   354       3-21G    MINI
   -386   385       3-21G    MINI
   -416   415       3-21G    MINI
   -450   449       3-21G    MINI
   -481   480       3-21G    MINI
   -514   513       3-21G    MINI
   -544   543       3-21G    MINI
   -577   576       3-21G    MINI
   -610   609       3-21G    MINI
   -644   643       3-21G    MINI
   -678   677       3-21G    MINI
   -711   710       3-21G    MINI
   -741   740       3-21G    MINI
   -775   774       3-21G    MINI
   -808   807       3-21G    MINI
   -841   840       3-21G    MINI
   -872   871       3-21G    MINI
   -903   902       3-21G    MINI
   -937   936       3-21G    MINI
   -967   966       3-21G    MINI
   -997   996       3-21G    MINI
 $END
 $FMOHYB
 3-21G        9   5
   1 0  -0.070459   0.164841   0.000000   0.000000   0.502116
         0.466939   0.000000   0.000000   0.418036
   0 1  -0.070465   0.164857   0.473392   0.000000  -0.167359
         0.466967   0.394111   0.000000  -0.139327
   0 1  -0.070465   0.164857  -0.236695  -0.409969  -0.167359
         0.466967  -0.197055  -0.341311  -0.139327
   0 1  -0.070465   0.164857  -0.236695   0.409969  -0.167359
         0.466967  -0.197055   0.341311  -0.139327
   0 1   1.006716   0.074826   0.000000   0.000000   0.000000
        -0.143830   0.000000   0.000000  -0.000003
 MINI         5   5
   1 0  -0.104883   0.308874   0.000000   0.000000   0.521806
   0 1  -0.104883   0.308874   0.491961   0.000000  -0.173934
   0 1  -0.104883   0.308876  -0.245980  -0.426050  -0.173933
   0 1  -0.104883   0.308876  -0.245980   0.426050  -0.173933
   0 1   0.988209   0.063992   0.000000   0.000000   0.000000
 $END

 $DATA
 FMO calculation : XXNAMEXX
 C1 
 C.1-1    6
      N21 3
   
 O.1-1    8
      N21 3
   
 N.1-1    7
      N21 3
   
 H.1-1    1
      N21 3
   
 P.1-1   15
      N21 3
   
 $END
 $FMOXYZ
    1    H    9.851    -21.187    -7.259
    2    O    8.876    -21.408    -7.296
    3    C    8.691    -22.565    -8.121
    4    H    9.131    -23.350    -7.685
    5    H    8.955    -22.341    -9.059
    6    C    7.222    -22.967    -8.227
    7    H    7.125    -23.713    -8.885
    8    O    6.704    -23.384    -6.978
    9    C    5.267    -23.303    -7.069
    10    H    4.948    -24.209    -7.348
    11    N    4.760    -22.911    -5.736
    12    C    3.487    -23.119    -5.256
    13    N    0.279    -24.376    -5.676
    14    H    -0.618    -24.472    -5.221
    15    H    0.359    -24.770    -6.602
    16    N    2.481    -23.742    -5.915
    17    C    1.362    -23.789    -5.188
    18    N    1.247    -23.267    -3.925
    19    H    0.335    -23.359    -3.455
    20    C    2.256    -22.627    -3.232
    21    O    2.045    -22.193    -2.103
    22    C    3.457    -22.569    -3.993
    23    N    4.695    -22.020    -3.670
    24    C    5.409    -22.253    -4.728
    25    H    6.329    -21.889    -4.586
    26    C    4.935    -22.296    -8.174
    27    H    4.463    -21.518    -7.759
    28    O    4.187    -22.892    -9.240
    29    H    3.579    -23.585    -8.971
    30    C    6.299    -21.845    -8.655
    31    H    6.545    -21.013    -8.157
    32    O    6.299    -21.547    -10.045
    33    P    6.057    -19.985    -10.325
    34    O    6.275    -19.904    -11.773
    35    O    6.777    -19.001    -9.468
    36    O    4.491    -19.717    -10.061
    37    C    3.528    -20.524    -10.744
    38    H    3.737    -21.488    -10.581
    39    H    3.457    -20.214    -11.692
    40    C    2.106    -20.372    -10.211
    41    H    1.469    -20.913    -10.761
    42    O    2.043    -20.826    -8.830
    43    C    0.819    -20.274    -8.302
    44    H    0.091    -20.924    -8.521
    45    N    0.988    -20.098    -6.846
    46    C    0.612    -20.019    -4.683
    47    N    1.927    -19.600    -4.863
    48    C    2.084    -19.668    -6.150
    49    H    3.014    -19.380    -6.380
    50    N    -1.443    -20.601    -3.718
    51    C    -1.898    -20.867    -4.944
    52    H    -2.825    -21.188    -5.137
    53    N    -1.229    -20.758    -6.090
    54    C    0.031    -20.323    -5.881
    55    C    -0.183    -20.171    -3.544
    56    N    0.257    -19.913    -2.316
    57    H    -0.368    -20.046    -1.534
    58    H    1.206    -19.590    -2.194
    59    C    0.564    -18.969    -9.055
    60    H    0.752    -18.219    -8.421
    61    O    -0.752    -18.925    -9.615
    62    H    -1.423    -19.390    -9.110
    63    C    1.583    -18.936    -10.174
    64    H    2.327    -18.325    -9.904
    65    O    1.043    -18.172    -11.265
    66    P    0.962    -16.566    -11.085
    67    O    0.862    -16.030    -12.442
    68    O    1.672    -15.564    -10.206
    69    O    -0.503    -16.487    -10.452
    70    C    -1.479    -17.295    -11.115
    71    H    -1.107    -18.214    -11.245
    72    H    -1.813    -16.806    -11.921
    73    C    -2.733    -17.528    -10.291
    74    H    -3.402    -18.110    -10.753
    75    O    -2.369    -18.135    -9.044
    76    C    -3.502    -18.053    -8.152
    77    H    -4.025    -18.903    -8.215
    78    N    -2.981    -17.802    -6.792
    79    C    -3.715    -17.806    -5.629
    80    N    -6.746    -18.198    -3.983
    81    H    -7.179    -18.169    -3.071
    82    H    -7.350    -18.417    -4.762
    83    N    -5.042    -18.053    -5.527
    84    C    -5.470    -17.979    -4.267
    85    N    -4.660    -17.691    -3.199
    86    H    -5.096    -17.666    -2.266
    87    C    -3.305    -17.432    -3.275
    88    O    -2.673    -17.181    -2.253
    89    C    -2.832    -17.505    -4.615
    90    N    -1.550    -17.315    -5.125
    91    C    -1.708    -17.503    -6.400
    92    H    -0.827    -17.386    -6.858
    93    C    -4.322    -16.913    -8.781
    94    H    -4.513    -16.254    -8.054
    95    O    -5.498    -17.401    -9.431
    96    H    -5.883    -18.187    -9.036
    97    C    -3.419    -16.261    -9.814
    98    H    -2.743    -15.671    -9.374
    99    O    -3.999    -15.313    -10.732
    100    P    -3.688    -13.732    -10.563
    101    O    -4.262    -13.081    -11.746
    102    O    -2.417    -13.065    -10.121
    103    O    -4.671    -13.386    -9.345
    104    C    -6.030    -13.808    -9.497
    105    H    -6.044    -14.778    -9.741
    106    H    -6.505    -13.166    -10.099
    107    C    -6.843    -13.755    -8.211
    108    H    -7.800    -13.989    -8.384
    109    O    -6.302    -14.678    -7.251
    110    C    -6.717    -14.225    -5.950
    111    H    -7.440    -14.847    -5.648
    112    N    -5.534    -14.257    -5.066
    113    C    -4.271    -14.156    -5.576
    114    H    -3.959    -14.090    -6.524
    115    C    -3.203    -14.133    -4.762
    116    H    -2.218    -14.067    -4.924
    117    C    -5.756    -14.345    -3.701
    118    O    -6.899    -14.451    -3.266
    119    N    -4.680    -14.320    -2.870
    120    C    -3.438    -14.216    -3.358
    121    N    -2.410    -14.160    -2.519
    122    H    -2.588    -14.197    -1.526
    123    H    -1.465    -14.081    -2.866
    124    C    -7.309    -12.818    -6.127
    125    H    -6.900    -12.215    -5.442
    126    O    -8.740    -12.836    -6.079
    127    H    -9.117    -13.487    -5.482
    128    C    -6.816    -12.408    -7.505
    129    H    -5.869    -12.092    -7.443
    130    O    -7.492    -11.273    -8.086
    131    P    -6.861    -9.788    -7.983
    132    O    -7.578    -8.913    -8.924
    133    O    -5.408    -9.433    -7.862
    134    O    -7.433    -9.449    -6.527
    135    C    -8.837    -9.660    -6.334
    136    H    -9.061    -10.603    -6.578
    137    H    -9.342    -8.926    -6.788
    138    C    -9.255    -9.548    -4.877
    139    H    -10.248    -9.622    -4.787
    140    O    -8.622    -10.601    -4.073
    141    C    -8.657    -10.127    -2.712
    142    H    -9.388    -10.632    -2.253
    143    N    -7.331    -10.404    -2.120
    144    C    -5.716    -10.833    -0.696
    145    N    -5.131    -10.848    -1.961
    146    C    -6.130    -10.588    -2.749
    147    H    -5.804    -10.575    -3.694
    148    N    -6.048    -10.948    1.619
    149    C    -7.335    -10.676    1.408
    150    H    -8.014    -10.597    2.137
    151    N    -7.931    -10.468    0.236
    152    C    -7.051    -10.562    -0.781
    153    C    -5.198    -11.036    0.586
    154    N    -3.918    -11.309    0.817
    155    H    -3.610    -11.445    1.769
    156    H    -3.282    -11.374    0.035
    157    C    -9.031    -8.640    -2.758
    158    H    -8.376    -8.139    -2.193
    159    O    -10.391    -8.420    -2.371
    160    H    -10.725    -9.024    -1.704
    161    C    -8.825    -8.254    -4.214
    162    H    -7.853    -8.104    -4.393
    163    O    -9.656    -7.149    -4.596
    164    P    -9.075    -5.644    -4.560
    165    O    -10.111    -4.746    -5.111
    166    O    -7.683    -5.537    -5.065
    167    O    -9.040    -5.446    -2.968
    168    C    -10.256    -5.571    -2.224
    169    H    -10.770    -6.356    -2.570
    170    H    -10.716    -4.683    -2.200
    171    C    -10.006    -5.903    -0.759
    172    H    -10.840    -6.182    -0.282
    173    O    -9.056    -6.953    -0.681
    174    C    -8.499    -6.950    0.646
    175    H    -8.951    -7.675    1.165
    176    N    -7.044    -7.177    0.515
    177    C    -6.158    -7.381    1.548
    178    N    -5.503    -7.665    4.946
    179    H    -4.765    -7.825    5.616
    180    H    -6.429    -7.521    5.322
    181    N    -6.462    -7.400    2.867
    182    C    -5.387    -7.623    3.627
    183    N    -4.124    -7.810    3.128
    184    H    -3.366    -7.972    3.806
    185    C    -3.787    -7.798    1.787
    186    O    -2.624    -7.990    1.445
    187    C    -4.923    -7.560    0.965
    188    N    -5.019    -7.469    -0.422
    189    C    -6.282    -7.243    -0.616
    190    H    -6.451    -7.159    -1.598
    191    C    -8.894    -5.592    1.238
    192    H    -8.071    -5.169    1.617
    193    O    -9.949    -5.712    2.198
    194    H    -9.941    -6.524    2.710
    195    C    -9.354    -4.787    0.033
    196    H    -8.563    -4.446    -0.476
    197    O    -10.319    -3.796    0.412
    198    P    -9.887    -2.257    0.625
    199    O    -11.116    -1.450    0.785
    200    O    -8.877    -1.868    -0.387
    201    O    -9.155    -2.349    2.054
    202    C    -9.905    -2.689    3.225
    203    H    -10.401    -3.541    3.058
    204    H    -10.430    -1.890    3.518
    205    C    -8.995    -3.003    4.408
    206    H    -9.505    -3.232    5.237
    207    O    -8.169    -4.091    4.063
    208    C    -6.935    -4.001    4.801
    209    H    -6.906    -4.769    5.440
    210    N    -5.827    -4.025    3.818
    211    C    -6.052    -3.719    2.503
    212    H    -6.905    -3.470    2.045
    213    C    -4.563    -4.352    4.274
    214    O    -4.335    -4.629    5.446
    215    N    -3.560    -4.345    3.327
    216    H    -2.611    -4.584    3.647
    217    C    -3.701    -4.049    1.988
    218    O    -2.730    -4.073    1.240
    219    C    -5.050    -3.720    1.596
    220    H    -5.064    -3.518    0.617
    221    C    -7.051    -2.700    5.592
    222    H    -6.159    -2.248    5.593
    223    O    -7.572    -2.915    6.907
    224    H    -7.309    -3.742    7.317
    225    C    -8.017    -1.885    4.753
    226    H    -7.573    -1.570    3.914
    227    O    -8.583    -0.781    5.480
    228    P    -8.011    0.724    5.328
    229    O    -8.873    1.641    6.106
    230    O    -7.661    1.122    3.940
    231    O    -6.623    0.585    6.130
    232    C    -6.657    0.202    7.509
    233    H    -7.194    -0.636    7.601
    234    H    -6.924    0.993    8.060
    235    C    -5.286    -0.180    8.058
    236    H    -5.320    -0.462    9.017
    237    O    -4.770    -1.240    7.286
    238    C    -3.329    -1.227    7.367
    239    H    -3.053    -2.007    7.929
    240    N    -2.810    -1.312    5.983
    241    C    -3.610    -1.004    4.916
    242    H    -4.570    -0.723    4.899
    243    C    -1.490    -1.686    5.808
    244    O    -0.756    -1.972    6.748
    245    N    -1.040    -1.726    4.507
    246    H    -0.060    -2.004    4.357
    247    C    -1.776    -1.429    3.378
    248    O    -1.263    -1.493    2.266
    249    C    -3.143    -1.051    3.648
    250    H    -3.604    -0.857    2.782
    251    C    -2.978    0.070    8.107
    252    H    -2.220    0.514    7.630
    253    O    -2.708    -0.165    9.490
    254    H    -2.276    -1.000    9.682
    255    C    -4.237    0.907    7.924
    256    H    -4.267    1.276    6.995
    257    O    -4.377    1.904    8.949
    258    P    -3.844    3.417    8.765
    259    O    -4.179    4.166    9.997
    260    O    -4.210    3.998    7.449
    261    O    -2.259    3.164    8.758
    262    C    -1.640    2.542    9.892
    263    H    -2.104    1.677    10.083
    264    H    -1.571    3.210    10.633
    265    C    -0.200    2.143    9.608
    266    H    0.243    1.662    10.365
    267    O    -0.171    1.302    8.437
    268    C    1.144    1.298    7.852
    269    H    1.610    0.451    8.107
    270    N    0.980    1.434    6.387
    271    C    -0.176    1.924    5.852
    272    H    -1.016    2.232    6.299
    273    C    -0.315    2.055    4.522
    274    H    -1.059    2.383    3.939
    275    C    2.045    1.057    5.581
    276    O    3.081    0.624    6.083
    277    N    1.913    1.187    4.235
    278    C    0.784    1.666    3.698
    279    N    0.690    1.787    2.379
    280    H    1.476    1.514    1.807
    281    H    -0.152    2.146    1.953
    282    C    1.814    2.472    8.574
    283    H    2.284    3.017    7.879
    284    O    2.687    2.027    9.617
    285    H    3.111    1.181    9.457
    286    C    0.681    3.296    9.167
    287    H    0.209    3.812    8.452
    288    O    1.142    4.047    10.296
    289    P    1.537    5.604    10.176
    290    O    1.999    6.050    11.507
    291    O    0.464    6.344    9.468
    292    O    2.806    5.489    9.198
    293    C    3.982    4.784    9.612
    294    H    3.720    3.873    9.931
    295    H    4.508    5.365    10.233
    296    C    4.909    4.533    8.433
    297    H    5.728    4.008    8.664
    298    O    4.188    3.843    7.419
    299    C    4.744    4.173    6.132
    300    H    5.150    3.343    5.749
    301    N    3.635    4.701    5.303
    302    C    2.478    5.133    5.884
    303    H    2.219    5.176    6.849
    304    C    1.461    5.594    5.137
    305    H    0.552    5.946    5.359
    306    C    3.802    4.729    3.923
    307    O    4.855    4.346    3.420
    308    N    2.774    5.196    3.157
    309    C    1.636    5.619    3.721
    310    N    0.648    6.063    2.951
    311    H    0.776    6.072    1.949
    312    H    -0.218    6.386    3.358
    313    C    5.858    5.170    6.454
    314    H    5.894    5.862    5.733
    315    O    7.115    4.523    6.672
    316    H    7.274    3.751    6.125
    317    C    5.336    5.811    7.729
    318    H    4.525    6.365    7.540
    319    O    6.386    6.459    8.460
    320    P    6.653    8.048    8.426
    321    O    7.701    8.396    9.415
    322    O    5.354    8.761    8.435
    323    O    7.288    8.146    6.959
    324    C    8.551    7.529    6.698
    325    H    8.482    6.551    6.893
    326    H    9.269    8.049    7.160
    327    C    8.918    7.599    5.223
    328    H    9.817    7.202    5.036
    329    O    7.926    6.898    4.451
    330    C    7.861    7.510    3.150
    331    H    8.159    6.824    2.486
    332    N    6.457    7.936    2.937
    333    C    5.619    8.118    3.999
    334    H    5.788    8.018    4.980
    335    C    4.341    8.491    3.811
    336    H    3.582    8.674    4.435
    337    C    6.021    8.129    1.631
    338    O    6.793    7.970    0.688
    339    N    4.727    8.507    1.432
    340    C    3.897    8.688    2.469
    341    N    2.639    9.060    2.243
    342    H    2.335    9.199    1.290
    343    H    1.997    9.202    3.010
    344    C    8.879    8.656    3.175
    345    H    8.512    9.432    2.662
    346    O    10.166    8.242    2.709
    347    H    10.151    7.597    1.998
    348    C    8.900    9.007    4.655
    349    H    8.044    9.453    4.917
    350    O    10.089    9.733    5.014
    351    P    10.170    11.343    5.119
    352    O    11.497    11.775    5.622
    353    O    8.947    11.874    5.769
    354    O    10.099    11.702    3.556
    355    C    11.134    11.257    2.672
    356    H    11.216    10.263    2.741
    357    H    11.954    11.807    2.828
    358    C    10.773    11.512    1.212
    359    H    11.486    11.205    0.582
    360    O    9.546    10.842    0.891
    361    C    8.903    11.559    -0.177
    362    H    8.967    10.985    -0.993
    363    N    7.504    11.799    0.244
    364    C    7.166    11.765    1.564
    365    H    7.735    11.612    2.372
    366    C    5.896    11.955    1.953
    367    H    5.449    11.969    2.847
    368    C    6.552    12.032    -0.740
    369    O    6.877    12.068    -1.925
    370    N    5.260    12.225    -0.354
    371    C    4.919    12.192    0.941
    372    N    3.651    12.375    1.290
    373    H    2.964    12.537    0.567
    374    H    3.375    12.353    2.261
    375    C    9.723    12.832    -0.398
    376    H    9.093    13.602    -0.496
    377    O    10.611    12.714    -1.513
    378    H    10.282    12.179    -2.239
    379    C    10.483    12.977    0.916
    380    H    9.873    13.337    1.622
    381    O    11.711    13.699    0.734
    382    P    11.835    15.297    0.911
    383    O    13.209    15.762    0.596
    384    O    11.228    15.625    2.218
    385    O    10.858    15.809    -0.256
    386    C    11.172    15.522    -1.623
    387    H    11.322    14.538    -1.723
    388    H    11.897    16.140    -1.927
    389    C    10.002    15.824    -2.547
    390    H    10.215    15.565    -3.489
    391    O    8.851    15.129    -2.129
    392    C    7.722    15.822    -2.686
    393    H    7.438    15.298    -3.489
    394    N    6.672    15.867    -1.646
    395    C    6.987    15.698    -0.325
    396    H    7.875    15.529    0.103
    397    C    5.371    16.089    -2.055
    398    O    5.065    16.243    -3.234
    399    N    4.422    16.134    -1.054
    400    H    3.446    16.303    -1.337
    401    C    4.652    15.974    0.296
    402    O    3.722    16.026    1.096
    403    C    6.038    15.746    0.636
    404    H    6.118    15.645    1.628
    405    C    8.201    17.203    -3.136
    406    H    7.626    17.893    -2.697
    407    O    8.208    17.331    -4.564
    408    H    7.515    16.846    -5.018
    409    C    9.608    17.290    -2.559
    410    H    9.560    17.622    -1.617
    411    O    10.462    17.982    -3.484
    412    P    10.803    19.554    -3.357
    413    O    11.513    20.043    -4.566
    414    O    11.432    19.618    -2.025
    415    O    9.345    20.229    -3.300
    416    C    8.531    20.329    -4.474
    417    H    8.450    19.424    -4.892
    418    H    8.870    21.079    -5.042
    419    C    7.101    20.724    -4.119
    420    H    6.568    20.909    -4.945
    421    O    6.473    19.687    -3.388
    422    C    5.498    20.263    -2.495
    423    H    4.599    19.958    -2.809
    424    N    5.816    19.814    -1.124
    425    C    4.934    19.723    -0.069
    426    N    1.715    19.993    1.203
    427    H    1.166    19.888    2.044
    428    H    1.216    20.278    0.372
    429    N    3.607    19.977    -0.114
    430    C    3.019    19.797    1.072
    431    N    3.687    19.402    2.202
    432    H    3.136    19.295    3.066
    433    C    5.041    19.136    2.274
    434    O    5.538    18.789    3.338
    435    C    5.678    19.321    1.019
    436    N    7.013    19.159    0.662
    437    C    7.023    19.462    -0.598
    438    H    7.956    19.373    -0.947
    439    C    5.598    21.770    -2.667
    440    H    5.550    22.197    -1.764
    441    O    4.601    22.273    -3.568
    442    H    3.760    21.810    -3.542
    443    C    7.004    21.951    -3.227
    444    H    7.672    21.870    -2.487
    445    O    7.052    23.127    -4.038
    446    P    7.806    24.450    -3.514
    447    O    7.724    25.500    -4.552
    448    O    9.105    23.963    -3.010
    449    O    6.853    24.824    -2.279
    450    C    7.344    25.646    -1.228
    451    H    7.524    26.561    -1.588
    452    H    8.091    25.170    -0.764
    453    C    6.288    25.855    -0.149
    454    H    6.694    26.284    0.658
    455    O    5.283    26.715    -0.675
    456    C    4.011    26.044    -0.704
    457    H    3.379    26.626    -0.192
    458    N    3.614    25.907    -2.125
    459    C    4.380    25.197    -3.006
    460    H    5.234    24.696    -2.862
    461    C    4.022    25.089    -4.298
    462    H    4.431    24.628    -5.086
    463    C    2.445    26.536    -2.533
    464    O    1.768    27.165    -1.724
    465    N    2.077    26.431    -3.841
    466    C    2.822    25.738    -4.711
    467    N    2.437    25.660    -5.982
    468    H    1.587    26.127    -6.264
    469    H    2.984    25.143    -6.656
    470    C    4.157    24.704    0.025
    471    H    3.901    23.985    -0.621
    472    O    3.386    24.656    1.230
    473    H    2.575    25.170    1.213
    474    C    5.639    24.573    0.350
    475    H    5.991    23.802    -0.181
    476    O    5.831    24.492    1.770
    477    P    5.435    23.146    2.574
    478    O    6.247    23.096    3.811
    479    O    5.466    22.012    1.624
    480    O    3.896    23.422    2.987
    481    C    3.537    24.491    3.885
    482    H    3.788    25.365    3.468
    483    H    3.896    24.286    4.796
    484    C    2.022    24.601    4.097
    485    H    1.825    25.242    4.839
    486    O    1.424    25.084    2.895
    487    C    0.339    24.241    2.500
    488    H    -0.496    24.731    2.751
    489    N    0.420    24.025    1.043
    490    C    -0.016    24.084    -1.106
    491    N    1.241    23.496    -0.980
    492    C    1.432    23.488    0.302
    493    H    2.320    23.072    0.496
    494    N    -2.001    24.960    -1.983
    495    C    -2.390    25.223    -0.736
    496    H    -3.266    25.645    -0.503
    497    N    -1.713    24.983    0.384
    498    C    -0.522    24.405    0.119
    499    C    -0.810    24.389    -2.214
    500    N    -0.419    24.175    -3.467
    501    H    -1.030    24.448    -4.224
    502    H    0.479    23.744    -3.633
    503    C    0.413    22.955    3.295
    504    H    0.855    22.266    2.720
    505    O    -0.879    22.552    3.754
    506    H    -1.606    22.778    3.169
    507    C    1.328    23.282    4.470
    508    H    2.014    22.557    4.524
    509    O    0.534    23.495    5.643
    510    P    -0.233    22.261    6.352
    511    O    -0.342    22.567    7.796
    512    O    0.421    21.009    5.908
    513    O    -1.710    22.326    5.705
    514    C    -2.888    22.263    6.526
    515    H    -2.873    23.023    7.176
    516    H    -2.981    21.337    6.891
    517    C    -4.164    22.483    5.708
    518    H    -4.971    22.264    6.256
    519    O    -4.222    23.866    5.323
    520    C    -4.387    23.958    3.903
    521    H    -5.367    24.046    3.726
    522    N    -3.662    25.170    3.405
    523    C    -2.590    25.675    4.102
    524    H    -2.184    25.358    4.959
    525    C    -4.083    25.766    2.217
    526    O    -5.028    25.349    1.557
    527    N    -3.364    26.867    1.803
    528    H    -3.666    27.319    0.928
    529    C    -2.279    27.427    2.442
    530    O    -1.712    28.405    1.965
    531    C    -1.904    26.757    3.663
    532    H    -1.114    27.223    4.061
    533    C    -3.894    22.619    3.332
    534    H    -2.898    22.654    3.246
    535    O    -4.534    22.309    2.088
    536    H    -4.734    23.068    1.535
    537    C    -4.265    21.631    4.446
    538    H    -3.567    20.916    4.479
    539    O    -5.600    21.127    4.247
    540    P    -5.903    19.711    3.524
    541    O    -7.353    19.422    3.634
    542    O    -4.942    18.675    3.972
    543    O    -5.591    20.022    1.969
    544    C    -6.389    20.962    1.229
    545    H    -6.296    21.867    1.645
    546    H    -7.311    20.590    1.117
    547    C    -5.873    21.142    -0.199
    548    H    -6.491    21.734    -0.716
    549    O    -4.548    21.726    -0.204
    550    C    -4.008    21.473    -1.501
    551    H    -4.172    22.300    -2.039
    552    N    -2.566    21.212    -1.350
    553    C    -0.423    21.018    -1.765
    554    N    -0.583    20.723    -0.411
    555    C    -1.864    20.857    -0.234
    556    H    -2.082    20.665    0.723
    557    N    0.500    21.387    -3.886
    558    C    -0.727    21.654    -4.330
    559    H    -0.937    21.902    -5.276
    560    N    -1.851    21.640    -3.627
    561    C    -1.623    21.313    -2.340
    562    C    0.697    21.062    -2.599
    563    N    1.926    20.798    -2.179
    564    H    2.690    20.847    -2.838
    565    H    2.070    20.554    -1.210
    566    C    -4.795    20.310    -2.120
    567    H    -4.149    19.579    -2.342
    568    O    -5.550    20.739    -3.262
    569    H    -5.141    21.437    -3.779
    570    C    -5.705    19.842    -0.976
    571    H    -5.212    19.184    -0.407
    572    O    -6.956    19.375    -1.509
    573    P    -7.223    17.818    -1.848
    574    O    -8.553    17.661    -2.487
    575    O    -6.913    17.056    -0.619
    576    O    -6.100    17.475    -2.957
    577    C    -6.147    18.099    -4.246
    578    H    -6.241    19.087    -4.126
    579    H    -6.825    17.629    -4.811
    580    C    -4.843    17.944    -5.027
    581    H    -4.962    18.321    -5.945
    582    O    -3.758    18.642    -4.367
    583    C    -2.531    17.958    -4.699
    584    H    -2.006    18.591    -5.268
    585    N    -1.839    17.642    -3.435
    586    C    -0.301    17.161    -1.946
    587    N    -1.511    17.207    -1.256
    588    C    -2.367    17.489    -2.186
    589    H    -3.281    17.540    -1.783
    590    N    1.970    16.936    -2.474
    591    C    1.660    17.205    -3.744
    592    H    2.329    17.241    -4.486
    593    N    0.452    17.464    -4.237
    594    C    -0.490    17.424    -3.272
    595    C    1.010    16.906    -1.536
    596    N    1.336    16.658    -0.271
    597    H    2.305    16.496    -0.038
    598    H    0.607    16.637    0.428
    599    C    -2.881    16.714    -5.527
    600    H    -2.358    15.934    -5.182
    601    O    -2.686    16.934    -6.927
    602    H    -1.942    17.499    -7.149
    603    C    -4.352    16.519    -5.176
    604    H    -4.412    16.060    -4.290
    605    O    -5.058    15.991    -6.308
    606    P    -4.987    14.430    -6.722
    607    O    -5.756    14.222    -7.969
    608    O    -5.411    13.876    -5.428
    609    O    -3.429    14.118    -6.981
    610    C    -2.721    14.700    -8.081
    611    H    -2.796    15.696    -8.026
    612    H    -3.011    14.254    -8.928
    613    C    -1.230    14.413    -7.978
    614    H    -0.742    14.788    -8.766
    615    O    -0.676    14.971    -6.776
    616    C    0.524    14.230    -6.477
    617    H    1.290    14.813    -6.748