!*** FMO 5.2 (Gamess) INPUT generated by Facio 21.1.1.32 ***
 $CONTRL RUNTYP=OPTFMO NPRINT=-5 ISPHER=-1 MAXIT=50 $END
 $SYSTEM MWORDS=29 $END
 $GDDI NGROUP=1 $END
 $INTGRL NINTIC=-9000000 $END
 $SCF DIRSCF=.FALSE. NPUNCH=0 $END
!*** NumCPU : 2  MemPerNode : 512MB
 $FMOPRP
    NAODIR=210
    NGRFMO(1)=1, 1, 0, 0, 0,   0, 0, 0, 0, 0
    NPRINT=9
 $END
 $FMO
      SCFTYP(1)=RHF
      MODGRD=10
      MODMUL=0
      MAXCAO=5
      MAXBND=34
      NLAYER=1
      NFRAG=32
      ICHARG(1)=-1, -1, -1, -1, -1, -1, -1, -1, -1, -1, 
-1, -1, -1, -1, -1, -1, -1, -1, -1, -1, 
-1, -1, -1, -1, -1, -1, -1, -1, -1, -1, 
-1, 0
      FRGNAM(1)=Frag1, Frag2, Frag3, Frag4, Frag5, Frag6, Frag7, Frag8, Frag9, Frag10, Frag11, Frag12, Frag13, Frag14, Frag15, Frag16, Frag17, Frag18, Frag19, Frag20, Frag21, Frag22, Frag23, Frag24, Frag25, Frag26, Frag27, Frag28, Frag29, Frag30, Frag31, Frag32
      indat(1)=0
               1   -36   0
               37   -69   0
               70   -103   0
               104   -134   0
               135   -167   0
               168   -201   0
               202   -231   0
               232   -261   0
               262   -292   0
               293   -323   0
               324   -354   0
               355   -385   0
               386   -415   0
               416   -449   0
               450   -480   0
               481   -513   0
               514   -543   0
               544   -576   0
               577   -609   0
               610   -643   0
               644   -677   0
               678   -710   0
               711   -740   0
               741   -774   0
               775   -807   0
               808   -840   0
               841   -871   0
               872   -902   0
               903   -936   0
               937   -966   0
               967   -996   0
               997   -1024   0
 $END

 $FMOBND
   -37   36       3-21G    MINI
   -70   69       3-21G    MINI
   -104   103       3-21G    MINI
   -135   134       3-21G    MINI
   -168   167       3-21G    MINI
   -202   201       3-21G    MINI
   -232   231       3-21G    MINI
   -262   261       3-21G    MINI
   -293   292       3-21G    MINI
   -324   323       3-21G    MINI
   -355   354       3-21G    MINI
   -386   385       3-21G    MINI
   -416   415       3-21G    MINI
   -450   449       3-21G    MINI
   -481   480       3-21G    MINI
   -514   513       3-21G    MINI
   -544   543       3-21G    MINI
   -577   576       3-21G    MINI
   -610   609       3-21G    MINI
   -644   643       3-21G    MINI
   -678   677       3-21G    MINI
   -711   710       3-21G    MINI
   -741   740       3-21G    MINI
   -775   774       3-21G    MINI
   -808   807       3-21G    MINI
   -841   840       3-21G    MINI
   -872   871       3-21G    MINI
   -903   902       3-21G    MINI
   -937   936       3-21G    MINI
   -967   966       3-21G    MINI
   -997   996       3-21G    MINI
 $END
 $FMOHYB
 3-21G        9   5
   1 0  -0.070459   0.164841   0.000000   0.000000   0.502116
         0.466939   0.000000   0.000000   0.418036
   0 1  -0.070465   0.164857   0.473392   0.000000  -0.167359
         0.466967   0.394111   0.000000  -0.139327
   0 1  -0.070465   0.164857  -0.236695  -0.409969  -0.167359
         0.466967  -0.197055  -0.341311  -0.139327
   0 1  -0.070465   0.164857  -0.236695   0.409969  -0.167359
         0.466967  -0.197055   0.341311  -0.139327
   0 1   1.006716   0.074826   0.000000   0.000000   0.000000
        -0.143830   0.000000   0.000000  -0.000003
 MINI         5   5
   1 0  -0.104883   0.308874   0.000000   0.000000   0.521806
   0 1  -0.104883   0.308874   0.491961   0.000000  -0.173934
   0 1  -0.104883   0.308876  -0.245980  -0.426050  -0.173933
   0 1  -0.104883   0.308876  -0.245980   0.426050  -0.173933
   0 1   0.988209   0.063992   0.000000   0.000000   0.000000
 $END

 $DATA
 FMO calculation : XXNAMEXX
 C1 
 C.1-1    6
      N21 3
   
 O.1-1    8
      N21 3
   
 N.1-1    7
      N21 3
   
 H.1-1    1
      N21 3
   
 P.1-1   15
      N21 3
   
 $END
 $FMOXYZ
    1    H    8.853    -20.905    -1.654
    2    O    8.030    -20.964    -2.218
    3    C    8.314    -21.759    -3.375
    4    H    8.513    -22.695    -3.086
    5    H    8.994    -21.287    -3.935
    6    C    7.096    -21.893    -4.287
    7    H    7.361    -22.362    -5.129
    8    O    6.056    -22.618    -3.664
    9    C    4.844    -22.314    -4.384
    10    H    4.736    -23.029    -5.074
    11    N    3.736    -22.304    -3.403
    12    C    2.399    -22.477    -3.683
    13    N    -0.145    -23.076    -5.966
    14    H    -1.145    -23.187    -6.051
    15    H    0.392    -23.160    -6.817
    16    N    1.867    -22.710    -4.906
    17    C    0.539    -22.832    -4.857
    18    N    -0.197    -22.732    -3.705
    19    H    -1.218    -22.843    -3.784
    20    C    0.320    -22.494    -2.446
    21    O    -0.431    -22.419    -1.478
    22    C    1.737    -22.361    -2.481
    23    N    2.638    -22.121    -1.447
    24    C    3.785    -22.099    -2.052
    25    H    4.505    -21.929    -1.379
    26    C    5.055    -20.971    -5.087
    27    H    4.404    -20.315    -4.706
    28    O    4.945    -21.084    -6.511
    29    H    4.317    -21.742    -6.818
    30    C    6.463    -20.567    -4.677
    31    H    6.402    -19.984    -3.867
    32    O    7.171    -20.003    -5.788
    33    P    7.203    -18.413    -6.038
    34    O    8.084    -18.132    -7.193
    35    O    7.460    -17.762    -4.735
    36    O    5.686    -18.107    -6.476
    37    C    5.172    -18.653    -7.694
    38    H    5.300    -19.645    -7.686
    39    H    5.547    -18.138    -8.465
    40    C    3.665    -18.471    -7.819
    41    H    3.362    -18.799    -8.714
    42    O    2.974    -19.211    -6.787
    43    C    1.642    -18.660    -6.747
    44    H    1.102    -19.163    -7.422
    45    N    1.120    -18.832    -5.376
    46    C    -0.211    -19.195    -3.667
    47    N    1.036    -18.892    -3.129
    48    C    1.769    -18.688    -4.182
    49    H    2.698    -18.457    -3.892
    50    N    -2.475    -19.753    -3.902
    51    C    -2.312    -19.690    -5.225
    52    H    -3.043    -19.860    -5.886
    53    N    -1.191    -19.401    -5.883
    54    C    -0.172    -19.162    -5.032
    55    C    -1.440    -19.510    -3.082
    56    N    -1.617    -19.581    -1.766
    57    H    -2.531    -19.817    -1.407
    58    H    -0.833    -19.397    -1.156
    59    C    1.753    -17.200    -7.187
    60    H    1.618    -16.631    -6.376
    61    O    0.843    -16.893    -8.246
    62    H    0.017    -17.382    -8.225
    63    C    3.184    -17.038    -7.673
    64    H    3.712    -16.589    -6.952
    65    O    3.206    -16.396    -8.954
    66    P    2.841    -14.842    -9.114
    67    O    3.242    -14.391    -10.465
    68    O    3.370    -14.162    -7.915
    69    O    1.234    -14.840    -9.041
    70    C    0.458    -15.407    -10.101
    71    H    0.751    -16.352    -10.249
    72    H    0.471    -14.784    -10.883
    73    C    -1.014    -15.521    -9.733
    74    H    -1.565    -15.928    -10.462
    75    O    -1.150    -16.311    -8.550
    76    C    -2.490    -16.142    -8.040
    77    H    -3.064    -16.882    -8.389
    78    N    -2.408    -16.130    -6.565
    79    C    -3.470    -16.142    -5.693
    80    N    -6.893    -16.209    -5.119
    81    H    -7.589    -16.210    -4.387
    82    H    -7.237    -16.239    -6.068
    83    N    -4.780    -16.177    -6.035
    84    C    -5.577    -16.173    -4.968
    85    N    -5.123    -16.141    -3.674
    86    H    -5.829    -16.146    -2.924
    87    C    -3.795    -16.102    -3.297
    88    O    -3.498    -16.072    -2.106
    89    C    -2.930    -16.104    -4.426
    90    N    -1.538    -16.072    -4.491
    91    C    -1.300    -16.090    -5.766
    92    H    -0.311    -16.070    -5.913
    93    C    -2.919    -14.824    -8.698
    94    H    -3.256    -14.226    -7.971
    95    O    -3.874    -15.033    -9.743
    96    H    -4.461    -15.781    -9.612
    97    C    -1.655    -14.225    -9.284
    98    H    -1.092    -13.815    -8.567
    99    O    -1.951    -13.361    -10.385
    100    P    -1.950    -11.762    -10.192
    101    O    -2.240    -11.128    -11.496
    102    O    -0.721    -11.405    -9.448
    103    O    -3.214    -11.529    -9.225
    104    C    -4.536    -11.748    -9.724
    105    H    -4.605    -12.687    -10.061
    106    H    -4.775    -11.006    -10.351
    107    C    -5.592    -11.666    -8.630
    108    H    -6.510    -11.743    -9.019
    109    O    -5.403    -12.713    -7.674
    110    C    -6.031    -12.290    -6.450
    111    H    -6.876    -12.818    -6.366
    112    N    -5.084    -12.552    -5.348
    113    C    -3.738    -12.604    -5.573
    114    H    -3.220    -12.522    -6.425
    115    C    -2.880    -12.792    -4.556
    116    H    -1.884    -12.861    -4.503
    117    C    -5.608    -12.696    -4.074
    118    O    -6.823    -12.662    -3.897
    119    N    -4.747    -12.883    -3.039
    120    C    -3.425    -12.931    -3.246
    121    N    -2.607    -13.081    -2.211
    122    H    -3.001    -13.156    -1.284
    123    H    -1.607    -13.120    -2.346
    124    C    -6.383    -10.807    -6.609
    125    H    -6.063    -10.314    -5.800
    126    O    -7.779    -10.614    -6.864
    127    H    -8.362    -11.236    -6.421
    128    C    -5.540    -10.396    -7.804
    129    H    -4.598    -10.238    -7.509
    130    O    -6.149    -9.299    -8.507
    131    P    -5.752    -7.776    -8.128
    132    O    -6.386    -6.878    -9.120
    133    O    -4.288    -7.689    -7.893
    134    O    -6.500    -7.566    -6.719
    135    C    -7.931    -7.594    -6.663
    136    H    -8.252    -8.486    -6.982
    137    H    -8.291    -6.777    -7.114
    138    C    -8.446    -7.495    -5.233
    139    H    -9.444    -7.440    -5.221
    140    O    -8.022    -8.659    -4.444
    141    C    -8.104    -8.250    -3.065
    142    H    -8.928    -8.674    -2.690
    143    N    -6.877    -8.729    -2.394
    144    C    -5.450    -9.436    -0.882
    145    N    -4.773    -9.470    -2.100
    146    C    -5.664    -9.042    -2.943
    147    H    -5.265    -9.028    -3.860
    148    N    -5.979    -9.615    1.391
    149    C    -7.200    -9.164    1.103
    150    H    -7.920    -9.029    1.783
    151    N    -7.667    -8.824    -0.096
    152    C    -6.728    -8.986    -1.049
    153    C    -5.068    -9.767    0.420
    154    N    -3.857    -10.220    0.729
    155    H    -3.648    -10.441    1.692
    156    H    -3.174    -10.333    -0.006
    157    C    -8.277    -6.726    -3.053
    158    H    -7.610    -6.344    -2.413
    159    O    -9.624    -6.344    -2.755
    160    H    -10.086    -6.928    -2.150
    161    C    -7.906    -6.303    -4.466
    162    H    -6.911    -6.277    -4.564
    163    O    -8.576    -5.086    -4.836
    164    P    -7.852    -3.656    -4.575
    165    O    -8.746    -2.595    -5.093
    166    O    -6.438    -3.706    -5.025
    167    O    -7.864    -3.573    -2.968
    168    C    -9.114    -3.567    -2.271
    169    H    -9.720    -4.248    -2.683
    170    H    -9.445    -2.626    -2.203
    171    C    -8.968    -4.019    -0.825
    172    H    -9.850    -4.208    -0.393
    173    O    -8.174    -5.193    -0.787
    174    C    -7.673    -5.348    0.555
    175    H    -8.240    -6.034    1.012
    176    N    -6.259    -5.765    0.453
    177    C    -5.450    -6.152    1.497
    178    N    -4.973    -6.730    4.887
    179    H    -4.290    -7.031    5.567
    180    H    -5.885    -6.483    5.243
    181    N    -5.805    -6.209    2.802
    182    C    -4.801    -6.624    3.577
    183    N    -3.557    -6.954    3.106
    184    H    -2.855    -7.261    3.795
    185    C    -3.169    -6.908    1.779
    186    O    -2.030    -7.237    1.461
    187    C    -4.229    -6.465    0.941
    188    N    -4.258    -6.277    -0.440
    189    C    -5.470    -5.868    -0.657
    190    H    -5.588    -5.703    -1.636
    191    C    -7.902    -3.986    1.222
    192    H    -7.045    -3.704    1.653
    193    O    -9.000    -4.017    2.140
    194    H    -9.122    -4.852    2.598
    195    C    -8.201    -3.054    0.058
    196    H    -7.352    -2.796    -0.403
    197    O    -9.038    -1.968    0.477
    198    P    -8.406    -0.537    0.864
    199    O    -9.515    0.421    1.060
    200    O    -7.322    -0.230    -0.094
    201    O    -7.742    -0.839    2.298
    202    C    -8.567    -1.144    3.429
    203    H    -9.178    -1.900    3.192
    204    H    -8.978    -0.298    3.770
    205    C    -7.747    -1.669    4.601
    206    H    -8.308    -1.877    5.402
    207    O    -7.074    -2.835    4.198
    208    C    -5.862    -2.975    4.965
    209    H    -5.963    -3.782    5.547
    210    N    -4.740    -3.091    4.005
    211    C    -4.879    -2.666    2.711
    212    H    -5.674    -2.265    2.255
    213    C    -3.550    -3.627    4.462
    214    O    -3.399    -4.013    5.615
    215    N    -2.528    -3.700    3.539
    216    H    -1.632    -4.094    3.861
    217    C    -2.585    -3.296    2.221
    218    O    -1.605    -3.408    1.493
    219    C    -3.861    -2.750    1.827
    220    H    -3.817    -2.482    0.864
    221    C    -5.814    -1.730    5.845
    222    H    -4.868    -1.410    5.898
    223    O    -6.402    -1.954    7.130
    224    H    -6.269    -2.835    7.488
    225    C    -6.628    -0.735    5.039
    226    H    -6.116    -0.439    4.232
    227    O    -7.113    0.316    5.871
    228    P    -6.336    1.708    5.957
    229    O    -7.122    2.631    6.799
    230    O    -5.977    2.073    4.574
    231    O    -4.998    1.304    6.748
    232    C    -5.074    0.876    8.112
    233    H    -5.708    0.106    8.177
    234    H    -5.242    1.672    8.694
    235    C    -3.754    0.313    8.627
    236    H    -3.814    -0.002    9.574
    237    O    -3.371    -0.767    7.808
    238    C    -1.938    -0.927    7.871
    239    H    -1.752    -1.756    8.399
    240    N    -1.444    -1.017    6.478
    241    C    -2.210    -0.574    5.434
    242    H    -3.130    -0.181    5.441
    243    C    -0.179    -1.537    6.272
    244    O    0.524    -1.944    7.191
    245    N    0.253    -1.576    4.964
    246    H    1.193    -1.959    4.791
    247    C    -0.452    -1.151    3.857
    248    O    0.041    -1.230    2.737
    249    C    -1.763    -0.625    4.160
    250    H    -2.205    -0.343    3.309
    251    C    -1.430    0.288    8.655
    252    H    -0.629    0.660    8.186
    253    O    -1.179    -0.032    10.025
    254    H    -0.845    -0.919    10.179
    255    C    -2.585    1.270    8.519
    256    H    -2.579    1.674    7.604
    257    O    -2.609    2.203    9.605
    258    P    -1.940    3.657    9.448
    259    O    -2.178    4.420    10.693
    260    O    -2.358    4.210    8.141
    261    O    -0.378    3.291    9.367
    262    C    0.270    2.667    10.483
    263    H    -0.226    1.832    10.722
    264    H    0.413    3.349    11.200
    265    C    1.670    2.189    10.129
    266    H    2.129    1.703    10.872
    267    O    1.592    1.322    8.978
    268    C    2.869    1.240    8.321
    269    H    3.306    0.376    8.570
    270    N    2.629    1.352    6.865
    271    C    1.470    1.888    6.383
    272    H    0.673    2.248    6.868
    273    C    1.263    1.996    5.060
    274    H    0.504    2.348    4.512
    275    C    3.627    0.904    6.010
    276    O    4.667    0.431    6.465
    277    N    3.426    1.011    4.671
    278    C    2.293    1.535    4.186
    279    N    2.130    1.631    2.871
    280    H    2.867    1.305    2.263
    281    H    1.284    2.023    2.484
    282    C    3.636    2.394    8.976
    283    H    4.090    2.900    8.243
    284    O    4.544    1.929    9.979
    285    H    4.917    1.059    9.817
    286    C    2.582    3.285    9.614
    287    H    2.097    3.811    8.916
    288    O    3.152    4.064    10.679
    289    P    3.526    5.620    10.414
    290    O    4.098    6.174    11.662
    291    O    2.379    6.307    9.763
    292    O    4.710    5.505    9.327
    293    C    5.947    4.866    9.665
    294    H    5.752    3.967    10.057
    295    H    6.505    5.500    10.200
    296    C    6.773    4.576    8.422
    297    H    7.627    4.089    8.606
    298    O    5.988    3.809    7.516
    299    C    6.414    4.082    6.168
    300    H    6.814    3.245    5.795
    301    N    5.215    4.527    5.417
    302    C    4.101    4.955    6.078
    303    H    3.928    5.045    7.059
    304    C    3.005    5.341    5.404
    305    H    2.108    5.677    5.690
    306    C    5.256    4.481    4.028
    307    O    6.273    4.103    3.452
    308    N    4.147    4.871    3.336
    309    C    3.050    5.290    3.979
    310    N    1.981    5.659    3.280
    311    H    2.018    5.616    2.272
    312    H    1.144    5.978    3.747
    313    C    7.515    5.130    6.331
    314    H    7.458    5.783    5.576
    315    O    8.809    4.535    6.466
    316    H    8.946    3.740    5.946
    317    C    7.090    5.820    7.615
    318    H    6.247    6.339    7.473
    319    O    8.165    6.583    8.187
    320    P    8.214    8.189    7.947
    321    O    9.310    8.742    8.779
    322    O    6.850    8.776    8.050
    323    O    8.671    8.273    6.408
    324    C    9.964    7.788    6.036
    325    H    10.036    6.824    6.291
    326    H    10.660    8.418    6.382
    327    C    10.164    7.795    4.529
    328    H    11.077    7.486    4.264
    329    O    9.183    6.942    3.912
    330    C    8.912    7.455    2.594
    331    H    9.216    6.762    1.940
    332    N    7.453    7.711    2.517
    333    C    6.716    7.871    3.654
    334    H    6.997    7.856    4.613
    335    C    5.391    8.089    3.590
    336    H    4.685    8.229    4.284
    337    C    6.864    7.766    1.259
    338    O    7.545    7.629    0.246
    339    N    5.521    7.987    1.185
    340    C    4.789    8.146    2.298
    341    N    3.480    8.362    2.193
    342    H    3.064    8.402    1.273
    343    H    2.910    8.484    3.018
    344    C    9.787    8.704    2.441
    345    H    9.281    9.401    1.933
    346    O    11.058    8.403    1.858
    347    H    11.044    7.717    1.186
    348    C    9.919    9.145    3.888
    349    H    9.047    9.508    4.217
    350    O    11.046    10.010    4.063
    351    P    10.856    11.609    3.998
    352    O    12.157    12.234    4.317
    353    O    9.646    11.974    4.773
    354    O    10.546    11.851    2.439
    355    C    11.526    11.521    1.449
    356    H    11.765    10.554    1.537
    357    H    12.266    12.192    1.487
    358    C    10.965    11.650    0.038
    359    H    11.637    11.416    -0.665
    360    O    9.818    10.801    -0.111
    361    C    8.957    11.369    -1.114
    362    H    9.009    10.771    -1.914
    363    N    7.597    11.428    -0.532
    364    C    7.424    11.410    0.820
    365    H    8.100    11.378    1.557
    366    C    6.194    11.436    1.356
    367    H    5.856    11.429    2.297
    368    C    6.512    11.477    -1.398
    369    O    6.689    11.503    -2.615
    370    N    5.261    11.504    -0.863
    371    C    5.082    11.484    0.464
    372    N    3.850    11.502    0.960
    373    H    3.067    11.531    0.322
    374    H    3.696    11.487    1.958
    375    C    9.550    12.733    -1.472
    376    H    8.809    13.403    -1.513
    377    O    10.310    12.688    -2.682
    378    H    9.977    12.081    -3.347
    379    C    10.429    13.038    -0.265
    380    H    9.857    13.340    0.498
    381    O    11.493    13.925    -0.609
    382    P    11.315    15.504    -0.397
    383    O    12.551    16.173    -0.854
    384    O    10.802    15.733    0.971
    385    O    10.143    15.831    -1.445
    386    C    10.346    15.582    -2.839
    387    H    10.637    14.633    -2.961
    388    H    10.927    16.303    -3.217
    389    C    9.052    15.685    -3.630
    390    H    9.202    15.447    -4.590
    391    O    8.074    14.825    -3.091
    392    C    6.797    15.327    -3.519
    393    H    6.513    14.755    -4.288
    394    N    5.872    15.219    -2.371
    395    C    6.350    15.118    -1.093
    396    H    7.295    15.096    -0.766
    397    C    4.515    15.231    -2.635
    398    O    4.064    15.320    -3.773
    399    N    3.685    15.139    -1.537
    400    H    2.670    15.149    -1.711
    401    C    4.082    15.034    -0.221
    402    O    3.247    14.950    0.676
    403    C    5.515    15.029    -0.034
    404    H    5.716    14.953    0.943
    405    C    7.003    16.760    -4.013
    406    H    6.381    17.359    -3.508
    407    O    6.835    16.869    -5.432
    408    H    6.179    16.278    -5.809
    409    C    8.435    17.070    -3.599
    410    H    8.441    17.408    -2.658
    411    O    9.062    17.932    -4.558
    412    P    9.245    19.500    -4.223
    413    O    9.777    20.161    -5.437
    414    O    9.955    19.649    -2.930
    415    O    7.721    19.976    -4.018
    416    C    6.805    19.978    -5.119
    417    H    6.825    19.081    -5.561
    418    H    6.978    20.784    -5.685
    419    C    5.362    20.142    -4.649
    420    H    4.746    20.258    -5.428
    421    O    4.959    19.004    -3.908
    422    C    3.981    19.404    -2.926
    423    H    3.117    18.971    -3.181
    424    N    4.468    18.980    -1.598
    425    C    3.696    18.731    -0.484
    426    N    0.581    18.476    1.030
    427    H    0.122    18.270    1.906
    428    H    -0.019    18.698    0.248
    429    N    2.346    18.779    -0.423
    430    C    1.886    18.486    0.796
    431    N    2.692    18.173    1.861
    432    H    2.232    17.964    2.758
    433    C    4.072    18.117    1.823
    434    O    4.698    17.828    2.836
    435    C    4.574    18.425    0.531
    436    N    5.886    18.477    0.072
    437    C    5.752    18.805    -1.174
    438    H    6.658    18.867    -1.594
    439    C    3.837    20.913    -3.057
    440    H    3.798    21.309    -2.139
    441    O    2.708    21.275    -3.863
    442    H    1.952    20.687    -3.789
    443    C    5.147    21.323    -3.718
    444    H    5.877    21.336    -3.035
    445    O    4.999    22.555    -4.435
    446    P    5.651    23.896    -3.810
    447    O    5.390    25.008    -4.747
    448    O    7.040    23.611    -3.377
    449    O    4.752    24.105    -2.489
    450    C    5.180    24.942    -1.416
    451    H    5.207    25.890    -1.733
    452    H    6.012    24.558    -1.015
    453    C    4.167    24.946    -0.274
    454    H    4.555    25.391    0.533
    455    O    3.022    25.676    -0.701
    456    C    1.858    24.831    -0.705
    457    H    1.180    25.290    -0.131
    458    N    1.405    24.706    -2.110
    459    C    2.213    24.156    -3.065
    460    H    3.135    23.777    -2.990
    461    C    1.802    24.059    -4.342
    462    H    2.227    23.700    -5.173
    463    C    0.138    25.178    -2.424
    464    O    -0.575    25.664    -1.550
    465    N    -0.285    25.083    -3.717
    466    C    0.500    24.547    -4.659
    467    N    0.059    24.475    -5.912
    468    H    -0.863    24.828    -6.126
    469    H    0.634    24.074    -6.639
    470    C    2.234    23.493    -0.059
    471    H    2.047    22.777    -0.731
    472    O    1.547    23.277    1.178
    473    H    0.672    23.669    1.229
    474    C    3.735    23.561    0.188
    475    H    4.163    22.874    -0.399
    476    O    4.015    23.435    1.591
    477    P    3.838    22.017    2.351
    478    O    4.708    22.023    3.549
    479    O    3.973    20.934    1.351
    480    O    2.298    22.056    2.847
    481    C    1.841    23.026    3.811
    482    H    1.949    23.943    3.427
    483    H    2.270    22.834    4.694
    484    C    0.337    22.916    4.095
    485    H    0.092    23.492    4.875
    486    O    -0.380    23.362    2.944
    487    C    -1.358    22.395    2.557
    488    H    -2.238    22.754    2.867
    489    N    -1.322    22.253    1.089
    490    C    -1.869    22.341    -1.033
    491    N    -0.539    21.927    -0.991
    492    C    -0.285    21.892    0.280
    493    H    0.660    21.595    0.415
    494    N    -3.996    22.971    -1.779
    495    C    -4.354    23.125    -0.505
    496    H    -5.267    23.412    -0.214
    497    N    -3.596    22.934    0.571
    498    C    -2.352    22.537    0.227
    499    C    -2.752    22.579    -2.089
    500    N    -2.399    22.474    -3.367
    501    H    -3.078    22.693    -4.082
    502    H    -1.460    22.178    -3.593
    503    C    -1.070    21.100    3.286
    504    H    -0.567    20.504    2.660
    505    O    -2.272    20.503    3.781
    506    H    -3.051    20.651    3.240
    507    C    -0.152    21.499    4.435
    508    H    0.629    20.874    4.424
    509    O    -0.911    21.542    5.652
    510    P    -1.501    20.189    6.319
    511    O    -1.583    20.402    7.782
    512    O    -0.728    19.040    5.788
    513    O    -3.007    20.095    5.741
    514    C    -4.130    19.849    6.605
    515    H    -4.176    20.573    7.293
    516    H    -4.095    18.902    6.923
    517    C    -5.459    19.951    5.854
    518    H    -6.208    19.608    6.420
    519    O    -5.703    21.331    5.543
    520    C    -5.944    21.469    4.137
    521    H    -6.935    21.444    4.004
    522    N    -5.394    22.782    3.675
    523    C    -4.359    23.381    4.352
    524    H    -3.878    23.076    5.174
    525    C    -5.939    23.378    2.537
    526    O    -6.856    22.880    1.896
    527    N    -5.377    24.576    2.152
    528    H    -5.771    25.028    1.315
    529    C    -4.338    25.234    2.774
    530    O    -3.916    26.295    2.326
    531    C    -3.829    24.558    3.942
    532    H    -3.083    25.098    4.331
    533    C    -5.320    20.230    3.477
    534    H    -4.342    20.393    3.348
    535    O    -5.977    19.901    2.247
    536    H    -6.295    20.654    1.743
    537    C    -5.510    19.155    4.556
    538    H    -4.726    18.535    4.523
    539    O    -6.797    18.538    4.402
    540    P    -6.972    17.139    3.620
    541    O    -8.375    16.698    3.789
    542    O    -5.867    16.242    4.022
    543    O    -6.756    17.551    2.073
    544    C    -7.695    18.400    1.392
    545    H    -7.698    19.299    1.830
    546    H    -8.567    17.918    1.305
    547    C    -7.259    18.673    -0.048
    548    H    -7.965    19.195    -0.527
    549    O    -6.017    19.415    -0.087
    550    C    -5.500    19.258    -1.408
    551    H    -5.784    20.069    -1.919
    552    N    -4.033    19.174    -1.316
    553    C    -1.899    19.255    -1.811
    554    N    -1.970    18.914    -0.461
    555    C    -3.250    18.885    -0.235
    556    H    -3.406    18.647    0.724
    557    N    -1.112    19.779    -3.954
    558    C    -2.378    19.903    -4.347
    559    H    -2.653    20.145    -5.277
    560    N    -3.465    19.735    -3.605
    561    C    -3.148    19.411    -2.336
    562    C    -0.827    19.455    -2.684
    563    N    0.440    19.336    -2.315
    564    H    1.166    19.492    -2.999
    565    H    0.650    19.092    -1.358
    566    C    -6.162    18.020    -2.028
    567    H    -5.442    17.378    -2.291
    568    O    -7.008    18.376    -3.130
    569    H    -6.707    19.128    -3.645
    570    C    -6.961    17.424    -0.862
    571    H    -6.367    16.822    -0.328
    572    O    -8.159    16.812    -1.357
    573    P    -8.192    15.222    -1.624
    574    O    -9.519    14.890    -2.190
    575    O    -7.719    14.527    -0.406
    576    O    -7.086    15.022    -2.784
    577    C    -7.278    15.625    -4.069
    578    H    -7.491    16.594    -3.945
    579    H    -7.919    15.068    -4.597
    580    C    -6.009    15.632    -4.919
    581    H    -6.226    15.989    -5.828
    582    O    -4.988    16.468    -4.314
    583    C    -3.702    15.945    -4.708
    584    H    -3.293    16.635    -5.305
    585    N    -2.912    15.731    -3.481
    586    C    -1.251    15.463    -2.072
    587    N    -2.419    15.359    -1.321
    588    C    -3.352    15.521    -2.206
    589    H    -4.243    15.456    -1.756
    590    N    1.001    15.527    -2.717
    591    C    0.594    15.744    -3.969
    592    H    1.214    15.860    -4.745
    593    N    -0.660    15.842    -4.399
    594    C    -1.539    15.689    -3.387
    595    C    0.101    15.382    -1.730
    596    N    0.521    15.188    -0.483
    597    H    1.514    15.153    -0.301
    598    H    -0.163    15.080    0.253
    599    C    -3.934    14.659    -5.515
    600    H    -3.301    13.956    -5.191
    601    O    -3.837    14.892    -6.923
    602    H    -3.185    15.547    -7.181
    603    C    -5.352    14.278    -5.105
    604    H    -5.316    13.810    -4.222
    605    O    -6.005    13.543    -6.157
    606    P    -5.881    11.920    -6.193
    607    O    -6.711    11.434    -7.319
    608    O    -6.078    11.341    -4.838
    609    O    -4.333    11.723    -6.598
    610    C    -3.817    12.328    -7.790
    611    H    -4.025    13.306    -7.775
    612    H    -4.119    11.797    -8.582
    613    C    -2.296    12.261    -7.842
    614    H    -1.953    12.653    -8.696
    615    O    -1.714    12.971    -6.733
    616    C    -0.395    12.429    -6.529
    617    H    0.246    13.095    -6.909