!*** FMO 5.2 (Gamess) INPUT generated by Facio 21.1.1.32 ***
 $CONTRL RUNTYP=OPTFMO NPRINT=-5 ISPHER=-1 MAXIT=50 $END
 $SYSTEM MWORDS=29 $END
 $GDDI NGROUP=1 $END
 $INTGRL NINTIC=-9000000 $END
 $SCF DIRSCF=.FALSE. NPUNCH=0 $END
!*** NumCPU : 2  MemPerNode : 512MB
 $FMOPRP
    NAODIR=210
    NGRFMO(1)=1, 1, 0, 0, 0,   0, 0, 0, 0, 0
    NPRINT=9
 $END
 $FMO
      SCFTYP(1)=RHF
      MODGRD=10
      MODMUL=0
      MAXCAO=5
      MAXBND=34
      NLAYER=1
      NFRAG=32
      ICHARG(1)=-1, -1, -1, -1, -1, -1, -1, -1, -1, -1, 
-1, -1, -1, -1, -1, -1, -1, -1, -1, -1, 
-1, -1, -1, -1, -1, -1, -1, -1, -1, -1, 
-1, 0
      FRGNAM(1)=Frag1, Frag2, Frag3, Frag4, Frag5, Frag6, Frag7, Frag8, Frag9, Frag10, Frag11, Frag12, Frag13, Frag14, Frag15, Frag16, Frag17, Frag18, Frag19, Frag20, Frag21, Frag22, Frag23, Frag24, Frag25, Frag26, Frag27, Frag28, Frag29, Frag30, Frag31, Frag32
      indat(1)=0
               1   -36   0
               37   -69   0
               70   -103   0
               104   -134   0
               135   -167   0
               168   -201   0
               202   -231   0
               232   -261   0
               262   -292   0
               293   -323   0
               324   -354   0
               355   -385   0
               386   -415   0
               416   -449   0
               450   -480   0
               481   -513   0
               514   -543   0
               544   -576   0
               577   -609   0
               610   -643   0
               644   -677   0
               678   -710   0
               711   -740   0
               741   -774   0
               775   -807   0
               808   -840   0
               841   -871   0
               872   -902   0
               903   -936   0
               937   -966   0
               967   -996   0
               997   -1024   0
 $END

 $FMOBND
   -37   36       3-21G    MINI
   -70   69       3-21G    MINI
   -104   103       3-21G    MINI
   -135   134       3-21G    MINI
   -168   167       3-21G    MINI
   -202   201       3-21G    MINI
   -232   231       3-21G    MINI
   -262   261       3-21G    MINI
   -293   292       3-21G    MINI
   -324   323       3-21G    MINI
   -355   354       3-21G    MINI
   -386   385       3-21G    MINI
   -416   415       3-21G    MINI
   -450   449       3-21G    MINI
   -481   480       3-21G    MINI
   -514   513       3-21G    MINI
   -544   543       3-21G    MINI
   -577   576       3-21G    MINI
   -610   609       3-21G    MINI
   -644   643       3-21G    MINI
   -678   677       3-21G    MINI
   -711   710       3-21G    MINI
   -741   740       3-21G    MINI
   -775   774       3-21G    MINI
   -808   807       3-21G    MINI
   -841   840       3-21G    MINI
   -872   871       3-21G    MINI
   -903   902       3-21G    MINI
   -937   936       3-21G    MINI
   -967   966       3-21G    MINI
   -997   996       3-21G    MINI
 $END
 $FMOHYB
 3-21G        9   5
   1 0  -0.070459   0.164841   0.000000   0.000000   0.502116
         0.466939   0.000000   0.000000   0.418036
   0 1  -0.070465   0.164857   0.473392   0.000000  -0.167359
         0.466967   0.394111   0.000000  -0.139327
   0 1  -0.070465   0.164857  -0.236695  -0.409969  -0.167359
         0.466967  -0.197055  -0.341311  -0.139327
   0 1  -0.070465   0.164857  -0.236695   0.409969  -0.167359
         0.466967  -0.197055   0.341311  -0.139327
   0 1   1.006716   0.074826   0.000000   0.000000   0.000000
        -0.143830   0.000000   0.000000  -0.000003
 MINI         5   5
   1 0  -0.104883   0.308874   0.000000   0.000000   0.521806
   0 1  -0.104883   0.308874   0.491961   0.000000  -0.173934
   0 1  -0.104883   0.308876  -0.245980  -0.426050  -0.173933
   0 1  -0.104883   0.308876  -0.245980   0.426050  -0.173933
   0 1   0.988209   0.063992   0.000000   0.000000   0.000000
 $END

 $DATA
 FMO calculation : XXNAMEXX
 C1 
 C.1-1    6
      N21 3
   
 O.1-1    8
      N21 3
   
 N.1-1    7
      N21 3
   
 H.1-1    1
      N21 3
   
 P.1-1   15
      N21 3
   
 $END
 $FMOXYZ
    1    H    4.743    -22.799    5.603
    2    O    4.381    -23.004    4.694
    3    C    5.274    -23.902    4.029
    4    H    5.285    -24.773    4.520
    5    H    6.147    -23.439    3.876
    6    C    4.776    -24.253    2.636
    7    H    5.537    -24.819    2.319
    8    O    3.616    -25.051    2.726
    9    C    3.008    -25.019    1.428
    10    H    3.303    -25.846    0.950
    11    N    1.535    -25.029    1.623
    12    C    0.590    -25.408    0.693
    13    N    -0.211    -26.653    -2.447
    14    H    -0.986    -26.900    -3.045
    15    H    0.714    -26.793    -2.827
    16    N    0.844    -25.885    -0.548
    17    C    -0.277    -26.164    -1.216
    18    N    -1.537    -25.987    -0.705
    19    H    -2.333    -26.235    -1.310
    20    C    -1.825    -25.503    0.556
    21    O    -2.993    -25.380    0.914
    22    C    -0.639    -25.200    1.282
    23    N    -0.484    -24.699    2.572
    24    C    0.805    -24.624    2.707
    25    H    1.017    -24.269    3.618
    26    C    3.580    -23.789    0.700
    27    H    2.821    -23.143    0.612
    28    O    4.246    -24.160    -0.507
    29    H    3.887    -24.934    -0.947
    30    C    4.670    -23.163    1.583
    31    H    4.327    -22.328    2.013
    32    O    5.998    -23.087    0.993
    33    P    6.343    -21.988    -0.154
    34    O    7.702    -22.285    -0.670
    35    O    6.368    -20.741    0.622
    36    O    5.340    -21.924    -1.443
    37    C    5.485    -22.732    -2.627
    38    H    5.538    -23.694    -2.360
    39    H    6.225    -22.359    -3.187
    40    C    4.223    -22.599    -3.461
    41    H    4.399    -23.195    -4.245
    42    O    3.094    -23.118    -2.719
    43    C    1.934    -22.615    -3.401
    44    H    1.694    -23.287    -4.102
    45    N    0.847    -22.473    -2.406
    46    C    -1.128    -22.441    -1.441
    47    N    -0.224    -21.982    -0.487
    48    C    0.912    -22.023    -1.116
    49    H    1.635    -21.704    -0.503
    50    N    -3.097    -23.100    -2.529
    51    C    -2.363    -23.358    -3.613
    52    H    -2.741    -23.704    -4.472
    53    N    -1.047    -23.209    -3.747
    54    C    -0.490    -22.742    -2.610
    55    C    -2.511    -22.636    -1.413
    56    N    -3.255    -22.386    -0.339
    57    H    -4.250    -22.551    -0.384
    58    H    -2.807    -22.037    0.496
    59    C    2.366    -21.308    -4.087
    60    H    2.000    -20.565    -3.527
    61    O    2.007    -21.306    -5.468
    62    H    1.206    -21.791    -5.679
    63    C    3.892    -21.244    -4.064
    64    H    4.185    -20.526    -3.432
    65    O    4.481    -21.257    -5.393
    66    P    4.265    -19.973    -6.364
    67    O    5.081    -20.129    -7.594
    68    O    4.612    -18.823    -5.497
    69    O    2.710    -19.843    -6.849
    70    C    2.148    -20.400    -8.055
    71    H    2.242    -21.395    -8.029
    72    H    2.524    -19.914    -8.844
    73    C    0.640    -20.162    -8.145
    74    H    0.236    -20.639    -8.926
    75    O    0.048    -20.659    -6.938
    76    C    -1.305    -20.174    -6.851
    77    H    -1.926    -20.872    -7.209
    78    N    -1.589    -19.845    -5.438
    79    C    -2.809    -19.486    -4.914
    80    N    -6.200    -18.869    -5.329
    81    H    -7.037    -18.591    -4.836
    82    H    -6.300    -19.060    -6.316
    83    N    -3.973    -19.387    -5.600
    84    C    -4.985    -19.011    -4.820
    85    N    -4.864    -18.756    -3.478
    86    H    -5.715    -18.476    -2.970
    87    C    -3.691    -18.845    -2.753
    88    O    -3.694    -18.591    -1.553
    89    C    -2.599    -19.245    -3.573
    90    N    -1.261    -19.453    -3.245
    91    C    -0.729    -19.800    -4.377
    92    H    0.246    -19.972    -4.239
    93    C    -1.268    -18.989    -7.828
    94    H    -1.639    -18.205    -7.331
    95    O    -1.971    -19.284    -9.039
    96    H    -2.702    -19.899    -8.944
    97    C    0.181    -18.713    -8.174
    98    H    0.638    -18.212    -7.439
    99    O    0.219    -18.076    -9.463
    100    P    0.334    -16.466    -9.616
    101    O    0.354    -16.120    -11.049
    102    O    1.435    -15.998    -8.744
    103    O    -1.051    -15.883    -9.030
    104    C    -2.281    -15.849    -9.765
    105    H    -2.556    -16.785    -9.984
    106    H    -2.192    -15.199    -10.519
    107    C    -3.461    -15.304    -8.953
    108    H    -4.272    -15.313    -9.537
    109    O    -3.682    -16.175    -7.832
    110    C    -4.406    -15.426    -6.846
    111    H    -5.342    -15.778    -6.844
    112    N    -3.746    -15.614    -5.537
    113    C    -2.422    -15.937    -5.460
    114    H    -1.760    -16.125    -6.185
    115    C    -1.809    -16.046    -4.269
    116    H    -0.872    -16.267    -3.997
    117    C    -4.501    -15.396    -4.394
    118    O    -5.695    -15.123    -4.484
    119    N    -3.888    -15.502    -3.185
    120    C    -2.589    -15.812    -3.098
    121    N    -2.010    -15.875    -1.905
    122    H    -2.565    -15.687    -1.082
    123    H    -1.031    -16.107    -1.819
    124    C    -4.421    -13.968    -7.329
    125    H    -4.159    -13.391    -6.556
    126    O    -5.690    -13.617    -7.891
    127    H    -6.445    -14.057    -7.494
    128    C    -3.338    -13.896    -8.388
    129    H    -2.442    -13.796    -7.956
    130    O    -3.656    -12.853    -9.330
    131    P    -3.346    -11.281    -9.103
    132    O    -3.808    -10.541    -10.287
    133    O    -1.951    -11.098    -8.665
    134    O    -4.305    -10.819    -7.902
    135    C    -5.720    -10.646    -8.036
    136    H    -6.135    -11.525    -8.271
    137    H    -5.897    -9.868    -8.639
    138    C    -6.389    -10.257    -6.719
    139    H    -7.365    -10.169    -6.919
    140    O    -6.201    -11.310    -5.713
    141    C    -6.443    -10.679    -4.443
    142    H    -7.338    -10.998    -4.130
    143    N    -5.360    -11.102    -3.529
    144    C    -4.208    -11.611    -1.729
    145    N    -3.373    -11.878    -2.812
    146    C    -4.106    -11.557    -3.835
    147    H    -3.583    -11.714    -4.673
    148    N    -5.058    -11.384    0.440
    149    C    -6.193    -10.933    -0.093
    150    H    -6.990    -10.654    0.443
    151    N    -6.465    -10.777    -1.387
    152    C    -5.417    -11.138    -2.153
    153    C    -4.034    -11.738    -0.349
    154    N    -2.911    -12.187    0.203
    155    H    -2.852    -12.252    1.209
    156    H    -2.143    -12.452    -0.397
    157    C    -6.513    -9.165    -4.701
    158    H    -5.906    -8.729    -4.037
    159    O    -7.861    -8.690    -4.660
    160    H    -8.440    -9.165    -4.059
    161    C    -5.961    -8.937    -6.102
    162    H    -4.962    -8.896    -6.082
    163    O    -6.653    -7.846    -6.740
    164    P    -6.262    -6.303    -6.437
    165    O    -7.220    -5.440    -7.154
    166    O    -4.813    -6.108    -6.694
    167    O    -6.548    -6.072    -4.866
    168    C    -7.868    -6.022    -4.307
    169    H    -8.412    -6.769    -4.689
    170    H    -8.224    -5.091    -4.394
    171    C    -7.842    -6.288    -2.808
    172    H    -8.771    -6.499    -2.505
    173    O    -7.010    -7.405    -2.554
    174    C    -6.667    -7.382    -1.158
    175    H    -7.239    -8.059    -0.694
    176    N    -5.226    -7.699    -1.058
    177    C    -4.521    -7.912    0.104
    178    N    -4.412    -8.105    3.569
    179    H    -3.795    -8.281    4.349
    180    H    -5.375    -7.897    3.793
    181    N    -5.025    -7.864    1.360
    182    C    -4.094    -8.118    2.283
    183    N    -2.783    -8.394    1.992
    184    H    -2.149    -8.573    2.784
    185    C    -2.245    -8.451    0.719
    186    O    -1.057    -8.720    0.566
    187    C    -3.226    -8.182    -0.275
    188    N    -3.104    -8.137    -1.663
    189    C    -4.306    -7.849    -2.057
    190    H    -4.317    -7.793    -3.055
    191    C    -7.066    -5.978    -0.680
    192    H    -6.271    -5.595    -0.209
    193    O    -8.256    -6.013    0.112
    194    H    -8.377    -6.815    0.626
    195    C    -7.344    -5.156    -1.931
    196    H    -6.493    -4.798    -2.314
    197    O    -8.457    -4.273    -1.697
    198    P    -8.210    -2.786    -1.100
    199    O    -9.520    -2.103    -1.032
    200    O    -7.113    -2.153    -1.885
    201    O    -7.714    -2.982    0.431
    202    C    -8.596    -3.328    1.514
    203    H    -9.086    -4.168    1.280
    204    H    -9.137    -2.524    1.763
    205    C    -7.818    -3.676    2.779
    206    H    -8.426    -3.950    3.525
    207    O    -6.936    -4.732    2.497
    208    C    -5.799    -4.646    3.377
    209    H    -5.826    -5.438    3.987
    210    N    -4.587    -4.604    2.526
    211    C    -4.669    -4.247    1.207
    212    H    -5.470    -3.995    0.664
    213    C    -3.376    -4.924    3.112
    214    O    -3.276    -5.244    4.290
    215    N    -2.273    -4.856    2.288
    216    H    -1.361    -5.087    2.707
    217    C    -2.267    -4.508    0.953
    218    O    -1.217    -4.481    0.321
    219    C    -3.571    -4.191    0.422
    220    H    -3.479    -3.950    -0.544
    221    C    -6.037    -3.382    4.195
    222    H    -5.162    -2.911    4.308
    223    O    -6.699    -3.658    5.432
    224    H    -6.466    -4.496    5.838
    225    C    -6.933    -2.551    3.297
    226    H    -6.409    -2.171    2.534
    227    O    -7.701    -1.640    4.096
    228    P    -7.182    -0.121    4.275
    229    O    -8.189    0.609    5.079
    230    O    -6.786    0.397    2.938
    231    O    -5.855    -0.289    5.180
    232    C    -5.939    -0.720    6.546
    233    H    -6.413    -1.600    6.581
    234    H    -6.300    0.029    7.102
    235    C    -4.570    -1.009    7.153
    236    H    -4.639    -1.334    8.096
    237    O    -3.942    -2.001    6.371
    238    C    -2.513    -1.890    6.527
    239    H    -2.207    -2.672    7.070
    240    N    -1.919    -1.878    5.170
    241    C    -2.684    -1.581    4.075
    242    H    -3.660    -1.371    4.018
    243    C    -0.567    -2.147    5.051
    244    O    0.138    -2.422    6.016
    245    N    -0.050    -2.094    3.775
    246    H    0.955    -2.293    3.667
    247    C    -0.747    -1.800    2.622
    248    O    -0.175    -1.775    1.537
    249    C    -2.151    -1.536    2.833
    250    H    -2.581    -1.337    1.952
    251    C    -2.302    -0.605    7.339
    252    H    -1.554    -0.090    6.921
    253    O    -2.081    -0.890    8.721
    254    H    -1.605    -1.705    8.896
    255    C    -3.604    0.160    7.137
    256    H    -3.618    0.582    6.230
    257    O    -3.879    1.049    8.232
    258    P    -3.465    2.610    8.190
    259    O    -3.894    3.241    9.456
    260    O    -3.894    3.203    6.905
    261    O    -1.861    2.544    8.209
    262    C    -1.171    1.983    9.332
    263    H    -1.517    1.060    9.498
    264    H    -1.196    2.636    10.089
    265    C    0.309    1.792    9.037
    266    H    0.789    1.348    9.794
    267    O    0.438    0.974    7.854
    268    C    1.740    1.142    7.273
    269    H    2.305    0.351    7.506
    270    N    1.563    1.292    5.811
    271    C    0.357    1.656    5.284
    272    H    -0.514    1.850    5.735
    273    C    0.205    1.806    3.957
    274    H    -0.572    2.058    3.380
    275    C    2.666    1.069    4.999
    276    O    3.746    0.749    5.493
    277    N    2.521    1.219    3.656
    278    C    1.343    1.575    3.128
    279    N    1.237    1.720    1.812
    280    H    2.051    1.558    1.236
    281    H    0.358    1.988    1.392
    282    C    2.261    2.369    8.033
    283    H    2.659    2.978    7.347
    284    O    3.184    1.996    9.060
    285    H    3.691    1.201    8.880
    286    C    1.063    3.057    8.671
    287    H    0.536    3.565    7.990
    288    O    1.476    3.782    9.840
    289    P    1.829    5.356    9.772
    290    O    2.322    5.777    11.097
    291    O    0.693    6.089    9.163
    292    O    3.080    5.430    8.760
    293    C    4.362    4.879    9.089
    294    H    4.243    3.931    9.385
    295    H    4.837    5.506    9.706
    296    C    5.239    4.800    7.852
    297    H    6.111    4.356    8.057
    298    O    4.563    4.052    6.850
    299    C    5.018    4.492    5.559
    300    H    5.497    3.730    5.124
    301    N    3.816    4.921    4.805
    302    C    2.649    5.197    5.457
    303    H    2.434    5.173    6.433
    304    C    1.552    5.570    4.777
    305    H    0.622    5.809    5.055
    306    C    3.911    5.021    3.422
    307    O    4.974    4.779    2.857
    308    N    2.802    5.399    2.725
    309    C    1.653    5.669    3.357
    310    N    0.585    6.028    2.652
    311    H    0.662    6.090    1.647
    312    H    -0.290    6.236    3.111
    313    C    6.027    5.597    5.880
    314    H    5.935    6.312    5.186
    315    O    7.354    5.085    6.008
    316    H    7.560    4.345    5.432
    317    C    5.555    6.143    7.219
    318    H    4.707    6.662    7.117
    319    O    6.650    6.732    7.935
    320    P    6.999    8.299    7.760
    321    O    8.167    8.597    8.618
    322    O    5.750    9.094    7.938
    323    O    7.496    8.441    6.232
    324    C    8.766    7.932    5.798
    325    H    8.798    6.948    5.970
    326    H    9.493    8.500    6.184
    327    C    8.931    8.065    4.294
    328    H    9.820    7.705    4.011
    329    O    7.897    7.354    3.601
    330    C    7.671    8.028    2.348
    331    H    7.920    7.386    1.622
    332    N    6.238    8.407    2.327
    333    C    5.526    8.507    3.487
    334    H    5.813    8.374    4.436
    335    C    4.222    8.830    3.466
    336    H    3.534    8.951    4.182
    337    C    5.646    8.636    1.091
    338    O    6.308    8.552    0.059
    339    N    4.325    8.965    1.061
    340    C    3.616    9.065    2.195
    341    N    2.327    9.390    2.134
    342    H    1.908    9.555    1.230
    343    H    1.775    9.471    2.976
    344    C    8.637    9.215    2.317
    345    H    8.174    9.999    1.903
    346    O    9.878    8.886    1.693
    347    H    9.811    8.276    0.955
    348    C    8.843    9.488    3.798
    349    H    8.027    9.918    4.184
    350    O    10.153    10.026    3.999
    351    P    10.369    11.618    3.840
    352    O    11.814    11.884    4.056
    353    O    9.332    12.248    4.715
    354    O    10.011    11.919    2.287
    355    C    10.863    11.507    1.204
    356    H    10.949    10.511    1.218
    357    H    11.702    12.050    1.226
    358    C    10.229    11.824    -0.145
    359    H    10.796    11.520    -0.911
    360    O    8.938    11.213    -0.249
    361    C    8.134    12.002    -1.144
    362    H    8.022    11.467    -1.981
    363    N    6.856    12.263    -0.445
    364    C    6.781    12.177    0.913
    365    H    7.490    11.972    1.588
    366    C    5.618    12.382    1.549
    367    H    5.353    12.365    2.513
    368    C    5.741    12.569    -1.214
    369    O    5.833    12.653    -2.437
    370    N    4.558    12.779    -0.575
    371    C    4.473    12.694    0.758
    372    N    3.304    12.894    1.355
    373    H    2.496    13.108    0.787
    374    H    3.221    12.834    2.360
    375    C    8.941    13.260    -1.462
    376    H    8.336    14.053    -1.390
    377    O    9.596    13.176    -2.729
    378    H    9.113    12.693    -3.404
    379    C    9.955    13.305    -0.326
    380    H    9.516    13.658    0.500
    381    O    11.169    13.915    -0.776
    382    P    11.353    15.497    -0.567
    383    O    12.653    15.880    -1.170
    384    O    11.065    15.808    0.862
    385    O    10.165    16.086    -1.486
    386    C    10.162    15.840    -2.898
    387    H    10.229    14.855    -3.057
    388    H    10.841    16.432    -3.333
    389    C    8.841    16.241    -3.536
    390    H    8.827    16.017    -4.510
    391    O    7.766    15.590    -2.900
    392    C    6.589    16.371    -3.170
    393    H    6.107    15.906    -3.913
    394    N    5.795    16.416    -1.923
    395    C    6.378    16.161    -0.712
    396    H    7.326    15.925    -0.497
    397    C    4.453    16.726    -2.028
    398    O    3.910    16.958    -3.104
    399    N    3.749    16.766    -0.843
    400    H    2.747    17.000    -0.899
    401    C    4.255    16.523    0.416
    402    O    3.526    16.580    1.403
    403    C    5.665    16.206    0.435
    404    H    5.950    16.048    1.380
    405    C    7.044    17.748    -3.656
    406    H    6.628    18.443    -3.069
    407    O    6.752    17.953    -5.044
    408    H    5.945    17.535    -5.354
    409    C    8.545    17.722    -3.406
    410    H    8.726    18.009    -2.465
    411    O    9.238    18.442    -4.434
    412    P    9.806    19.916    -4.129
    413    O    10.328    20.475    -5.400
    414    O    10.680    19.845    -2.933
    415    O    8.462    20.710    -3.733
    416    C    7.441    20.928    -4.714
    417    H    7.213    20.055    -5.146
    418    H    7.715    21.686    -5.306
    419    C    6.137    21.392    -4.072
    420    H    5.471    21.667    -4.766
    421    O    5.583    20.348    -3.289
    422    C    4.844    20.925    -2.193
    423    H    3.880    20.703    -2.341
    424    N    5.379    20.362    -0.937
    425    C    4.710    20.256    0.262
    426    N    1.821    20.650    2.149
    427    H    1.436    20.524    3.074
    428    H    1.197    21.023    1.448
    429    N    3.422    20.600    0.490
    430    C    3.058    20.378    1.756
    431    N    3.895    19.862    2.711
    432    H    3.511    19.732    3.658
    433    C    5.213    19.502    2.504
    434    O    5.875    19.051    3.430
    435    C    5.612    19.732    1.161
    436    N    6.839    19.507    0.543
    437    C    6.634    19.895    -0.676
    438    H    7.474    19.768    -1.204
    439    C    5.027    22.432    -2.300
    440    H    5.187    22.798    -1.383
    441    O    3.919    23.059    -2.959
    442    H    3.066    22.652    -2.793
    443    C    6.308    22.559    -3.115
    444    H    7.098    22.385    -2.527
    445    O    6.366    23.804    -3.816
    446    P    7.380    24.949    -3.315
    447    O    7.266    26.102    -4.231
    448    O    8.703    24.336    -3.064
    449    O    6.723    25.329    -1.897
    450    C    7.457    26.028    -0.894
    451    H    7.657    26.951    -1.221
    452    H    8.224    25.460    -0.596
    453    C    6.614    26.234    0.362
    454    H    7.180    26.568    1.116
    455    O    5.616    27.205    0.067
    456    C    4.302    26.639    0.215
    457    H    3.818    27.228    0.862
    458    N    3.664    26.640    -1.123
    459    C    4.207    25.941    -2.163
    460    H    5.025    25.366    -2.198
    461    C    3.632    25.958    -3.379
    462    H    3.861    25.528    -4.252
    463    C    2.504    27.386    -1.285
    464    O    2.029    28.003    -0.335
    465    N    1.917    27.408    -2.514
    466    C    2.443    26.727    -3.539
    467    N    1.847    26.774    -4.728
    468    H    1.007    27.325    -4.831
    469    H    2.226    26.268    -5.515
    470    C    4.446    25.241    0.825
    471    H    4.020    24.595    0.191
    472    O    3.886    25.162    2.139
    473    H    3.134    25.738    2.294
    474    C    5.944    24.968    0.880
    475    H    6.132    24.218    0.246
    476    O    6.363    24.744    2.234
    477    P    5.970    23.387    3.023
    478    O    6.966    23.177    4.098
    479    O    5.727    22.320    2.029
    480    O    4.557    23.768    3.709
    481    C    4.472    24.820    4.690
    482    H    4.741    25.684    4.265
    483    H    4.956    24.534    5.517
    484    C    3.033    25.062    5.159
    485    H    3.037    25.676    5.948
    486    O    2.292    25.669    4.102
    487    C    1.074    24.957    3.869
    488    H    0.349    25.510    4.280
    489    N    0.888    24.818    2.412
    490    C    0.108    25.042    0.375
    491    N    1.300    24.330    0.259
    492    C    1.701    24.230    1.488
    493    H    2.561    23.721    1.509
    494    N    -1.894    26.154    -0.111
    495    C    -2.039    26.381    1.195
    496    H    -2.815    26.871    1.593
    497    N    -1.213    26.013    2.170
    498    C    -0.151    25.339    1.682
    499    C    -0.825    25.485    -0.566
    500    N    -0.673    25.308    -1.875
    501    H    -1.369    25.683    -2.504
    502    H    0.135    24.803    -2.210
    503    C    1.148    23.627    4.589
    504    H    1.413    22.933    3.920
    505    O    -0.084    23.323    5.246
    506    H    -0.871    23.649    4.803
    507    C    2.277    23.800    5.599
    508    H    2.882    23.009    5.507
    509    O    1.718    24.053    6.896
    510    P    0.927    22.883    7.682
    511    O    1.087    23.126    9.135
    512    O    1.342    21.582    7.099
    513    O    -0.622    23.146    7.297
    514    C    -1.654    23.167    8.300
    515    H    -1.448    23.886    8.964
    516    H    -1.793    22.238    8.643
    517    C    -3.013    23.565    7.719
    518    H    -3.748    23.404    8.378
    519    O    -2.973    24.964    7.396
    520    C    -3.357    25.148    6.028
    521    H    -4.337    25.348    6.022
    522    N    -2.592    26.301    5.458
    523    C    -1.370    26.653    5.981
    524    H    -0.867    26.250    6.746
    525    C    -3.132    27.001    4.379
    526    O    -4.212    26.722    3.874
    527    N    -2.371    28.041    3.889
    528    H    -2.760    28.569    3.095
    529    C    -1.140    28.448    4.354
    530    O    -0.552    29.386    3.823
    531    C    -0.648    27.678    5.470
    532    H    0.244    28.036    5.744
    533    C    -3.118    23.798    5.334
    534    H    -2.154    23.737    5.075
    535    O    -3.985    23.622    4.207
    536    H    -4.191    24.426    3.725
    537    C    -3.397    22.796    6.461
    538    H    -2.776    22.020    6.351
    539    O    -4.793    22.459    6.486
    540    P    -5.361    21.118    5.784
    541    O    -6.791    20.989    6.147
    542    O    -4.431    20.003    6.067
    543    O    -5.267    21.467    4.211
    544    C    -6.075    22.507    3.637
    545    H    -5.816    23.383    4.044
    546    H    -7.036    22.235    3.683
    547    C    -5.793    22.677    2.143
    548    H    -6.423    23.341    1.740
    549    O    -4.433    23.124    1.924
    550    C    -4.142    22.861    0.552
    551    H    -4.303    23.717    0.061
    552    N    -2.730    22.453    0.452
    553    C    -0.717    22.056    -0.323
    554    N    -0.680    21.735    1.034
    555    C    -1.892    21.992    1.428
    556    H    -1.966    21.792    2.405
    557    N    -0.128    22.400    -2.563
    558    C    -1.376    22.805    -2.789
    559    H    -1.713    23.106    -3.681
    560    N    -2.363    22.881    -1.906
    561    C    -1.959    22.490    -0.681
    562    C    0.245    22.014    -1.334
    563    N    1.493    21.614    -1.132
    564    H    2.137    21.609    -1.910
    565    H    1.770    21.324    -0.205
    566    C    -5.141    21.805    0.056
    567    H    -4.625    21.022    -0.291
    568    O    -6.025    22.348    -0.935
    569    H    -5.635    23.017    -1.503
    570    C    -5.877    21.390    1.336
    571    H    -5.353    20.678    1.803
    572    O    -7.229    21.008    1.051
    573    P    -7.648    19.464    0.835
    574    O    -9.083    19.421    0.482
    575    O    -7.157    18.679    1.984
    576    O    -6.795    19.037    -0.464
    577    C    -7.029    19.696    -1.712
    578    H    -6.988    20.685    -1.571
    579    H    -7.854    19.316    -2.131
    580    C    -5.933    19.425    -2.742
    581    H    -6.197    19.839    -3.613
    582    O    -4.682    20.018    -2.296
    583    C    -3.608    19.244    -2.864
    584    H    -3.145    19.844    -3.516
    585    N    -2.710    18.834    -1.767
    586    C    -0.961    18.172    -0.615
    587    N    -2.003    18.304    0.300
    588    C    -2.995    18.691    -0.439
    589    H    -3.803    18.812    0.138
    590    N    1.132    17.761    -1.584
    591    C    0.607    18.097    -2.764
    592    H    1.119    18.098    -3.623
    593    N    -0.644    18.477    -3.006
    594    C    -1.380    18.492    -1.875
    595    C    0.375    17.789    -0.476
    596    N    0.917    17.474    0.697
    597    H    1.893    17.218    0.732
    598    H    0.340    17.498    1.525
    599    C    -4.231    18.061    -3.626
    600    H    -3.719    17.232    -3.401
    601    O    -4.281    18.313    -5.033
    602    H    -3.548    18.828    -5.379
    603    C    -5.623    17.965    -3.014
    604    H    -5.565    17.477    -2.143
    605    O    -6.569    17.383    -3.926
    606    P    -6.782    15.787    -4.086
    607    O    -7.841    15.551    -5.084
    608    O    -6.903    15.178    -2.750
    609    O    -5.396    15.301    -4.733
    610    C    -4.936    15.849    -5.972
    611    H    -4.913    16.846    -5.898
    612    H    -5.462    15.446    -6.721
    613    C    -3.494    15.452    -6.258
    614    H    -3.215    15.826    -7.142
    615    O    -2.631    15.983    -5.230
    616    C    -1.434    15.186    -5.240
    617    H    -0.727    15.737    -5.683
    618    N    -1.097    14.877    -3.832