!*** FMO 5.2 (Gamess) INPUT generated by Facio 21.1.1.32 ***
 $CONTRL RUNTYP=OPTFMO NPRINT=-5 ISPHER=-1 MAXIT=50 $END
 $SYSTEM MWORDS=29 $END
 $GDDI NGROUP=1 $END
 $INTGRL NINTIC=-9000000 $END
 $SCF DIRSCF=.FALSE. NPUNCH=0 $END
!*** NumCPU : 2  MemPerNode : 512MB
 $FMOPRP
    NAODIR=210
    NGRFMO(1)=1, 1, 0, 0, 0,   0, 0, 0, 0, 0
    NPRINT=9
 $END
 $FMO
      SCFTYP(1)=RHF
      MODGRD=10
      MODMUL=0
      MAXCAO=5
      MAXBND=34
      NLAYER=1
      NFRAG=32
      ICHARG(1)=-1, -1, -1, -1, -1, -1, -1, -1, -1, -1, 
-1, -1, -1, -1, -1, -1, -1, -1, -1, -1, 
-1, -1, -1, -1, -1, -1, -1, -1, -1, -1, 
-1, 0
      FRGNAM(1)=Frag1, Frag2, Frag3, Frag4, Frag5, Frag6, Frag7, Frag8, Frag9, Frag10, Frag11, Frag12, Frag13, Frag14, Frag15, Frag16, Frag17, Frag18, Frag19, Frag20, Frag21, Frag22, Frag23, Frag24, Frag25, Frag26, Frag27, Frag28, Frag29, Frag30, Frag31, Frag32
      indat(1)=0
               1   -36   0
               37   -69   0
               70   -103   0
               104   -134   0
               135   -167   0
               168   -201   0
               202   -231   0
               232   -261   0
               262   -292   0
               293   -323   0
               324   -354   0
               355   -385   0
               386   -415   0
               416   -449   0
               450   -480   0
               481   -513   0
               514   -543   0
               544   -576   0
               577   -609   0
               610   -643   0
               644   -677   0
               678   -710   0
               711   -740   0
               741   -774   0
               775   -807   0
               808   -840   0
               841   -871   0
               872   -902   0
               903   -936   0
               937   -966   0
               967   -996   0
               997   -1024   0
 $END

 $FMOBND
   -37   36       3-21G    MINI
   -70   69       3-21G    MINI
   -104   103       3-21G    MINI
   -135   134       3-21G    MINI
   -168   167       3-21G    MINI
   -202   201       3-21G    MINI
   -232   231       3-21G    MINI
   -262   261       3-21G    MINI
   -293   292       3-21G    MINI
   -324   323       3-21G    MINI
   -355   354       3-21G    MINI
   -386   385       3-21G    MINI
   -416   415       3-21G    MINI
   -450   449       3-21G    MINI
   -481   480       3-21G    MINI
   -514   513       3-21G    MINI
   -544   543       3-21G    MINI
   -577   576       3-21G    MINI
   -610   609       3-21G    MINI
   -644   643       3-21G    MINI
   -678   677       3-21G    MINI
   -711   710       3-21G    MINI
   -741   740       3-21G    MINI
   -775   774       3-21G    MINI
   -808   807       3-21G    MINI
   -841   840       3-21G    MINI
   -872   871       3-21G    MINI
   -903   902       3-21G    MINI
   -937   936       3-21G    MINI
   -967   966       3-21G    MINI
   -997   996       3-21G    MINI
 $END
 $FMOHYB
 3-21G        9   5
   1 0  -0.070459   0.164841   0.000000   0.000000   0.502116
         0.466939   0.000000   0.000000   0.418036
   0 1  -0.070465   0.164857   0.473392   0.000000  -0.167359
         0.466967   0.394111   0.000000  -0.139327
   0 1  -0.070465   0.164857  -0.236695  -0.409969  -0.167359
         0.466967  -0.197055  -0.341311  -0.139327
   0 1  -0.070465   0.164857  -0.236695   0.409969  -0.167359
         0.466967  -0.197055   0.341311  -0.139327
   0 1   1.006716   0.074826   0.000000   0.000000   0.000000
        -0.143830   0.000000   0.000000  -0.000003
 MINI         5   5
   1 0  -0.104883   0.308874   0.000000   0.000000   0.521806
   0 1  -0.104883   0.308874   0.491961   0.000000  -0.173934
   0 1  -0.104883   0.308876  -0.245980  -0.426050  -0.173933
   0 1  -0.104883   0.308876  -0.245980   0.426050  -0.173933
   0 1   0.988209   0.063992   0.000000   0.000000   0.000000
 $END

 $DATA
 FMO calculation : XXNAMEXX
 C1 
 C.1-1    6
      N21 3
   
 O.1-1    8
      N21 3
   
 N.1-1    7
      N21 3
   
 H.1-1    1
      N21 3
   
 P.1-1   15
      N21 3
   
 $END
 $FMOXYZ
    1    H    5.773    -11.343    4.446
    2    O    5.495    -11.304    3.486
    3    C    6.465    -10.553    2.751
    4    H    7.335    -11.046    2.763
    5    H    6.458    -9.607    3.075
    6    C    6.109    -10.450    1.275
    7    H    6.864    -9.874    0.961
    8    O    6.224    -11.724    0.679
    9    C    5.524    -11.655    -0.569
    10    H    6.208    -11.482    -1.278
    11    N    4.887    -12.975    -0.808
    12    C    4.470    -13.479    -2.023
    13    N    4.187    -13.165    -5.470
    14    H    3.840    -13.627    -6.298
    15    H    4.639    -12.273    -5.608
    16    N    4.622    -12.875    -3.226
    17    C    4.113    -13.604    -4.222
    18    N    3.507    -14.821    -4.046
    19    H    3.148    -15.298    -4.886
    20    C    3.338    -15.461    -2.833
    21    O    2.777    -16.552    -2.789
    22    C    3.876    -14.695    -1.761
    23    N    3.916    -14.973    -0.397
    24    C    4.518    -13.935    0.098
    25    H    4.597    -14.046    1.089
    26    C    4.580    -10.436    -0.473
    27    H    3.653    -10.809    -0.440
    28    O    4.856    -9.491    -1.504
    29    H    5.181    -9.869    -2.324
    30    C    4.866    -9.698    0.832
    31    H    4.131    -9.869    1.488
    32    O    5.257    -8.297    0.722
    33    P    4.251    -7.095    0.252
    34    O    5.056    -5.884    0.035
    35    O    3.409    -6.908    1.448
    36    O    3.357    -7.353    -1.099
    37    C    3.802    -7.005    -2.419
    38    H    4.717    -7.382    -2.564
    39    H    3.672    -6.023    -2.558
    40    C    2.896    -7.698    -3.428
    41    H    3.259    -7.453    -4.327
    42    O    2.938    -9.129    -3.280
    43    C    1.771    -9.619    -3.968
    44    H    2.044    -9.768    -4.918
    45    N    1.377    -10.880    -3.308
    46    C    0.639    -12.916    -2.949
    47    N    0.945    -12.390    -1.697
    48    C    1.370    -11.195    -1.977
    49    H    1.616    -10.729    -1.127
    50    N    -0.055    -14.347    -4.671
    51    C    0.236    -13.378    -5.540
    52    H    0.117    -13.462    -6.529
    53    N    0.719    -12.169    -5.262
    54    C    0.896    -12.007    -3.935
    55    C    0.135    -14.154    -3.355
    56    N    -0.157    -15.131    -2.501
    57    H    -0.518    -16.003    -2.860
    58    H    -0.011    -14.978    -1.513
    59    C    0.709    -8.510    -3.921
    60    H    0.029    -8.776    -3.238
    61    O    0.171    -8.215    -5.211
    62    H    0.112    -8.965    -5.807
    63    C    1.450    -7.259    -3.429
    64    H    1.166    -7.073    -2.489
    65    O    1.627    -6.164    -4.367
    66    P    0.409    -5.592    -5.287
    67    O    0.736    -4.482    -6.215
    68    O    -0.126    -4.996    -4.065
    69    O    -0.729    -6.605    -5.898
    70    C    -0.874    -6.843    -7.310
    71    H    -0.013    -7.204    -7.669
    72    H    -1.256    -6.025    -7.741
    73    C    -1.902    -7.940    -7.535
    74    H    -1.972    -8.186    -8.502
    75    O    -1.510    -9.094    -6.789
    76    C    -2.632    -9.996    -6.739
    77    H    -2.547    -10.661    -7.481
    78    N    -2.640    -10.620    -5.401
    79    C    -3.455    -11.647    -4.990
    80    N    -5.968    -13.947    -5.656
    81    H    -6.513    -14.690    -5.243
    82    H    -6.165    -13.728    -6.622
    83    N    -4.387    -12.274    -5.746
    84    C    -5.023    -13.228    -5.067
    85    N    -4.761    -13.540    -3.758
    86    H    -5.310    -14.300    -3.333
    87    C    -3.819    -12.916    -2.964
    88    O    -3.667    -13.274    -1.800
    89    C    -3.131    -11.893    -3.674
    90    N    -2.119    -11.033    -3.252
    91    C    -1.880    -10.317    -4.308
    92    H    -1.156    -9.660    -4.099
    93    C    -3.806    -9.056    -7.042
    94    H    -4.456    -9.176    -6.292
    95    O    -4.333    -9.271    -8.355
    96    H    -4.258    -10.172    -8.679
    97    C    -3.296    -7.631    -7.028
    98    H    -3.232    -7.281    -6.093
    99    O    -4.086    -6.950    -8.020
    100    P    -5.346    -6.087    -7.475
    101    O    -6.017    -5.406    -8.613
    102    O    -4.746    -5.285    -6.370
    103    O    -6.401    -7.154    -6.839
    104    C    -7.504    -7.765    -7.540
    105    H    -7.145    -8.423    -8.202
    106    H    -8.114    -7.047    -7.876
    107    C    -8.408    -8.614    -6.644
    108    H    -9.155    -8.991    -7.193
    109    O    -7.557    -9.691    -6.208
    110    C    -8.140    -10.251    -5.023
    111    H    -8.504    -11.151    -5.262
    112    N    -7.110    -10.393    -3.966
    113    C    -6.000    -9.598    -3.963
    114    H    -5.697    -8.917    -4.630
    115    C    -5.108    -9.655    -2.959
    116    H    -4.254    -9.169    -2.772
    117    C    -7.342    -11.295    -2.935
    118    O    -8.334    -12.019    -2.956
    119    N    -6.446    -11.359    -1.912
    120    C    -5.360    -10.576    -1.900
    121    N    -4.521    -10.636    -0.873
    122    H    -4.720    -11.275    -0.117
    123    H    -3.697    -10.053    -0.846
    124    C    -9.306    -9.318    -4.674
    125    H    -9.264    -9.164    -3.687
    126    O    -10.551    -9.900    -5.069
    127    H    -10.572    -10.860    -5.057
    128    C    -9.053    -8.002    -5.391
    129    H    -8.370    -7.453    -4.909
    130    O    -10.275    -7.212    -5.456
    131    P    -10.710    -6.004    -4.435
    132    O    -11.866    -5.267    -4.969
    133    O    -9.495    -5.218    -4.147
    134    O    -11.223    -6.659    -3.055
    135    C    -12.572    -7.022    -2.708
    136    H    -12.821    -7.857    -3.198
    137    H    -13.162    -6.222    -2.815
    138    C    -12.734    -7.401    -1.235
    139    H    -13.697    -7.662    -1.175
    140    O    -11.899    -8.608    -1.086
    141    C    -11.696    -8.825    0.321
    142    H    -12.175    -9.665    0.575
    143    N    -10.254    -9.033    0.629
    144    C    -8.344    -9.556    1.616
    145    N    -8.004    -8.892    0.439
    146    C    -9.161    -8.617    -0.085
    147    H    -9.020    -8.132    -0.948
    148    N    -8.224    -10.694    3.659
    149    C    -9.556    -10.723    3.675
    150    H    -10.096    -11.138    4.407
    151    N    -10.381    -10.225    2.756
    152    C    -9.704    -9.647    1.742
    153    C    -7.574    -10.116    2.639
    154    N    -6.244    -10.099    2.641
    155    H    -5.750    -10.523    3.413
    156    H    -5.759    -9.662    1.870
    157    C    -12.392    -7.631    0.991
    158    H    -11.806    -7.358    1.754
    159    O    -13.658    -8.045    1.502
    160    H    -13.718    -8.975    1.732
    161    C    -12.451    -6.491    -0.024
    162    H    -11.558    -6.057    -0.144
    163    O    -13.193    -5.294    0.336
    164    P    -12.764    -3.858    1.015
    165    O    -13.911    -2.951    1.109
    166    O    -11.606    -3.339    0.293
    167    O    -12.331    -4.114    2.532
    168    C    -13.198    -4.174    3.669
    169    H    -13.921    -4.842    3.492
    170    H    -13.470    -3.245    3.921
    171    C    -12.453    -4.710    4.882
    172    H    -13.186    -5.048    5.472
    173    O    -11.720    -5.818    4.373
    174    C    -10.743    -6.241    5.338
    175    H    -11.017    -7.132    5.699
    176    N    -9.407    -6.427    4.701
    177    C    -8.260    -6.911    5.304
    178    N    -6.659    -8.253    8.083
    179    H    -5.766    -8.580    8.423
    180    H    -7.432    -8.295    8.732
    181    N    -8.165    -7.379    6.572
    182    C    -6.926    -7.775    6.876
    183    N    -5.869    -7.716    6.006
    184    H    -4.955    -8.047    6.347
    185    C    -5.933    -7.247    4.706
    186    O    -4.926    -7.248    4.004
    187    C    -7.249    -6.820    4.369
    188    N    -7.736    -6.287    3.179
    189    C    -8.993    -6.085    3.442
    190    H    -9.437    -5.699    2.633
    191    C    -10.886    -5.188    6.446
    192    H    -9.965    -4.981    6.776
    193    O    -11.623    -5.760    7.527
    194    H    -11.538    -6.712    7.616
    195    C    -11.465    -3.942    5.771
    196    H    -10.788    -3.490    5.190
    197    O    -11.750    -2.709    6.471
    198    P    -10.986    -1.292    6.807
    199    O    -11.870    -0.354    7.511
    200    O    -10.399    -0.824    5.564
    201    O    -9.793    -1.586    7.822
    202    C    -9.945    -1.681    9.234
    203    H    -10.590    -2.416    9.443
    204    H    -10.135    -0.771    9.603
    205    C    -8.624    -2.106    9.848
    206    H    -8.843    -2.278    10.809
    207    O    -8.306    -3.327    9.225
    208    C    -6.897    -3.575    9.351
    209    H    -6.764    -4.438    9.838
    210    N    -6.285    -3.695    7.997
    211    C    -6.907    -3.142    6.908
    212    H    -7.804    -2.702    6.856
    213    C    -5.031    -4.279    7.865
    214    O    -4.438    -4.790    8.808
    215    N    -4.468    -4.248    6.602
    216    H    -3.535    -4.671    6.494
    217    C    -5.033    -3.705    5.467
    218    O    -4.435    -3.733    4.397
    219    C    -6.336    -3.125    5.682
    220    H    -6.674    -2.754    4.817
    221    C    -6.446    -2.422    10.249
    222    H    -5.499    -2.199    10.018
    223    O    -6.488    -2.893    11.600
    224    H    -6.309    -3.830    11.708
    225    C    -7.347    -1.263    9.826
    226    H    -7.166    -0.970    8.887
    227    O    -7.281    0.100    10.304
    228    P    -6.541    1.509    9.893
    229    O    -6.864    2.598    10.826
    230    O    -6.745    1.767    8.481
    231    O    -4.987    1.254    10.101
    232    C    -4.508    1.080    11.423
    233    H    -5.103    0.435    11.902
    234    H    -4.361    1.978    11.837
    235    C    -3.136    0.420    11.405
    236    H    -2.835    0.180    12.328
    237    O    -3.247    -0.759    10.636
    238    C    -1.933    -1.135    10.171
    239    H    -1.665    -1.968    10.655
    240    N    -2.006    -1.380    8.709
    241    C    -3.041    -0.876    7.967
    242    H    -3.842    -0.360    8.269
    243    C    -0.977    -2.084    8.106
    244    O    -0.039    -2.555    8.743
    245    N    -1.058    -2.232    6.738
    246    H    -0.298    -2.752    6.276
    247    C    -2.061    -1.751    5.921
    248    O    -2.023    -1.939    4.710
    249    C    -3.099    -1.035    6.625
    250    H    -3.784    -0.724    5.966
    251    C    -1.022    0.019    10.619
    252    H    -0.364    0.214    9.892
    253    O    -0.347    -0.318    11.834
    254    H    -0.121    -1.246    11.928
    255    C    -2.012    1.180    10.718
    256    H    -2.318    1.463    9.809
    257    O    -1.591    2.410    11.359
    258    P    -0.889    3.740    10.720
    259    O    -0.623    4.732    11.785
    260    O    -1.623    4.141    9.515
    261    O    0.511    3.155    10.234
    262    C    1.312    2.529    11.229
    263    H    0.747    1.883    11.743
    264    H    1.803    3.233    11.742
    265    C    2.394    1.682    10.587
    266    H    2.925    1.169    11.261
    267    O    1.829    0.761    9.636
    268    C    2.848    0.316    8.722
    269    H    3.149    -0.597    8.997
    270    N    2.254    0.352    7.369
    271    C    1.144    1.103    7.107
    272    H    0.601    1.690    7.708
    273    C    0.613    1.129    5.873
    274    H    -0.176    1.598    5.476
    275    C    2.869    -0.401    6.381
    276    O    3.872    -1.064    6.640
    277    N    2.339    -0.380    5.131
    278    C    1.250    0.352    4.859
    279    N    0.761    0.356    3.624
    280    H    1.223    -0.195    2.914
    281    H    -0.059    0.900    3.396
    282    C    3.982    1.315    8.982
    283    H    4.307    1.634    8.092
    284    O    5.013    0.757    9.801
    285    H    5.152    -0.186    9.690
    286    C    3.340    2.477    9.720
    287    H    2.807    3.041    9.089
    288    O    4.297    3.117    10.566
    289    P    4.971    4.472    10.045
    290    O    5.896    4.936    11.104
    291    O    3.892    5.359    9.540
    292    O    5.820    3.918    8.792
    293    C    6.859    2.954    9.012
    294    H    6.494    2.201    9.559
    295    H    7.674    3.425    9.348
    296    C    7.291    2.312    7.705
    297    H    8.005    1.619    7.802
    298    O    6.165    1.730    7.062
    299    C    6.364    1.757    5.635
    300    H    6.454    0.812    5.322
    301    N    5.194    2.457    5.057
    302    C    4.390    3.232    5.842
    303    H    4.457    3.453    6.815
    304    C    3.310    3.843    5.328
    305    H    2.607    4.436    5.720
    306    C    4.931    2.281    3.704
    307    O    5.675    1.589    3.015
    308    N    3.836    2.899    3.175
    309    C    3.040    3.658    3.939
    310    N    1.976    4.243    3.398
    311    H    1.788    4.102    2.416
    312    H    1.364    4.819    3.958
    313    C    7.702    2.473    5.447
    314    H    7.650    3.063    4.641
    315    O    8.811    1.571    5.436
    316    H    8.644    0.728    5.008
    317    C    7.745    3.339    6.692
    318    H    7.058    4.063    6.632
    319    O    9.078    3.733    7.013
    320    P    9.471    5.262    6.767
    321    O    10.772    5.511    7.433
    322    O    8.287    6.102    7.086
    323    O    9.680    5.217    5.177
    324    C    10.725    4.385    4.671
    325    H    10.534    3.435    4.920
    326    H    11.607    4.772    4.939
    327    C    10.727    4.405    3.156
    328    H    11.507    3.954    2.722
    329    O    9.514    3.757    2.730
    330    C    9.131    4.314    1.456
    331    H    9.159    3.575    0.783
    332    N    7.742    4.835    1.584
    333    C    7.241    5.173    2.810
    334    H    7.662    5.102    3.714
    335    C    6.006    5.688    2.942
    336    H    5.471    5.993    3.730
    337    C    6.977    5.011    0.432
    338    O    7.435    4.712    -0.668
    339    N    5.722    5.534    0.554
    340    C    5.232    5.869    1.757
    341    N    4.006    6.379    1.845
    342    H    3.467    6.504    1.000
    343    H    3.618    6.638    2.741
    344    C    10.228    5.337    1.122
    345    H    9.845    6.111    0.618
    346    O    11.251    4.687    0.353
    347    H    10.932    4.041    -0.282
    348    C    10.544    5.781    2.551
    349    H    9.747    6.217    2.969
    350    O    11.511    6.804    2.898
    351    P    11.413    8.393    3.278
    352    O    12.743    8.932    3.660
    353    O    10.228    8.593    4.111
    354    O    11.044    8.949    1.837
    355    C    11.960    8.566    0.824
    356    H    12.100    7.577    0.869
    357    H    12.766    9.156    0.874
    358    C    11.359    8.824    -0.548
    359    H    11.944    8.607    -1.329
    360    O    10.133    8.090    -0.665
    361    C    9.299    8.774    -1.620
    362    H    9.259    8.197    -2.436
    363    N    7.958    8.929    -1.006
    364    C    7.808    8.890    0.349
    365    H    8.493    8.766    1.067
    366    C    6.599    9.029    0.917
    367    H    6.284    9.030    1.866
    368    C    6.861    9.113    -1.841
    369    O    7.009    9.155    -3.061
    370    N    5.630    9.256    -1.274
    371    C    5.478    9.218    0.056
    372    N    4.267    9.350    0.583
    373    H    3.477    9.478    -0.034
    374    H    4.135    9.324    1.584
    375    C    10.016    10.084    -1.969
    376    H    9.358    10.834    -2.032
    377    O    10.746    9.962    -3.198
    378    H    10.322    9.423    -3.870
    379    C    10.833    10.243    -0.682
    380    H    10.224    10.439    0.087
    381    O    11.841    11.268    -0.527
    382    P    11.730    12.778    0.078
    383    O    13.053    13.453    -0.073
    384    O    11.019    12.687    1.359
    385    O    10.664    13.311    -0.980
    386    C    11.007    12.974    -2.317
    387    H    11.245    12.004    -2.357
    388    H    11.675    13.635    -2.658
    389    C    9.815    13.118    -3.241
    390    H    10.022    12.869    -4.187
    391    O    8.715    12.366    -2.800
    392    C    7.557    12.968    -3.408
    393    H    7.339    12.403    -4.204
    394    N    6.491    12.965    -2.388
    395    C    6.790    12.848    -1.058
    396    H    7.678    12.757    -0.608
    397    C    5.188    13.080    -2.831
    398    O    4.901    13.186    -4.019
    399    N    4.217    13.073    -1.852
    400    H    3.238    13.162    -2.160
    401    C    4.427    12.958    -0.495
    402    O    3.477    12.955    0.284
    403    C    5.818    12.843    -0.119
    404    H    5.881    12.768    0.876
    405    C    7.931    14.375    -3.882
    406    H    7.299    15.040    -3.483
    407    O    7.986    14.482    -5.311
    408    H    7.334    13.957    -5.782
    409    C    9.297    14.535    -3.228
    410    H    9.170    14.827    -2.280
    411    O    10.215    15.314    -3.997
    412    P    10.597    16.794    -3.510
    413    O    11.518    17.349    -4.537
    414    O    10.983    16.716    -2.083
    415    O    9.130    17.446    -3.594
    416    C    8.475    17.382    -4.862
    417    H    8.496    16.438    -5.192
    418    H    8.847    18.095    -5.457
    419    C    6.995    17.715    -4.739
    420    H    6.571    17.855    -5.634
    421    O    6.310    16.678    -4.062
    422    C    5.197    17.249    -3.344
    423    H    4.364    16.899    -3.774
    424    N    5.329    16.858    -1.926
    425    C    4.307    16.764    -1.007
    426    N    0.929    16.944    -0.225
    427    H    0.267    16.844    0.532
    428    H    0.547    17.182    -1.129
    429    N    2.993    16.963    -1.253
    430    C    2.245    16.797    -0.159
    431    N    2.754    16.463    1.070
    432    H    2.086    16.360    1.848
    433    C    4.091    16.254    1.346
    434    O    4.440    15.961    2.483
    435    C    4.898    16.426    0.190
    436    N    6.276    16.307    0.036
    437    C    6.459    16.571    -1.219
    438    H    7.435    16.508    -1.426
    439    C    5.270    18.755    -3.557
    440    H    5.079    19.213    -2.689
    441    O    4.400    19.190    -4.610
    442    H    3.577    18.701    -4.684
    443    C    6.739    18.959    -3.913
    444    H    7.293    18.918    -3.082
    445    O    6.968    20.105    -4.735
    446    P    7.754    21.367    -4.129
    447    O    7.949    22.355    -5.213
    448    O    8.912    20.897    -3.335
    449    O    6.607    21.858    -3.116
    450    C    6.865    22.754    -2.039
    451    H    7.119    23.647    -2.412
    452    H    7.495    22.318    -1.397
    453    C    5.583    22.995    -1.248
    454    H    5.769    23.494    -0.402
    455    O    4.714    23.774    -2.064
    456    C    3.483    23.070    -2.310
    457    H    2.750    23.674    -1.997
    458    N    3.402    22.808    -3.766
    459    C    4.347    22.051    -4.400
    460    H    5.155    21.588    -4.035
    461    C    4.277    21.829    -5.725
    462    H    4.850    21.319    -6.366
    463    C    2.342    23.368    -4.466
    464    O    1.500    24.041    -3.876
    465    N    2.265    23.147    -5.808
    466    C    3.187    22.408    -6.437
    467    N    3.085    22.217    -7.750
    468    H    2.311    22.636    -8.245
    469    H    3.769    21.663    -8.245
    470    C    3.479    21.797    -1.457
    471    H    3.361    21.023    -2.080
    472    O    2.470    21.825    -0.442
    473    H    1.680    22.321    -0.670
    474    C    4.863    21.719    -0.825
    475    H    5.330    20.932    -1.230
    476    O    4.778    21.682    0.609
    477    P    4.213    20.400    1.420
    478    O    4.766    20.446    2.792
    479    O    4.392    19.187    0.596
    480    O    2.635    20.723    1.497
    481    C    2.206    21.932    2.144
    482    H    2.606    22.715    1.668
    483    H    2.366    21.849    3.128
    484    C    0.695    22.116    2.005
    485    H    0.424    22.857    2.619
    486    O    0.355    22.473    0.668
    487    C    -0.684    21.625    0.174
    488    H    -1.520    22.174    0.196
    489    N    -0.328    21.224    -1.199
    490    C    -0.325    21.029    -3.382
    491    N    0.844    20.416    -2.936
    492    C    0.777    20.562    -1.649
    493    H    1.583    20.142    -1.231
    494    N    -2.039    21.862    -4.740
    495    C    -2.651    22.292    -3.637
    496    H    -3.529    22.770    -3.637
    497    N    -2.225    22.170    -2.384
    498    C    -1.044    21.520    -2.332
    499    C    -0.864    21.222    -4.656
    500    N    -0.246    20.839    -5.769
    501    H    -0.676    21.038    -6.661
    502    H    0.639    20.357    -5.697
    503    C    -0.841    20.450    1.118
    504    H    -0.338    19.677    0.733
    505    O    -2.222    20.153    1.349
    506    H    -2.803    20.322    0.604
    507    C    -0.149    20.904    2.400
    508    H    0.459    20.164    2.688
    509    O    -1.121    21.450    3.296
    510    P    -2.161    20.435    3.984
    511    O    -2.539    21.014    5.297
    512    O    -1.565    19.073    3.891
    513    O    -3.465    20.512    3.023
    514    C    -4.801    20.627    3.556
    515    H    -4.875    21.483    4.067
    516    H    -5.037    19.778    4.028
    517    C    -5.878    20.754    2.474
    518    H    -6.806    20.652    2.832
    519    O    -5.744    22.057    1.885
    520    C    -5.618    21.926    0.465
    521    H    -6.535    22.023    0.078
    522    N    -4.729    23.014    -0.051
    523    C    -3.784    23.588    0.765
    524    H    -3.577    23.400    1.725
    525    C    -4.868    23.424    -1.377
    526    O    -5.689    22.938    -2.145
    527    N    -4.009    24.417    -1.797
    528    H    -4.102    24.731    -2.774
    529    C    -3.036    25.035    -1.043
    530    O    -2.323    25.903    -1.536
    531    C    -2.954    24.560    0.317
    532    H    -2.228    25.057    0.792
    533    C    -5.118    20.494    0.214
    534    H    -4.122    20.485    0.307
    535    O    -5.516    20.008    -1.073
    536    H    -5.569    20.676    -1.760
    537    C    -5.736    19.705    1.377
    538    H    -5.078    19.012    1.672
    539    O    -7.019    19.163    1.018
    540    P    -7.232    17.645    0.493
    541    O    -8.689    17.413    0.364
    542    O    -6.417    16.733    1.320
    543    O    -6.588    17.690    -0.984
    544    C    -7.167    18.523    -1.999
    545    H    -7.075    19.481    -1.726
    546    H    -8.082    18.183    -2.216
    547    C    -6.391    18.416    -3.310
    548    H    -6.853    18.907    -4.049
    549    O    -5.066    18.975    -3.128
    550    C    -4.277    18.506    -4.221
    551    H    -4.264    19.241    -4.899
    552    N    -2.904    18.249    -3.744
    553    C    -0.731    17.928    -3.680
    554    N    -1.172    17.854    -2.359
    555    C    -2.452    18.054    -2.469
    556    H    -2.866    18.024    -1.559
    557    N    0.612    17.931    -5.599
    558    C    -0.485    18.163    -6.318
    559    H    -0.490    18.267    -7.313
    560    N    -1.725    18.294    -5.864
    561    C    -1.777    18.166    -4.523
    562    C    0.531    17.806    -4.266
    563    N    1.636    17.574    -3.570
    564    H    2.516    17.496    -4.060
    565    H    1.572    17.480    -2.566
    566    C    -5.002    17.288    -4.817
    567    H    -4.362    16.520    -4.838
    568    O    -5.476    17.575    -6.141
    569    H    -4.930    18.184    -6.644
    570    C    -6.103    16.994    -3.783
    571    H    -5.723    16.468    -3.022
    572    O    -7.249    16.275    -4.289
    573    P    -7.477    14.663    -4.278
    574    O    -8.721    14.353    -5.020
    575    O    -7.319    14.166    -2.903
    576    O    -6.230    14.121    -5.132
    577    C    -6.094    14.588    -6.472
    578    H    -6.183    15.584    -6.480
    579    H    -6.701    14.058    -7.065
    580    C    -4.701    14.331    -7.036
    581    H    -4.683    14.602    -7.998
    582    O    -3.725    15.120    -6.304
    583    C    -2.462    14.428    -6.385
    584    H    -1.859    15.008    -6.932
    585    N    -1.945    14.253    -5.013
    586    C    -0.624    13.933    -3.287
    587    N    -1.916    14.036    -2.776
    588    C    -2.637    14.219    -3.837
    589    H    -3.597    14.302    -3.568
    590    N    1.697    13.676    -3.477
    591    C    1.564    13.818    -4.798
    592    H    2.328    13.788    -5.442
    593    N    0.436    14.018    -5.473
    594    C    -0.630    14.064    -4.646
    595    C    0.618    13.731    -2.680
    596    N    0.767    13.609    -1.364
    597    H    1.694    13.476    -0.986
    598    H    -0.051    13.652    -0.773
    599    C    -2.698    13.105    -7.132
    600    H    -2.211    12.374    -6.653
    601    O    -2.307    13.202    -8.504
    602    H    -1.548    13.766    -8.670
    603    C    -4.200    12.898    -6.958
    604    H    -4.380    12.540    -6.042
    605    O    -4.777    12.057    -7.977
    606    P    -4.784    10.434    -7.946
    607    O    -5.481    9.943    -9.153
    608    O    -5.222    9.969    -6.618
    609    O    -3.228    10.075    -8.102
    610    C    -2.505    10.610    -9.212
    611    H    -2.663    11.596    -9.259
    612    H    -2.706    10.064    -10.025
    613    C    -1.003    10.468    -9.013
    614    H    -0.516    10.824    -9.811
    615    O    -0.541    11.155    -7.838
    616    C    0.698    10.530    -7.448
    617    H    1.427    11.147    -7.745
    618    N    0.636    10.357    -5.982