!*** FMO 5.2 (Gamess) INPUT generated by Facio 21.1.1.32 ***
 $CONTRL RUNTYP=OPTFMO NPRINT=-5 ISPHER=-1 MAXIT=50 $END
 $SYSTEM MWORDS=29 $END
 $GDDI NGROUP=1 $END
 $INTGRL NINTIC=-9000000 $END
 $SCF DIRSCF=.FALSE. NPUNCH=0 $END
!*** NumCPU : 2  MemPerNode : 512MB
 $FMOPRP
    NAODIR=210
    NGRFMO(1)=1, 1, 0, 0, 0,   0, 0, 0, 0, 0
    NPRINT=9
 $END
 $FMO
      SCFTYP(1)=RHF
      MODGRD=10
      MODMUL=0
      MAXCAO=5
      MAXBND=34
      NLAYER=1
      NFRAG=32
      ICHARG(1)=-1, -1, -1, -1, -1, -1, -1, -1, -1, -1, 
-1, -1, -1, -1, -1, -1, -1, -1, -1, -1, 
-1, -1, -1, -1, -1, -1, -1, -1, -1, -1, 
-1, 0
      FRGNAM(1)=Frag1, Frag2, Frag3, Frag4, Frag5, Frag6, Frag7, Frag8, Frag9, Frag10, Frag11, Frag12, Frag13, Frag14, Frag15, Frag16, Frag17, Frag18, Frag19, Frag20, Frag21, Frag22, Frag23, Frag24, Frag25, Frag26, Frag27, Frag28, Frag29, Frag30, Frag31, Frag32
      indat(1)=0
               1   -36   0
               37   -69   0
               70   -103   0
               104   -134   0
               135   -167   0
               168   -201   0
               202   -231   0
               232   -261   0
               262   -292   0
               293   -323   0
               324   -354   0
               355   -385   0
               386   -415   0
               416   -449   0
               450   -480   0
               481   -513   0
               514   -543   0
               544   -576   0
               577   -609   0
               610   -643   0
               644   -677   0
               678   -710   0
               711   -740   0
               741   -774   0
               775   -807   0
               808   -840   0
               841   -871   0
               872   -902   0
               903   -936   0
               937   -966   0
               967   -996   0
               997   -1024   0
 $END

 $FMOBND
   -37   36       3-21G    MINI
   -70   69       3-21G    MINI
   -104   103       3-21G    MINI
   -135   134       3-21G    MINI
   -168   167       3-21G    MINI
   -202   201       3-21G    MINI
   -232   231       3-21G    MINI
   -262   261       3-21G    MINI
   -293   292       3-21G    MINI
   -324   323       3-21G    MINI
   -355   354       3-21G    MINI
   -386   385       3-21G    MINI
   -416   415       3-21G    MINI
   -450   449       3-21G    MINI
   -481   480       3-21G    MINI
   -514   513       3-21G    MINI
   -544   543       3-21G    MINI
   -577   576       3-21G    MINI
   -610   609       3-21G    MINI
   -644   643       3-21G    MINI
   -678   677       3-21G    MINI
   -711   710       3-21G    MINI
   -741   740       3-21G    MINI
   -775   774       3-21G    MINI
   -808   807       3-21G    MINI
   -841   840       3-21G    MINI
   -872   871       3-21G    MINI
   -903   902       3-21G    MINI
   -937   936       3-21G    MINI
   -967   966       3-21G    MINI
   -997   996       3-21G    MINI
 $END
 $FMOHYB
 3-21G        9   5
   1 0  -0.070459   0.164841   0.000000   0.000000   0.502116
         0.466939   0.000000   0.000000   0.418036
   0 1  -0.070465   0.164857   0.473392   0.000000  -0.167359
         0.466967   0.394111   0.000000  -0.139327
   0 1  -0.070465   0.164857  -0.236695  -0.409969  -0.167359
         0.466967  -0.197055  -0.341311  -0.139327
   0 1  -0.070465   0.164857  -0.236695   0.409969  -0.167359
         0.466967  -0.197055   0.341311  -0.139327
   0 1   1.006716   0.074826   0.000000   0.000000   0.000000
        -0.143830   0.000000   0.000000  -0.000003
 MINI         5   5
   1 0  -0.104883   0.308874   0.000000   0.000000   0.521806
   0 1  -0.104883   0.308874   0.491961   0.000000  -0.173934
   0 1  -0.104883   0.308876  -0.245980  -0.426050  -0.173933
   0 1  -0.104883   0.308876  -0.245980   0.426050  -0.173933
   0 1   0.988209   0.063992   0.000000   0.000000   0.000000
 $END

 $DATA
 FMO calculation : XXNAMEXX
 C1 
 C.1-1    6
      N21 3
   
 O.1-1    8
      N21 3
   
 N.1-1    7
      N21 3
   
 H.1-1    1
      N21 3
   
 P.1-1   15
      N21 3
   
 $END
 $FMOXYZ
    1    H    11.727    -15.849    -0.405
    2    O    10.941    -16.372    -0.736
    3    C    11.377    -17.686    -1.105
    4    H    11.697    -18.164    -0.287
    5    H    12.003    -17.615    -1.882
    6    C    10.230    -18.559    -1.626
    7    H    10.551    -19.433    -1.990
    8    O    9.318    -18.807    -0.568
    9    C    8.067    -19.225    -1.157
    10    H    8.081    -20.225    -1.177
    11    N    6.952    -18.717    -0.325
    12    C    5.665    -19.209    -0.292
    13    N    3.295    -21.514    -1.352
    14    H    2.328    -21.786    -1.247
    15    H    3.854    -22.072    -1.981
    16    N    5.201    -20.268    -0.996
    17    C    3.909    -20.503    -0.753
    18    N    3.144    -19.758    0.107
    19    H    2.156    -20.028    0.218
    20    C    3.592    -18.674    0.837
    21    O    2.819    -18.073    1.579
    22    C    4.968    -18.411    0.589
    23    N    5.798    -17.423    1.115
    24    C    6.938    -17.658    0.541
    25    H    7.608    -16.988    0.861
    26    C    8.045    -18.698    -2.592
    27    H    7.266    -18.080    -2.695
    28    O    8.000    -19.748    -3.565
    29    H    7.509    -20.528    -3.297
    30    C    9.328    -17.891    -2.660
    31    H    9.125    -16.958    -2.361
    32    O    9.798    -17.685    -4.003
    33    P    9.380    -16.453    -4.967
    34    O    10.168    -16.526    -6.200
    35    O    9.418    -15.255    -4.131
    36    O    7.846    -16.730    -5.311
    37    C    7.447    -17.824    -6.137
    38    H    7.739    -18.679    -5.709
    39    H    7.740    -17.646    -7.076
    40    C    5.927    -17.994    -6.266
    41    H    5.686    -18.750    -6.875
    42    O    5.445    -18.292    -4.928
    43    C    4.008    -18.131    -4.960
    44    H    3.623    -19.014    -5.230
    45    N    3.487    -17.683    -3.652
    46    C    2.214    -17.407    -1.881
    47    N    3.333    -16.602    -1.684
    48    C    4.035    -16.806    -2.758
    49    H    4.869    -16.257    -2.711
    50    N    0.157    -18.495    -1.598
    51    C    0.350    -19.079    -2.781
    52    H    -0.295    -19.720    -3.197
    53    N    1.393    -18.925    -3.594
    54    C    2.294    -18.066    -3.075
    55    C    1.075    -17.644    -1.109
    56    N    0.871    -17.071    0.074
    57    H    0.026    -17.288    0.584
    58    H    1.565    -16.433    0.435
    59    C    3.710    -17.108    -6.046
    60    H    3.327    -16.295    -5.608
    61    O    2.849    -17.598    -7.071
    62    H    2.199    -18.242    -6.781
    63    C    5.069    -16.768    -6.611
    64    H    5.421    -15.974    -6.115
    65    O    4.923    -16.171    -7.915
    66    P    4.143    -14.809    -8.331
    67    O    4.524    -14.449    -9.692
    68    O    4.323    -13.861    -7.243
    69    O    2.615    -15.217    -8.249
    70    C    2.219    -16.269    -9.121
    71    H    2.833    -17.048    -8.991
    72    H    2.115    -15.903    -10.046
    73    C    0.846    -16.803    -8.766
    74    H    0.567    -17.577    -9.334
    75    O    0.828    -17.202    -7.394
    76    C    -0.549    -17.429    -7.012
    77    H    -0.753    -18.403    -7.110
    78    N    -0.715    -16.973    -5.614
    79    C    -1.830    -17.150    -4.829
    80    N    -5.044    -18.392    -4.404
    81    H    -5.804    -18.456    -3.742
    82    H    -5.191    -18.828    -5.303
    83    N    -2.964    -17.796    -5.192
    84    C    -3.874    -17.798    -4.219
    85    N    -3.684    -17.217    -2.991
    86    H    -4.455    -17.283    -2.311
    87    C    -2.541    -16.551    -2.594
    88    O    -2.478    -16.064    -1.470
    89    C    -1.559    -16.537    -3.624
    90    N    -0.282    -15.980    -3.639
    91    C    0.154    -16.271    -4.827
    92    H    1.079    -15.907    -4.932
    93    C    -1.320    -16.646    -8.086
    94    H    -1.991    -16.064    -7.627
    95    O    -1.935    -17.519    -9.039
    96    H    -2.230    -18.361    -8.686
    97    C    -0.253    -15.768    -8.718
    98    H    0.018    -15.034    -8.095
    99    O    -0.584    -15.078    -9.932
    100    P    -0.872    -13.488    -10.030
    101    O    -1.039    -13.101    -11.437
    102    O    0.103    -12.805    -9.181
    103    O    -2.277    -13.393    -9.284
    104    C    -3.404    -14.003    -9.909
    105    H    -3.200    -14.967    -10.078
    106    H    -3.689    -13.441    -10.685
    107    C    -4.634    -14.040    -9.011
    108    H    -5.434    -14.416    -9.479
    109    O    -4.369    -14.821    -7.841
    110    C    -5.295    -14.404    -6.817
    111    H    -5.978    -15.130    -6.741
    112    N    -4.536    -14.225    -5.562
    113    C    -3.201    -13.937    -5.580
    114    H    -2.570    -13.850    -6.351
    115    C    -2.529    -13.717    -4.437
    116    H    -1.575    -13.498    -4.233
    117    C    -5.237    -14.307    -4.369
    118    O    -6.434    -14.584    -4.374
    119    N    -4.566    -14.083    -3.208
    120    C    -3.259    -13.794    -3.214
    121    N    -2.639    -13.548    -2.066
    122    H    -3.169    -13.584    -1.207
    123    H    -1.653    -13.328    -2.049
    124    C    -5.981    -13.123    -7.308
    125    H    -5.976    -12.436    -6.582
    126    O    -7.304    -13.376    -7.800
    127    H    -7.794    -14.047    -7.319
    128    C    -4.998    -12.706    -8.390
    129    H    -4.185    -12.316    -7.957
    130    O    -5.439    -11.693    -9.305
    131    P    -5.051    -10.138    -9.143
    132    O    -5.377    -9.421    -10.387
    133    O    -3.706    -10.072    -8.564
    134    O    -6.076    -9.736    -7.994
    135    C    -7.464    -9.887    -8.286
    136    H    -7.646    -10.842    -8.519
    137    H    -7.737    -9.184    -8.943
    138    C    -8.315    -9.620    -7.059
    139    H    -9.280    -9.650    -7.321
    140    O    -8.068    -10.633    -6.026
    141    C    -8.528    -10.043    -4.796
    142    H    -9.403    -10.476    -4.580
    143    N    -7.503    -10.322    -3.769
    144    C    -6.497    -10.688    -1.851
    145    N    -5.522    -10.837    -2.836
    146    C    -6.176    -10.608    -3.934
    147    H    -5.550    -10.691    -4.709
    148    N    -7.599    -10.587    0.212
    149    C    -8.719    -10.284    -0.445
    150    H    -9.599    -10.115    -0.001
    151    N    -8.867    -10.156    -1.762
    152    C    -7.704    -10.373    -2.407
    153    C    -6.459    -10.799    -0.459
    154    N    -5.353    -11.102    0.214
    155    H    -5.395    -11.166    1.221
    156    H    -4.497    -11.261    -0.297
    157    C    -8.763    -8.551    -5.072
    158    H    -8.298    -8.036    -4.352
    159    O    -10.156    -8.248    -5.186
    160    H    -10.734    -8.786    -4.640
    161    C    -8.076    -8.275    -6.400
    162    H    -7.093    -8.150    -6.263
    163    O    -8.763    -7.213    -7.086
    164    P    -8.257    -5.690    -6.894
    165    O    -9.071    -4.787    -7.737
    166    O    -6.782    -5.705    -7.049
    167    O    -8.615    -5.353    -5.359
    168    C    -9.965    -5.190    -4.904
    169    H    -10.524    -5.934    -5.270
    170    H    -10.258    -4.251    -5.084
    171    C    -10.090    -5.338    -3.392
    172    H    -11.047    -5.452    -3.126
    173    O    -9.365    -6.502    -3.019
    174    C    -9.111    -6.432    -1.606
    175    H    -9.764    -7.035    -1.147
    176    N    -7.714    -6.860    -1.370
    177    C    -7.117    -7.054    -0.145
    178    N    -7.279    -7.032    3.324
    179    H    -6.739    -7.205    4.160
    180    H    -8.235    -6.735    3.458
    181    N    -7.704    -6.887    1.063
    182    C    -6.868    -7.153    2.070
    183    N    -5.568    -7.550    1.899
    184    H    -5.011    -7.729    2.747
    185    C    -4.944    -7.730    0.677
    186    O    -3.774    -8.101    0.635
    187    C    -5.823    -7.449    -0.405
    188    N    -5.595    -7.503    -1.778
    189    C    -6.738    -7.147    -2.281
    190    H    -6.671    -7.155    -3.279
    191    C    -9.427    -4.977    -1.234
    192    H    -8.649    -4.635    -0.707
    193    O    -10.671    -4.872    -0.536
    194    H    -10.899    -5.633    0.003
    195    C    -9.514    -4.209    -2.544
    196    H    -8.601    -3.980    -2.883
    197    O    -10.405    -3.088    -2.372
    198    P    -9.898    -1.621    -1.905
    199    O    -11.026    -0.670    -1.939
    200    O    -8.682    -1.304    -2.682
    201    O    -9.472    -1.748    -0.356
    202    C    -10.394    -1.782    0.745
    203    H    -11.030    -2.542    0.613
    204    H    -10.777    -0.868    0.877
    205    C    -9.707    -2.096    2.075
    206    H    -10.403    -2.180    2.789
    207    O    -9.050    -3.332    1.927
    208    C    -7.937    -3.389    2.834
    209    H    -8.120    -4.112    3.500
    210    N    -6.711    -3.646    2.043
    211    C    -6.687    -3.403    0.696
    212    H    -7.415    -3.067    0.098
    213    C    -5.594    -4.117    2.708
    214    O    -5.587    -4.341    3.913
    215    N    -4.471    -4.318    1.933
    216    H    -3.628    -4.666    2.411
    217    C    -4.363    -4.099    0.576
    218    O    -3.306    -4.311    -0.007
    219    C    -5.573    -3.610    -0.040
    220    H    -5.410    -3.478    -1.018
    221    C    -7.964    -2.041    3.545
    222    H    -7.016    -1.745    3.659
    223    O    -8.706    -2.093    4.767
    224    H    -8.667    -2.933    5.229
    225    C    -8.666    -1.094    2.591
    226    H    -8.063    -0.833    1.837
    227    O    -9.212    -0.031    3.396
    228    P    -8.332    1.237    3.913
    229    O    -9.165    2.116    4.760
    230    O    -7.729    1.797    2.685
    231    O    -7.125    0.711    4.852
    232    C    -7.218    0.436    6.262
    233    H    -7.893    -0.287    6.409
    234    H    -7.340    1.298    6.754
    235    C    -5.936    -0.143    6.867
    236    H    -6.127    -0.442    7.802
    237    O    -5.543    -1.257    6.100
    238    C    -4.126    -1.469    6.250
    239    H    -4.002    -2.305    6.784
    240    N    -3.543    -1.573    4.893
    241    C    -4.226    -1.107    3.803
    242    H    -5.132    -0.687    3.750
    243    C    -2.283    -2.129    4.770
    244    O    -1.653    -2.558    5.732
    245    N    -1.767    -2.180    3.493
    246    H    -0.829    -2.591    3.381
    247    C    -2.385    -1.733    2.343
    248    O    -1.822    -1.826    1.258
    249    C    -3.697    -1.171    2.560
    250    H    -4.075    -0.877    1.682
    251    C    -3.626    -0.275    7.069
    252    H    -2.792    0.064    6.634
    253    O    -3.479    -0.603    8.452
    254    H    -3.208    -1.507    8.627
    255    C    -4.720    0.773    6.928
    256    H    -4.626    1.248    6.053
    257    O    -4.727    1.501    8.173
    258    P    -3.618    2.638    8.518
    259    O    -3.800    3.117    9.912
    260    O    -3.794    3.573    7.384
    261    O    -2.126    2.012    8.402
    262    C    -1.420    1.329    9.460
    263    H    -1.924    0.501    9.706
    264    H    -1.210    1.983    10.186
    265    C    -0.051    0.810    9.025
    266    H    0.357    0.197    9.702
    267    O    -0.193    0.102    7.774
    268    C    1.066    0.020    7.085
    269    H    1.443    -0.898    7.206
    270    N    0.821    0.350    5.664
    271    C    -0.302    1.028    5.284
    272    H    -1.066    1.373    5.829
    273    C    -0.514    1.332    3.993
    274    H    -1.251    1.809    3.514
    275    C    1.775    -0.042    4.736
    276    O    2.784    -0.646    5.100
    277    N    1.568    0.262    3.428
    278    C    0.470    0.926    3.043
    279    N    0.301    1.214    1.758
    280    H    1.007    0.925    1.096
    281    H    -0.519    1.714    1.445
    282    C    1.921    1.017    7.873
    283    H    2.396    1.585    7.201
    284    O    2.804    0.357    8.786
    285    H    3.105    -0.510    8.504
    286    C    0.960    1.887    8.664
    287    H    0.521    2.558    8.066
    288    O    1.682    2.357    9.810
    289    P    2.472    3.763    9.760
    290    O    3.221    3.919    11.027
    291    O    1.467    4.774    9.343
    292    O    3.552    3.618    8.566
    293    C    4.767    2.854    8.667
    294    H    4.540    1.912    8.913
    295    H    5.414    3.347    9.248
    296    C    5.478    2.734    7.324
    297    H    6.273    2.128    7.332
    298    O    4.544    2.260    6.359
    299    C    4.910    2.748    5.054
    300    H    5.170    1.963    4.492
    301    N    3.734    3.471    4.511
    302    C    2.730    3.882    5.339
    303    H    2.634    3.789    6.330
    304    C    1.653    4.522    4.853
    305    H    0.828    4.895    5.277
    306    C    3.679    3.705    3.141
    307    O    4.598    3.337    2.415
    308    N    2.589    4.354    2.640
    309    C    1.600    4.758    3.447
    310    N    0.546    5.383    2.931
    311    H    0.512    5.542    1.934
    312    H    -0.210    5.695    3.524
    313    C    6.148    3.605    5.314
    314    H    6.135    4.396    4.702
    315    O    7.358    2.848    5.218
    316    H    7.355    2.163    4.546
    317    C    5.887    4.075    6.734
    318    H    5.103    4.695    6.761
    319    O    7.066    4.620    7.337
    320    P    7.396    6.195    7.329
    321    O    8.642    6.400    8.098
    322    O    6.177    6.954    7.683
    323    O    7.709    6.469    5.783
    324    C    8.848    5.864    5.170
    325    H    8.760    4.870    5.229
    326    H    9.677    6.284    5.539
    327    C    8.914    6.148    3.678
    328    H    9.727    5.735    3.268
    329    O    7.742    5.596    3.051
    330    C    7.461    6.382    1.880
    331    H    7.562    5.781    1.087
    332    N    6.078    6.903    2.019
    333    C    5.487    6.980    3.247
    334    H    5.841    6.735    4.150
    335    C    4.233    7.444    3.380
    336    H    3.632    7.578    4.168
    337    C    5.406    7.299    0.868
    338    O    5.956    7.232    -0.228
    339    N    4.133    7.772    0.994
    340    C    3.546    7.851    2.197
    341    N    2.303    8.318    2.288
    342    H    1.826    8.604    1.445
    343    H    1.842    8.386    3.184
    344    C    8.554    7.457    1.835
    345    H    8.151    8.310    1.502
    346    O    9.677    7.037    1.055
    347    H    9.462    6.487    0.298
    348    C    8.913    7.619    3.304
    349    H    8.176    8.080    3.798
    350    O    10.210    8.210    3.478
    351    P    10.476    9.804    3.512
    352    O    11.926    10.034    3.654
    353    O    9.556    10.451    4.473
    354    O    10.068    10.283    2.035
    355    C    10.779    9.815    0.887
    356    H    10.752    8.815    0.872
    357    H    11.674    10.260    0.854
    358    C    10.085    10.242    -0.400
    359    H    10.591    9.874    -1.180
    360    O    8.749    9.724    -0.425
    361    C    7.957    10.584    -1.257
    362    H    7.731    10.066    -2.082
    363    N    6.757    10.955    -0.473
    364    C    6.768    10.869    0.887
    365    H    7.499    10.592    1.511
    366    C    5.677    11.183    1.604
    367    H    5.480    11.188    2.584
    368    C    5.624    11.371    -1.162
    369    O    5.637    11.452    -2.388
    370    N    4.514    11.691    -0.442
    371    C    4.515    11.607    0.895
    372    N    3.416    11.917    1.572
    373    H    2.596    12.212    1.062
    374    H    3.398    11.860    2.580
    375    C    8.859    11.762    -1.639
    376    H    8.326    12.600    -1.522
    377    O    9.399    11.611    -2.954
    378    H    8.828    11.156    -3.577
    379    C    9.988    11.744    -0.614
    380    H    9.688    12.175    0.237
    381    O    11.211    12.179    -1.235
    382    P    11.525    13.748    -1.472
    383    O    12.724    13.883    -2.333
    384    O    11.546    14.358    -0.119
    385    O    10.280    14.348    -2.313
    386    C    10.064    14.070    -3.705
    387    H    10.030    13.079    -3.838
    388    H    10.722    14.593    -4.247
    389    C    8.700    14.572    -4.155
    390    H    8.556    14.249    -5.090
    391    O    7.683    14.056    -3.330
    392    C    6.549    14.920    -3.494
    393    H    5.920    14.447    -4.112
    394    N    5.966    15.137    -2.152
    395    C    6.710    14.925    -1.023
    396    H    7.657    14.617    -0.931
    397    C    4.655    15.566    -2.084
    398    O    3.971    15.763    -3.083
    399    N    4.152    15.768    -0.816
    400    H    3.177    16.092    -0.743
    401    C    4.828    15.579    0.371
    402    O    4.270    15.784    1.445
    403    C    6.192    15.130    0.208
    404    H    6.609    15.021    1.110
    405    C    7.040    16.204    -4.169
    406    H    6.790    16.969    -3.576
    407    O    6.544    16.321    -5.508
    408    H    5.672    15.945    -5.652
    409    C    8.558    16.082    -4.207
    410    H    8.949    16.475    -3.375
    411    O    8.983    16.503    -5.517
    412    P    9.365    18.056    -5.780
    413    O    9.467    18.295    -7.244
    414    O    10.560    18.276    -4.925
    415    O    8.114    18.938    -5.235
    416    C    6.902    19.138    -5.984
    417    H    6.538    18.248    -6.258
    418    H    7.070    19.816    -6.700
    419    C    5.828    19.753    -5.093
    420    H    5.027    19.967    -5.652
    421    O    5.448    18.854    -4.068
    422    C    5.034    19.615    -2.915
    423    H    4.056    19.446    -2.790
    424    N    5.861    19.182    -1.772
    425    C    5.520    19.271    -0.441
    426    N    3.230    20.085    2.038
    427    H    3.092    20.099    3.038
    428    H    2.459    20.410    1.472
    429    N    4.347    19.725    0.053
    430    C    4.314    19.685    1.387
    431    N    5.352    19.236    2.163
    432    H    5.221    19.250    3.184
    433    C    6.559    18.767    1.682
    434    O    7.422    18.390    2.465
    435    C    6.606    18.803    0.263
    436    N    7.624    18.423    -0.606
    437    C    7.125    18.671    -1.775
    438    H    7.797    18.427    -2.474
    439    C    5.242    21.079    -3.268
    440    H    5.662    21.530    -2.481
    441    O    4.028    21.698    -3.711
    442    H    3.230    21.373    -3.289
    443    C    6.245    21.044    -4.413
    444    H    7.169    20.935    -4.047
    445    O    5.942    22.108    -5.318
    446    P    6.976    23.344    -5.347
    447    O    6.496    24.328    -6.346
    448    O    8.352    22.782    -5.440
    449    O    6.740    23.956    -3.871
    450    C    7.739    24.757    -3.239
    451    H    7.830    25.618    -3.739
    452    H    8.562    24.205    -3.104
    453    C    7.315    25.169    -1.833
    454    H    8.076    25.584    -1.334
    455    O    6.269    26.125    -1.960
    456    C    5.070    25.642    -1.330
    457    H    4.811    26.337    -0.659
    458    N    4.048    25.483    -2.390
    459    C    4.239    24.621    -3.433
    460    H    5.006    24.011    -3.634
    461    C    3.313    24.493    -4.400
    462    H    3.259    23.935    -5.228
    463    C    2.895    26.251    -2.294
    464    O    2.740    27.016    -1.345
    465    N    1.952    26.126    -3.270
    466    C    2.132    25.284    -4.295
    467    N    1.194    25.191    -5.235
    468    H    0.364    25.760    -5.154
    469    H    1.308    24.562    -6.017
    470    C    5.402    24.338    -0.596
    471    H    4.802    23.629    -0.966
    472    O    5.281    24.469    0.823
    473    H    4.614    25.094    1.117
    474    C    6.842    24.011    -0.966
    475    H    6.825    23.177    -1.518
    476    O    7.666    23.980    0.209
    477    P    7.561    22.745    1.246
    478    O    8.848    22.640    1.972
    479    O    7.030    21.573    0.515
    480    O    6.429    23.250    2.287
    481    C    6.644    24.405    3.122
    482    H    6.759    25.210    2.540
    483    H    7.365    24.199    3.784
    484    C    5.424    24.740    3.989
    485    H    5.660    25.438    4.665
    486    O    4.385    25.241    3.148
    487    C    3.162    24.541    3.388
    488    H    2.597    25.155    3.939
    489    N    2.531    24.244    2.088
    490    C    1.151    24.260    0.384
    491    N    2.253    23.507    -0.016
    492    C    3.020    23.535    1.030
    493    H    3.849    23.009    0.840
    494    N    -0.913    25.363    0.421
    495    C    -0.646    25.738    1.672
    496    H    -1.264    26.289    2.233
    497    N    0.447    25.460    2.377
    498    C    1.311    24.708    1.662
    499    C    -0.033    24.619    -0.264
    500    N    -0.297    24.292    -1.526
    501    H    -1.159    24.612    -1.945
    502    H    0.370    23.731    -2.036
    503    C    3.468    23.297    4.195
    504    H    3.516    22.526    3.560
    505    O    2.507    23.102    5.235
    506    H    1.618    23.399    5.027
    507    C    4.855    23.549    4.776
    508    H    5.409    22.738    4.585
    509    O    4.733    23.923    6.154
    510    P    4.279    22.838    7.264
    511    O    4.893    23.224    8.556
    512    O    4.528    21.488    6.704
    513    O    2.682    23.060    7.369
    514    C    2.019    23.200    8.639
    515    H    2.404    23.986    9.122
    516    H    2.021    22.316    9.106
    517    C    0.535    23.542    8.480
    518    H    0.051    23.461    9.351
    519    O    0.448    24.900    8.021
    520    C    -0.352    24.950    6.834
    521    H    -1.286    25.168    7.116
    522    N    0.167    26.028    5.934
    523    C    1.483    26.420    6.002
    524    H    2.211    26.095    6.606
    525    C    -0.703    26.618    5.017
    526    O    -1.882    26.300    4.913
    527    N    -0.161    27.591    4.204
    528    H    -0.793    28.036    3.523
    529    C    1.145    28.031    4.209
    530    O    1.513    28.900    3.425
    531    C    1.983    27.377    5.184
    532    H    2.908    27.751    5.121
    533    C    -0.324    23.528    6.251
    534    H    0.509    23.426    5.707
    535    O    -1.493    23.251    5.472
    536    H    -1.856    24.006    5.004
    537    C    -0.216    22.643    7.500
    538    H    0.354    21.851    7.282
    539    O    -1.518    22.274    7.989
    540    P    -2.258    20.882    7.622
    541    O    -3.497    20.789    8.422
    542    O    -1.288    19.773    7.679
    543    O    -2.688    21.086    6.082
    544    C    -3.652    22.083    5.711
    545    H    -3.292    22.987    5.943
    546    H    -4.545    21.826    6.080
    547    C    -3.855    22.123    4.198
    548    H    -4.588    22.769    3.984
    549    O    -2.642    22.549    3.530
    550    C    -2.795    22.184    2.161
    551    H    -3.109    23.004    1.683
    552    N    -1.482    21.754    1.649
    553    C    0.187    21.274    0.309
    554    N    0.653    21.051    1.604
    555    C    -0.374    21.352    2.340
    556    H    -0.134    21.223    3.302
    557    N    0.035    21.448    -2.022
    558    C    -1.224    21.853    -1.871
    559    H    -1.829    22.093    -2.631
    560    N    -1.883    22.007    -0.729
    561    C    -1.109    21.699    0.330
    562    C    0.781    21.146    -0.948
    563    N    2.032    20.744    -1.122
    564    H    2.398    20.673    -2.061
    565    H    2.591    20.517    -0.312
    566    C    -3.892    21.110    2.086
    567    H    -3.497    20.299    1.655
    568    O    -5.043    21.596    1.383
    569    H    -4.854    22.224    0.682
    570    C    -4.213    20.790    3.552
    571    H    -3.587    20.087    3.888
    572    O    -5.605    20.461    3.699
    573    P    -6.137    18.936    3.634
    574    O    -7.614    18.944    3.689
    575    O    -5.397    18.121    4.621
    576    O    -5.723    18.439    2.156
    577    C    -6.300    19.046    0.996
    578    H    -6.225    20.040    1.077
    579    H    -7.207    18.655    0.841
    580    C    -5.524    18.712    -0.275
    581    H    -6.042    19.121    -1.027
    582    O    -4.196    19.296    -0.243
    583    C    -3.349    18.468    -1.062
    584    H    -3.085    19.030    -1.846
    585    N    -2.187    18.075    -0.242
    586    C    -0.195    17.413    0.397
    587    N    -0.933    17.607    1.562
    588    C    -2.088    17.989    1.117
    589    H    -2.699    18.150    1.892
    590    N    1.533    16.913    -1.104
    591    C    0.699    17.216    -2.102
    592    H    0.947    17.170    -3.070
    593    N    -0.564    17.619    -1.997
    594    C    -0.948    17.694    -0.706
    595    C    1.120    17.002    0.170
    596    N    1.968    16.718    1.155
    597    H    2.911    16.439    0.924
    598    H    1.649    16.787    2.111
    599    C    -4.181    17.273    -1.560
    600    H    -3.640    16.442    -1.430
    601    O    -4.626    17.469    -2.904
    602    H    -4.016    17.953    -3.466
    603    C    -5.378    17.241    -0.611
    604    H    -5.128    16.741    0.218
    605    O    -6.566    16.881    -1.343
    606    P    -6.840    15.348    -1.794
    607    O    -8.072    15.311    -2.620
    608    O    -6.775    14.545    -0.547
    609    O    -5.613    14.920    -2.764
    610    C    -5.396    15.467    -4.076
    611    H    -5.324    16.462    -4.006
    612    H    -6.077    15.089    -4.703
    613    C    -4.054    15.015    -4.637
    614    H    -3.956    15.432    -5.541
    615    O    -2.978    15.465    -3.794
    616    C    -1.858    14.607    -4.068
    617    H    -1.223    15.138    -4.628
    618    N    -1.277    14.228    -2.761