!*** FMO 5.2 (Gamess) INPUT generated by Facio 21.1.1.32 ***
 $CONTRL RUNTYP=OPTFMO NPRINT=-5 ISPHER=-1 MAXIT=50 $END
 $SYSTEM MWORDS=29 $END
 $GDDI NGROUP=1 $END
 $INTGRL NINTIC=-9000000 $END
 $SCF DIRSCF=.FALSE. NPUNCH=0 $END
!*** NumCPU : 2  MemPerNode : 512MB
 $FMOPRP
    NAODIR=210
    NGRFMO(1)=1, 1, 0, 0, 0,   0, 0, 0, 0, 0
    NPRINT=9
 $END
 $FMO
      SCFTYP(1)=RHF
      MODGRD=10
      MODMUL=0
      MAXCAO=5
      MAXBND=34
      NLAYER=1
      NFRAG=32
      ICHARG(1)=-1, -1, -1, -1, -1, -1, -1, -1, -1, -1, 
-1, -1, -1, -1, -1, -1, -1, -1, -1, -1, 
-1, -1, -1, -1, -1, -1, -1, -1, -1, -1, 
-1, 0
      FRGNAM(1)=Frag1, Frag2, Frag3, Frag4, Frag5, Frag6, Frag7, Frag8, Frag9, Frag10, Frag11, Frag12, Frag13, Frag14, Frag15, Frag16, Frag17, Frag18, Frag19, Frag20, Frag21, Frag22, Frag23, Frag24, Frag25, Frag26, Frag27, Frag28, Frag29, Frag30, Frag31, Frag32
      indat(1)=0
               1   -36   0
               37   -69   0
               70   -103   0
               104   -134   0
               135   -167   0
               168   -201   0
               202   -231   0
               232   -261   0
               262   -292   0
               293   -323   0
               324   -354   0
               355   -385   0
               386   -415   0
               416   -449   0
               450   -480   0
               481   -513   0
               514   -543   0
               544   -576   0
               577   -609   0
               610   -643   0
               644   -677   0
               678   -710   0
               711   -740   0
               741   -774   0
               775   -807   0
               808   -840   0
               841   -871   0
               872   -902   0
               903   -936   0
               937   -966   0
               967   -996   0
               997   -1024   0
 $END

 $FMOBND
   -37   36       3-21G    MINI
   -70   69       3-21G    MINI
   -104   103       3-21G    MINI
   -135   134       3-21G    MINI
   -168   167       3-21G    MINI
   -202   201       3-21G    MINI
   -232   231       3-21G    MINI
   -262   261       3-21G    MINI
   -293   292       3-21G    MINI
   -324   323       3-21G    MINI
   -355   354       3-21G    MINI
   -386   385       3-21G    MINI
   -416   415       3-21G    MINI
   -450   449       3-21G    MINI
   -481   480       3-21G    MINI
   -514   513       3-21G    MINI
   -544   543       3-21G    MINI
   -577   576       3-21G    MINI
   -610   609       3-21G    MINI
   -644   643       3-21G    MINI
   -678   677       3-21G    MINI
   -711   710       3-21G    MINI
   -741   740       3-21G    MINI
   -775   774       3-21G    MINI
   -808   807       3-21G    MINI
   -841   840       3-21G    MINI
   -872   871       3-21G    MINI
   -903   902       3-21G    MINI
   -937   936       3-21G    MINI
   -967   966       3-21G    MINI
   -997   996       3-21G    MINI
 $END
 $FMOHYB
 3-21G        9   5
   1 0  -0.070459   0.164841   0.000000   0.000000   0.502116
         0.466939   0.000000   0.000000   0.418036
   0 1  -0.070465   0.164857   0.473392   0.000000  -0.167359
         0.466967   0.394111   0.000000  -0.139327
   0 1  -0.070465   0.164857  -0.236695  -0.409969  -0.167359
         0.466967  -0.197055  -0.341311  -0.139327
   0 1  -0.070465   0.164857  -0.236695   0.409969  -0.167359
         0.466967  -0.197055   0.341311  -0.139327
   0 1   1.006716   0.074826   0.000000   0.000000   0.000000
        -0.143830   0.000000   0.000000  -0.000003
 MINI         5   5
   1 0  -0.104883   0.308874   0.000000   0.000000   0.521806
   0 1  -0.104883   0.308874   0.491961   0.000000  -0.173934
   0 1  -0.104883   0.308876  -0.245980  -0.426050  -0.173933
   0 1  -0.104883   0.308876  -0.245980   0.426050  -0.173933
   0 1   0.988209   0.063992   0.000000   0.000000   0.000000
 $END

 $DATA
 FMO calculation : XXNAMEXX
 C1 
 C.1-1    6
      N21 3
   
 O.1-1    8
      N21 3
   
 N.1-1    7
      N21 3
   
 H.1-1    1
      N21 3
   
 P.1-1   15
      N21 3
   
 $END
 $FMOXYZ
    1    H    9.260    -19.928    -1.194
    2    O    8.452    -20.086    -1.761
    3    C    8.820    -20.899    -2.882
    4    H    9.101    -21.800    -2.552
    5    H    9.460    -20.390    -3.457
    6    C    7.629    -21.182    -3.795
    7    H    7.944    -21.660    -4.615
    8    O    6.653    -21.974    -3.147
    9    C    5.426    -21.814    -3.887
    10    H    5.393    -22.564    -4.548
    11    N    4.312    -21.865    -2.914
    12    C    3.000    -22.173    -3.194
    13    N    0.544    -23.100    -5.464
    14    H    -0.441    -23.307    -5.550
    15    H    1.094    -23.168    -6.308
    16    N    2.504    -22.505    -4.409
    17    C    1.192    -22.748    -4.363
    18    N    0.439    -22.668    -3.220
    19    H    -0.567    -22.876    -3.299
    20    C    0.920    -22.331    -1.970
    21    O    0.155    -22.286    -1.010
    22    C    2.318    -22.069    -2.002
    23    N    3.183    -21.704    -0.974
    24    C    4.329    -21.601    -1.572
    25    H    5.023    -21.338    -0.902
    26    C    5.519    -20.487    -4.644
    27    H    4.807    -19.879    -4.294
    28    O    5.434    -20.669    -6.064
    29    H    4.872    -21.394    -6.347
    30    C    6.880    -19.938    -4.244
    31    H    6.758    -19.330    -3.459
    32    O    7.544    -19.359    -5.373
    33    P    7.437    -17.791    -5.709
    34    O    8.300    -17.483    -6.871
    35    O    7.622    -17.064    -4.435
    36    O    5.904    -17.648    -6.167
    37    C    5.453    -18.292    -7.363
    38    H    5.672    -19.266    -7.310
    39    H    5.786    -17.779    -8.154
    40    C    3.937    -18.256    -7.504
    41    H    3.673    -18.650    -8.384
    42    O    3.308    -19.011    -6.443
    43    C    1.931    -18.584    -6.435
    44    H    1.446    -19.164    -7.090
    45    N    1.414    -18.743    -5.060
    46    C    0.106    -19.153    -3.344
    47    N    1.315    -18.712    -2.813
    48    C    2.036    -18.488    -3.870
    49    H    2.937    -18.161    -3.586
    50    N    -2.095    -19.928    -3.566
    51    C    -1.925    -19.907    -4.889
    52    H    -2.631    -20.172    -5.546
    53    N    -0.830    -19.545    -5.553
    54    C    0.155    -19.176    -4.709
    55    C    -1.093    -19.555    -2.752
    56    N    -1.276    -19.583    -1.435
    57    H    -2.168    -19.885    -1.071
    58    H    -0.518    -19.301    -0.829
    59    C    1.911    -17.140    -6.938
    60    H    1.718    -16.551    -6.153
    61    O    0.986    -16.966    -8.015
    62    H    0.208    -17.528    -7.976
    63    C    3.325    -16.868    -7.424
    64    H    3.803    -16.341    -6.721
    65    O    3.303    -16.293    -8.732
    66    P    2.790    -14.807    -8.999
    67    O    3.157    -14.391    -10.367
    68    O    3.263    -14.046    -7.830
    69    O    1.191    -14.942    -8.921
    70    C    0.465    -15.614    -9.955
    71    H    0.834    -16.537    -10.065
    72    H    0.428    -15.025    -10.762
    73    C    -0.994    -15.832    -9.578
    74    H    -1.509    -16.312    -10.288
    75    O    -1.066    -16.580    -8.364
    76    C    -2.416    -16.500    -7.858
    77    H    -2.928    -17.298    -8.175
    78    N    -2.335    -16.421    -6.385
    79    C    -3.394    -16.483    -5.510
    80    N    -6.800    -16.805    -4.924
    81    H    -7.494    -16.833    -4.191
    82    H    -7.140    -16.901    -5.870
    83    N    -4.696    -16.639    -5.847
    84    C    -5.492    -16.656    -4.778
    85    N    -5.043    -16.534    -3.488
    86    H    -5.746    -16.567    -2.736
    87    C    -3.723    -16.371    -3.116
    88    O    -3.431    -16.268    -1.929
    89    C    -2.860    -16.349    -4.247
    90    N    -1.475    -16.207    -4.317
    91    C    -1.236    -16.257    -5.591
    92    H    -0.252    -16.161    -5.742
    93    C    -2.950    -15.250    -8.568
    94    H    -3.335    -14.652    -7.865
    95    O    -3.884    -15.579    -9.602
    96    H    -4.408    -16.366    -9.439
    97    C    -1.738    -14.575    -9.182
    98    H    -1.211    -14.091    -8.484
    99    O    -2.104    -13.789    -10.318
    100    P    -2.256    -12.197    -10.203
    101    O    -2.600    -11.639    -11.528
    102    O    -1.048    -11.737    -9.489
    103    O    -3.525    -12.017    -9.232
    104    C    -4.834    -12.341    -9.708
    105    H    -4.844    -13.295    -10.009
    106    H    -5.126    -11.641    -10.360
    107    C    -5.884    -12.286    -8.606
    108    H    -6.799    -12.437    -8.981
    109    O    -5.617    -13.282    -7.613
    110    C    -6.260    -12.855    -6.399
    111    H    -7.068    -13.433    -6.286
    112    N    -5.288    -13.014    -5.299
    113    C    -3.944    -12.986    -5.537
    114    H    -3.441    -12.903    -6.397
    115    C    -3.066    -13.078    -4.524
    116    H    -2.067    -13.078    -4.480
    117    C    -5.791    -13.143    -4.014
    118    O    -7.003    -13.182    -3.825
    119    N    -4.909    -13.235    -2.983
    120    C    -3.589    -13.204    -3.204
    121    N    -2.753    -13.261    -2.173
    122    H    -3.133    -13.327    -1.240
    123    H    -1.754    -13.239    -2.318
    124    C    -6.710    -11.405    -6.608
    125    H    -6.415    -10.862    -5.822
    126    O    -8.119    -11.314    -6.855
    127    H    -8.655    -11.955    -6.383
    128    C    -5.907    -10.986    -7.828
    129    H    -4.974    -10.756    -7.550
    130    O    -6.592    -9.950    -8.561
    131    P    -6.247    -8.393    -8.232
    132    O    -6.929    -7.547    -9.242
    133    O    -4.782    -8.234    -8.023
    134    O    -6.979    -8.152    -6.816
    135    C    -8.406    -8.231    -6.735
    136    H    -8.698    -9.145    -7.017
    137    H    -8.803    -7.445    -7.209
    138    C    -8.902    -8.100    -5.301
    139    H    -9.901    -8.082    -5.275
    140    O    -8.422    -9.219    -4.479
    141    C    -8.498    -8.763    -3.114
    142    H    -9.299    -9.204    -2.710
    143    N    -7.244    -9.171    -2.448
    144    C    -5.767    -9.769    -0.936
    145    N    -5.108    -9.821    -2.163
    146    C    -6.028    -9.457    -3.005
    147    H    -5.644    -9.460    -3.928
    148    N    -6.254    -9.885    1.351
    149    C    -7.495    -9.491    1.068
    150    H    -8.209    -9.359    1.755
    151    N    -7.993    -9.212    -0.134
    152    C    -7.064    -9.373    -1.097
    153    C    -5.353    -10.038    0.371
    154    N    -4.120    -10.433    0.675
    155    H    -3.887    -10.610    1.642
    156    H    -3.445    -10.547    -0.068
    157    C    -8.729    -7.247    -3.153
    158    H    -8.067    -6.817    -2.539
    159    O    -10.085    -6.906    -2.847
    160    H    -10.515    -7.484    -2.213
    161    C    -8.397    -6.863    -4.586
    162    H    -7.405    -6.803    -4.701
    163    O    -9.107    -5.669    -4.986
    164    P    -8.356    -4.214    -4.808
    165    O    -9.270    -3.177    -5.350
    166    O    -6.937    -4.234    -5.275
    167    O    -8.336    -4.053    -3.203
    168    C    -9.575    -4.048    -2.488
    169    H    -10.171    -4.758    -2.864
    170    H    -9.926    -3.112    -2.452
    171    C    -9.398    -4.440    -1.028
    172    H    -10.269    -4.632    -0.576
    173    O    -8.577    -5.593    -0.957
    174    C    -8.054    -5.685    0.382
    175    H    -8.598    -6.365    0.873
    176    N    -6.632    -6.075    0.275
    177    C    -5.799    -6.403    1.320
    178    N    -5.261    -6.838    4.722
    179    H    -4.562    -7.098    5.403
    180    H    -6.173    -6.597    5.082
    181    N    -6.134    -6.416    2.631
    182    C    -5.110    -6.779    3.407
    183    N    -3.866    -7.099    2.930
    184    H    -3.148    -7.364    3.619
    185    C    -3.498    -7.095    1.597
    186    O    -2.356    -7.410    1.274
    187    C    -4.580    -6.709    0.758
    188    N    -4.633    -6.575    -0.628
    189    C    -5.857    -6.202    -0.842
    190    H    -5.992    -6.077    -1.825
    191    C    -8.305    -4.304    1.000
    192    H    -7.448    -3.986    1.407
    193    O    -9.389    -4.325    1.934
    194    H    -9.485    -5.144    2.426
    195    C    -8.642    -3.425    -0.194
    196    H    -7.806    -3.165    -0.677
    197    O    -9.489    -2.328    0.197
    198    P    -8.828    -0.863    0.474
    199    O    -9.942    0.099    0.644
    200    O    -7.747    -0.561    -0.503
    201    O    -8.139    -1.085    1.914
    202    C    -8.950    -1.361    3.062
    203    H    -9.550    -2.135    2.858
    204    H    -9.372    -0.510    3.375
    205    C    -8.113    -1.829    4.246
    206    H    -8.665    -2.017    5.059
    207    O    -7.423    -2.999    3.881
    208    C    -6.204    -3.090    4.643
    209    H    -6.287    -3.876    5.256
    210    N    -5.087    -3.223    3.679
    211    C    -5.243    -2.849    2.371
    212    H    -6.048    -2.478    1.907
    213    C    -3.885    -3.723    4.145
    214    O    -3.719    -4.063    5.311
    215    N    -2.870    -3.813    3.217
    216    H    -1.966    -4.180    3.546
    217    C    -2.943    -3.460    1.886
    218    O    -1.967    -3.583    1.155
    219    C    -4.231    -2.950    1.482
    220    H    -4.199    -2.719    0.510
    221    C    -6.170    -1.812    5.475
    222    H    -5.229    -1.475    5.508
    223    O    -6.745    -1.998    6.773
    224    H    -6.595    -2.862    7.163
    225    C    -7.006    -0.862    4.640
    226    H    -6.505    -0.588    3.819
    227    O    -7.498    0.219    5.436
    228    P    -6.734    1.634    5.467
    229    O    -7.529    2.572    6.287
    230    O    -6.366    1.985    4.079
    231    O    -5.393    1.265    6.274
    232    C    -5.474    0.861    7.644
    233    H    -6.101    0.086    7.718
    234    H    -5.654    1.665    8.211
    235    C    -4.151    0.320    8.177
    236    H    -4.214    0.022    9.130
    237    O    -3.753    -0.771    7.381
    238    C    -2.319    -0.916    7.456
    239    H    -2.128    -1.733    8.000
    240    N    -1.815    -1.026    6.068
    241    C    -2.579    -0.610    5.011
    242    H    -3.502    -0.226    5.005
    243    C    -0.544    -1.537    5.879
    244    O    0.157    -1.921    6.810
    245    N    -0.104    -1.596    4.575
    246    H    0.840    -1.974    4.415
    247    C    -0.805    -1.197    3.456
    248    O    -0.305    -1.292    2.341
    249    C    -2.123    -0.680    3.741
    250    H    -2.563    -0.419    2.882
    251    C    -1.828    0.318    8.221
    252    H    -1.027    0.689    7.751
    253    O    -1.583    0.026    9.598
    254    H    -1.242    -0.855    9.771
    255    C    -2.990    1.287    8.059
    256    H    -2.981    1.674    7.137
    257    O    -3.036    2.229    9.131
    258    P    -2.351    3.667    9.028
    259    O    -2.608    4.415    10.276
    260    O    -2.753    4.220    7.721
    261    O    -0.794    3.286    8.969
    262    C    -0.165    2.653    10.089
    263    H    -0.668    1.819    10.316
    264    H    -0.030    3.330    10.812
    265    C    1.239    2.171    9.753
    266    H    1.686    1.679    10.500
    267    O    1.173    1.311    8.596
    268    C    2.459    1.226    7.956
    269    H    2.889    0.359    8.207
    270    N    2.239    1.347    6.497
    271    C    1.089    1.891    6.003
    272    H    0.287    2.253    6.479
    273    C    0.900    2.007    4.677
    274    H    0.150    2.365    4.120
    275    C    3.247    0.900    5.654
    276    O    4.279    0.419    6.120
    277    N    3.064    1.014    4.313
    278    C    1.940    1.546    3.815
    279    N    1.796    1.649    2.499
    280    H    2.540    1.323    1.899
    281    H    0.957    2.047    2.102
    282    C    3.221    2.374    8.628
    283    H    3.688    2.882    7.904
    284    O    4.114    1.899    9.640
    285    H    4.484    1.028    9.477
    286    C    2.162    3.267    9.256
    287    H    1.688    3.798    8.554
    288    O    2.718    4.021    10.337
    289    P    3.160    5.551    10.140
    290    O    3.721    6.057    11.410
    291    O    2.035    6.258    9.488
    292    O    4.355    5.415    9.073
    293    C    5.574    4.746    9.419
    294    H    5.356    3.845    9.793
    295    H    6.136    5.360    9.973
    296    C    6.413    4.460    8.183
    297    H    7.254    3.953    8.370
    298    O    5.626    3.725    7.252
    299    C    6.077    4.013    5.915
    300    H    6.465    3.174    5.533
    301    N    4.900    4.495    5.154
    302    C    3.785    4.934    5.807
    303    H    3.599    5.010    6.787
    304    C    2.707    5.354    5.123
    305    H    1.812    5.703    5.401
    306    C    4.961    4.472    3.765
    307    O    5.979    4.084    3.198
    308    N    3.871    4.897    3.064
    309    C    2.773    5.327    3.698
    310    N    1.722    5.729    2.990
    311    H    1.773    5.702    1.982
    312    H    0.885    6.057    3.450
    313    C    7.197    5.035    6.113
    314    H    7.165    5.702    5.369
    315    O    8.476    4.412    6.258
    316    H    8.605    3.623    5.727
    317    C    6.767    5.712    7.402
    318    H    5.937    6.251    7.257
    319    O    7.850    6.426    8.007
    320    P    8.008    8.013    7.806
    321    O    9.114    8.492    8.664
    322    O    6.665    8.631    7.910
    323    O    8.485    8.097    6.277
    324    C    9.764    7.574    5.908
    325    H    9.799    6.603    6.143
    326    H    10.478    8.171    6.275
    327    C    9.982    7.606    4.403
    328    H    10.886    7.270    4.140
    329    O    8.978    6.802    3.758
    330    C    8.741    7.351    2.448
    331    H    9.028    6.662    1.783
    332    N    7.293    7.660    2.362
    333    C    6.549    7.824    3.494
    334    H    6.820    7.781    4.456
    335    C    5.233    8.089    3.421
    336    H    4.524    8.238    4.111
    337    C    6.720    7.763    1.099
    338    O    7.408    7.623    0.091
    339    N    5.386    8.034    1.016
    340    C    4.648    8.195    2.123
    341    N    3.349    8.460    2.010
    342    H    2.944    8.535    1.088
    343    H    2.775    8.585    2.831
    344    C    9.661    8.570    2.331
    345    H    9.186    9.295    1.832
    346    O    10.927    8.237    1.756
    347    H    10.897    7.566    1.070
    348    C    9.792    8.977    3.789
    349    H    8.930    9.364    4.116
    350    O    10.951    9.776    3.995
    351    P    10.881    11.362    3.927
    352    O    12.210    11.903    4.264
    353    O    9.688    11.737    4.710
    354    O    10.588    11.639    2.374
    355    C    11.555    11.296    1.377
    356    H    11.753    10.318    1.438
    357    H    12.323    11.934    1.435
    358    C    11.003    11.488    -0.031
    359    H    11.666    11.246    -0.739
    360    O    9.822    10.693    -0.205
    361    C    8.987    11.323    -1.192
    362    H    9.015    10.746    -2.009
    363    N    7.630    11.423    -0.610
    364    C    7.453    11.375    0.741
    365    H    8.125    11.294    1.477
    366    C    6.224    11.438    1.276
    367    H    5.884    11.419    2.216
    368    C    6.550    11.541    -1.476
    369    O    6.730    11.593    -2.691
    370    N    5.300    11.606    -0.941
    371    C    5.117    11.557    0.385
    372    N    3.886    11.613    0.880
    373    H    3.107    11.692    0.242
    374    H    3.729    11.577    1.877
    375    C    9.638    12.670    -1.511
    376    H    8.926    13.371    -1.534
    377    O    10.398    12.628    -2.722
    378    H    10.042    12.054    -3.404
    379    C    10.526    12.905    -0.296
    380    H    9.966    13.209    0.475
    381    O    11.628    13.754    -0.615
    382    P    11.520    15.331    -0.366
    383    O    12.782    15.963    -0.803
    384    O    11.020    15.529    1.011
    385    O    10.361    15.743    -1.397
    386    C    10.550    15.537    -2.800
    387    H    10.801    14.582    -2.958
    388    H    11.159    16.246    -3.154
    389    C    9.259    15.723    -3.582
    390    H    9.396    15.515    -4.550
    391    O    8.249    14.884    -3.071
    392    C    6.992    15.453    -3.476
    393    H    6.683    14.922    -4.265
    394    N    6.066    15.342    -2.329
    395    C    6.542    15.174    -1.058
    396    H    7.486    15.101    -0.735
    397    C    4.710    15.418    -2.587
    398    O    4.260    15.568    -3.719
    399    N    3.880    15.321    -1.490
    400    H    2.866    15.381    -1.660
    401    C    4.275    15.151    -0.180
    402    O    3.439    15.068    0.716
    403    C    5.707    15.080    0.000
    404    H    5.907    14.960    0.972
    405    C    7.256    16.894    -3.917
    406    H    6.661    17.499    -3.388
    407    O    7.089    17.062    -5.331
    408    H    6.408    16.513    -5.727
    409    C    8.700    17.129    -3.498
    410    H    8.722    17.432    -2.545
    411    O    9.361    18.005    -4.425
    412    P    9.607    19.553    -4.016
    413    O    10.161    20.248    -5.202
    414    O    10.326    19.624    -2.720
    415    O    8.105    20.087    -3.782
    416    C    7.185    20.171    -4.877
    417    H    7.167    19.293    -5.355
    418    H    7.389    20.991    -5.411
    419    C    5.752    20.374    -4.394
    420    H    5.139    20.548    -5.165
    421    O    5.305    19.222    -3.699
    422    C    4.347    19.620    -2.697
    423    H    3.465    19.234    -2.967
    424    N    4.822    19.121    -1.390
    425    C    4.044    18.857    -0.284
    426    N    0.926    18.665    1.234
    427    H    0.461    18.442    2.103
    428    H    0.334    18.943    0.465
    429    N    2.697    18.957    -0.214
    430    C    2.230    18.632    0.995
    431    N    3.026    18.243    2.041
    432    H    2.561    18.016    2.931
    433    C    4.403    18.132    1.995
    434    O    5.019    17.776    2.991
    435    C    4.912    18.474    0.714
    436    N    6.224    18.493    0.251
    437    C    6.099    18.878    -0.980
    438    H    7.005    18.922    -1.401
    439    C    4.264    21.137    -2.763
    440    H    4.245    21.494    -1.829
    441    O    3.148    21.578    -3.548
    442    H    2.369    21.019    -3.496
    443    C    5.587    21.522    -3.414
    444    H    6.320    21.478    -2.735
    445    O    5.489    22.791    -4.075
    446    P    6.194    24.074    -3.381
    447    O    5.978    25.241    -4.263
    448    O    7.574    23.716    -2.969
    449    O    5.312    24.261    -2.046
    450    C    5.778    25.030    -0.937
    451    H    5.843    25.990    -1.211
    452    H    6.595    24.594    -0.559
    453    C    4.771    25.023    0.210
    454    H    5.179    25.414    1.035
    455    O    3.655    25.818    -0.177
    456    C    2.457    25.023    -0.213
    457    H    1.800    25.483    0.385
    458    N    1.994    24.981    -1.619
    459    C    2.774    24.443    -2.603
    460    H    3.680    24.023    -2.551
    461    C    2.354    24.422    -3.881
    462    H    2.760    24.085    -4.731
    463    C    0.746    25.519    -1.904
    464    O    0.058    25.992    -1.004
    465    N    0.314    25.501    -3.197
    466    C    1.073    24.977    -4.167
    467    N    0.624    24.981    -5.420
    468    H    -0.283    25.381    -5.612
    469    H    1.179    24.591    -6.168
    470    C    2.780    23.642    0.370
    471    H    2.560    22.965    -0.332
    472    O    2.090    23.397    1.599
    473    H    1.232    23.822    1.674
    474    C    4.284    23.637    0.610
    475    H    4.681    22.961    -0.011
    476    O    4.565    23.436    2.003
    477    P    4.330    21.996    2.700
    478    O    5.204    21.913    3.892
    479    O    4.420    20.958    1.649
    480    O    2.795    22.072    3.205
    481    C    2.380    23.013    4.216
    482    H    2.522    23.942    3.874
    483    H    2.804    22.764    5.087
    484    C    0.874    22.948    4.503
    485    H    0.655    23.496    5.310
    486    O    0.170    23.475    3.378
    487    C    -0.846    22.566    2.951
    488    H    -1.710    22.944    3.282
    489    N    -0.821    22.492    1.478
    490    C    -1.372    22.701    -0.635
    491    N    -0.059    22.235    -0.620
    492    C    0.199    22.131    0.647
    493    H    1.133    21.793    0.762
    494    N    -3.475    23.448    -1.339
    495    C    -3.822    23.556    -0.057
    496    H    -4.721    23.864    0.252
    497    N    -3.068    23.285    1.005
    498    C    -1.842    22.857    0.636
    499    C    -2.248    23.023    -1.673
    500    N    -1.904    22.965    -2.956
    501    H    -2.576    23.243    -3.656
    502    H    -0.978    22.644    -3.201
    503    C    -0.606    21.228    3.617
    504    H    -0.129    20.643    2.961
    505    O    -1.828    20.656    4.089
    506    H    -2.602    20.860    3.559
    507    C    0.330    21.537    4.778
    508    H    1.085    20.883    4.734
    509    O    -0.423    21.549    6.001
    510    P    -1.060    20.183    6.605
    511    O    -1.129    20.325    8.079
    512    O    -0.337    19.029    6.016
    513    O    -2.571    20.175    6.032
    514    C    -3.701    19.932    6.890
    515    H    -3.716    20.623    7.613
    516    H    -3.703    18.970    7.162
    517    C    -5.027    20.123    6.152
    518    H    -5.787    19.783    6.705
    519    O    -5.216    21.526    5.909
    520    C    -5.456    21.741    4.513
    521    H    -6.448    21.762    4.385
    522    N    -4.856    23.052    4.112
    523    C    -3.795    23.576    4.812
    524    H    -3.324    23.212    5.616
    525    C    -5.380    23.724    3.007
    526    O    -6.319    23.295    2.348
    527    N    -4.772    24.916    2.678
    528    H    -5.151    25.423    1.866
    529    C    -3.706    25.501    3.326
    530    O    -3.243    26.565    2.927
    531    C    -3.220    24.749    4.457
    532    H    -2.451    25.239    4.868
    533    C    -4.885    20.512    3.791
    534    H    -3.901    20.642    3.666
    535    O    -5.559    20.269    2.549
    536    H    -5.849    21.057    2.084
    537    C    -5.115    19.394    4.816
    538    H    -4.357    18.745    4.749
    539    O    -6.425    18.838    4.641
    540    P    -6.664    17.492    3.791
    541    O    -8.083    17.101    3.948
    542    O    -5.594    16.536    4.146
    543    O    -6.436    17.969    2.265
    544    C    -7.343    18.885    1.628
    545    H    -7.310    19.762    2.107
    546    H    -8.233    18.442    1.523
    547    C    -6.901    19.207    0.201
    548    H    -7.587    19.778    -0.250
    549    O    -5.630    19.900    0.190
    550    C    -5.125    19.784    -1.139
    551    H    -5.379    20.629    -1.610
    552    N    -3.662    19.638    -1.059
    553    C    -1.528    19.657    -1.561
    554    N    -1.608    19.257    -0.227
    555    C    -2.887    19.268    0.004
    556    H    -3.049    18.992    0.951
    557    N    -0.726    20.248    -3.680
    558    C    -1.988    20.440    -4.061
    559    H    -2.257    20.735    -4.978
    560    N    -3.078    20.281    -3.322
    561    C    -2.771    19.887    -2.071
    562    C    -0.451    19.854    -2.428
    563    N    0.812    19.668    -2.072
    564    H    1.541    19.827    -2.753
    565    H    1.016    19.371    -1.128
    566    C    -5.837    18.603    -1.813
    567    H    -5.144    17.946    -2.109
    568    O    -6.672    19.044    -2.894
    569    H    -6.343    19.806    -3.375
    570    C    -6.655    17.986    -0.672
    571    H    -6.084    17.336    -0.170
    572    O    -7.878    17.449    -1.189
    573    P    -7.979    15.883    -1.541
    574    O    -9.319    15.631    -2.116
    575    O    -7.534    15.122    -0.353
    576    O    -6.884    15.689    -2.711
    577    C    -7.053    16.351    -3.970
    578    H    -7.226    17.322    -3.807
    579    H    -7.717    15.843    -4.519
    580    C    -5.785    16.340    -4.822
    581    H    -5.988    16.741    -5.715
    582    O    -4.731    17.110    -4.187
    583    C    -3.467    16.551    -4.604
    584    H    -3.029    17.247    -5.173
    585    N    -2.685    16.255    -3.390
    586    C    -1.035    15.863    -1.997
    587    N    -2.206    15.776    -1.248
    588    C    -3.131    16.012    -2.123
    589    H    -4.023    15.966    -1.674
    590    N    1.217    15.861    -2.645
    591    C    0.818    16.146    -3.886
    592    H    1.442    16.269    -4.658
    593    N    -0.431    16.312    -4.309
    594    C    -1.315    16.153    -3.301
    595    C    0.313    15.713    -1.663
    596    N    0.726    15.452    -0.426
    597    H    1.717    15.370    -0.248
    598    H    0.039    15.342    0.307
    599    C    -3.752    15.309    -5.463
    600    H    -3.148    14.568    -5.170
    601    O    -3.647    15.595    -6.860
    602    H    -2.968    16.233    -7.093
    603    C    -5.184    14.970    -5.064
    604    H    -5.166    14.465    -4.201
    605    O    -5.867    14.302    -6.144
    606    P    -5.810    12.675    -6.238
    607    O    -6.661    12.260    -7.378
    608    O    -6.033    12.060    -4.902
    609    O    -4.272    12.421    -6.650
    610    C    -3.730    13.041    -7.823
    611    H    -3.895    14.026    -7.777
    612    H    -4.054    12.549    -8.631
    613    C    -2.213    12.910    -7.879
    614    H    -1.853    13.314    -8.720
    615    O    -1.601    13.558    -6.748
    616    C    -0.307    12.952    -6.563
    617    H    0.363    13.601    -6.922