!*** FMO 5.2 (Gamess) INPUT generated by Facio 21.1.1.32 ***
 $CONTRL RUNTYP=OPTFMO NPRINT=-5 ISPHER=-1 MAXIT=50 $END
 $SYSTEM MWORDS=29 $END
 $GDDI NGROUP=1 $END
 $INTGRL NINTIC=-9000000 $END
 $SCF DIRSCF=.FALSE. NPUNCH=0 $END
!*** NumCPU : 2  MemPerNode : 512MB
 $FMOPRP
    NAODIR=210
    NGRFMO(1)=1, 1, 0, 0, 0,   0, 0, 0, 0, 0
    NPRINT=9
 $END
 $FMO
      SCFTYP(1)=RHF
      MODGRD=10
      MODMUL=0
      MAXCAO=5
      MAXBND=34
      NLAYER=1
      NFRAG=32
      ICHARG(1)=-1, -1, -1, -1, -1, -1, -1, -1, -1, -1, 
-1, -1, -1, -1, -1, -1, -1, -1, -1, -1, 
-1, -1, -1, -1, -1, -1, -1, -1, -1, -1, 
-1, 0
      FRGNAM(1)=Frag1, Frag2, Frag3, Frag4, Frag5, Frag6, Frag7, Frag8, Frag9, Frag10, Frag11, Frag12, Frag13, Frag14, Frag15, Frag16, Frag17, Frag18, Frag19, Frag20, Frag21, Frag22, Frag23, Frag24, Frag25, Frag26, Frag27, Frag28, Frag29, Frag30, Frag31, Frag32
      indat(1)=0
               1   -36   0
               37   -69   0
               70   -103   0
               104   -134   0
               135   -167   0
               168   -201   0
               202   -231   0
               232   -261   0
               262   -292   0
               293   -323   0
               324   -354   0
               355   -385   0
               386   -415   0
               416   -449   0
               450   -480   0
               481   -513   0
               514   -543   0
               544   -576   0
               577   -609   0
               610   -643   0
               644   -677   0
               678   -710   0
               711   -740   0
               741   -774   0
               775   -807   0
               808   -840   0
               841   -871   0
               872   -902   0
               903   -936   0
               937   -966   0
               967   -996   0
               997   -1024   0
 $END

 $FMOBND
   -37   36       3-21G    MINI
   -70   69       3-21G    MINI
   -104   103       3-21G    MINI
   -135   134       3-21G    MINI
   -168   167       3-21G    MINI
   -202   201       3-21G    MINI
   -232   231       3-21G    MINI
   -262   261       3-21G    MINI
   -293   292       3-21G    MINI
   -324   323       3-21G    MINI
   -355   354       3-21G    MINI
   -386   385       3-21G    MINI
   -416   415       3-21G    MINI
   -450   449       3-21G    MINI
   -481   480       3-21G    MINI
   -514   513       3-21G    MINI
   -544   543       3-21G    MINI
   -577   576       3-21G    MINI
   -610   609       3-21G    MINI
   -644   643       3-21G    MINI
   -678   677       3-21G    MINI
   -711   710       3-21G    MINI
   -741   740       3-21G    MINI
   -775   774       3-21G    MINI
   -808   807       3-21G    MINI
   -841   840       3-21G    MINI
   -872   871       3-21G    MINI
   -903   902       3-21G    MINI
   -937   936       3-21G    MINI
   -967   966       3-21G    MINI
   -997   996       3-21G    MINI
 $END
 $FMOHYB
 3-21G        9   5
   1 0  -0.070459   0.164841   0.000000   0.000000   0.502116
         0.466939   0.000000   0.000000   0.418036
   0 1  -0.070465   0.164857   0.473392   0.000000  -0.167359
         0.466967   0.394111   0.000000  -0.139327
   0 1  -0.070465   0.164857  -0.236695  -0.409969  -0.167359
         0.466967  -0.197055  -0.341311  -0.139327
   0 1  -0.070465   0.164857  -0.236695   0.409969  -0.167359
         0.466967  -0.197055   0.341311  -0.139327
   0 1   1.006716   0.074826   0.000000   0.000000   0.000000
        -0.143830   0.000000   0.000000  -0.000003
 MINI         5   5
   1 0  -0.104883   0.308874   0.000000   0.000000   0.521806
   0 1  -0.104883   0.308874   0.491961   0.000000  -0.173934
   0 1  -0.104883   0.308876  -0.245980  -0.426050  -0.173933
   0 1  -0.104883   0.308876  -0.245980   0.426050  -0.173933
   0 1   0.988209   0.063992   0.000000   0.000000   0.000000
 $END

 $DATA
 FMO calculation : XXNAMEXX
 C1 
 C.1-1    6
      N21 3
   
 O.1-1    8
      N21 3
   
 N.1-1    7
      N21 3
   
 H.1-1    1
      N21 3
   
 P.1-1   15
      N21 3
   
 $END
 $FMOXYZ
    1    H    9.764    -10.704    -0.740
    2    O    9.074    -11.179    -1.287
    3    C    9.666    -11.598    -2.524
    4    H    10.375    -12.277    -2.332
    5    H    9.922    -10.789    -3.053
    6    C    8.676    -12.335    -3.424
    7    H    9.068    -12.525    -4.324
    8    O    8.277    -13.555    -2.828
    9    C    7.047    -13.965    -3.467
    10    H    7.305    -14.579    -4.213
    11    N    6.212    -14.651    -2.454
    12    C    5.189    -15.539    -2.706
    13    N    3.255    -17.345    -4.951
    14    H    2.490    -18.001    -5.014
    15    H    3.674    -17.057    -5.824
    16    N    4.786    -15.961    -3.927
    17    C    3.768    -16.821    -3.847
    18    N    3.198    -17.226    -2.667
    19    H    2.416    -17.894    -2.723
    20    C    3.589    -16.810    -1.409
    21    O    3.007    -17.234    -0.415
    22    C    4.675    -15.892    -1.477
    23    N    5.362    -15.243    -0.454
    24    C    6.244    -14.536    -1.092
    25    H    6.794    -14.027    -0.430
    26    C    6.399    -12.711    -4.056
    27    H    5.512    -12.572    -3.615
    28    O    6.266    -12.782    -5.478
    29    H    6.100    -13.661    -5.826
    30    C    7.349    -11.612    -3.614
    31    H    7.036    -11.268    -2.729
    32    O    7.341    -10.431    -4.425
    33    P    6.399    -9.141    -4.164
    34    O    6.809    -8.126    -5.138
    35    O    6.289    -8.748    -2.762
    36    O    4.970    -9.708    -4.568
    37    C    4.833    -10.273    -5.862
    38    H    5.550    -10.957    -5.996
    39    H    4.758    -9.535    -6.533
    40    C    3.546    -11.058    -6.044
    41    H    3.469    -11.383    -6.986
    42    O    3.484    -12.190    -5.149
    43    C    2.097    -12.586    -5.128
    44    H    1.968    -13.216    -5.894
    45    N    1.832    -13.223    -3.823
    46    C    1.061    -14.556    -2.257
    47    N    1.867    -13.623    -1.610
    48    C    2.286    -12.872    -2.583
    49    H    2.881    -12.159    -2.211
    50    N    -0.377    -16.353    -2.699
    51    C    -0.326    -16.025    -3.991
    52    H    -0.814    -16.518    -4.712
    53    N    0.356    -15.021    -4.538
    54    C    1.032    -14.322    -3.603
    55    C    0.309    -15.637    -1.793
    56    N    0.251    -15.979    -0.509
    57    H    -0.310    -16.774    -0.239
    58    H    0.770    -15.436    0.166
    59    C    1.265    -11.329    -5.373
    60    H    0.818    -11.082    -4.513
    61    O    0.333    -11.501    -6.445
    62    H    -0.019    -12.389    -6.537
    63    C    2.296    -10.268    -5.717
    64    H    2.461    -9.722    -4.896
    65    O    1.891    -9.522    -6.865
    66    P    0.715    -8.440    -6.688
    67    O    0.783    -7.568    -7.881
    68    O    0.710    -7.857    -5.324
    69    O    -0.519    -9.460    -6.806
    70    C    -0.649    -10.213    -8.013
    71    H    0.205    -10.706    -8.183
    72    H    -0.996    -9.614    -8.735
    73    C    -1.702    -11.299    -7.870
    74    H    -1.817    -11.820    -8.716
    75    O    -1.324    -12.192    -6.822
    76    C    -2.466    -13.012    -6.499
    77    H    -2.405    -13.868    -7.012
    78    N    -2.466    -13.216    -5.035
    79    C    -3.293    -14.060    -4.333
    80    N    -5.857    -16.399    -4.272
    81    H    -6.409    -16.975    -3.653
    82    H    -6.063    -16.471    -5.258
    83    N    -4.247    -14.861    -4.863
    84    C    -4.891    -15.558    -3.929
    85    N    -4.617    -15.477    -2.588
    86    H    -5.175    -16.067    -1.954
    87    C    -3.652    -14.667    -2.020
    88    O    -3.492    -14.669    -0.803
    89    C    -2.956    -13.913    -3.005
    90    N    -1.923    -12.990    -2.864
    91    C    -1.685    -12.622    -4.085
    92    H    -0.946    -11.949    -4.084
    93    C    -3.626    -12.176    -7.059
    94    H    -4.288    -12.071    -6.317
    95    O    -4.174    -12.759    -8.247
    96    H    -4.125    -13.717    -8.288
    97    C    -3.061    -10.812    -7.414
    98    H    -2.947    -10.247    -6.597
    99    O    -3.787    -10.238    -8.511
    100    P    -4.839    -9.043    -8.243
    101    O    -5.423    -8.528    -9.508
    102    O    -4.119    -8.117    -7.332
    103    O    -6.016    -9.801    -7.435
    104    C    -6.938    -10.664    -8.114
    105    H    -6.429    -11.407    -8.549
    106    H    -7.540    -10.110    -8.689
    107    C    -7.873    -11.359    -7.131
    108    H    -8.549    -11.873    -7.659
    109    O    -7.075    -12.284    -6.363
    110    C    -7.811    -12.560    -5.164
    111    H    -8.169    -13.490    -5.243
    112    N    -6.894    -12.434    -4.010
    113    C    -5.786    -11.637    -4.082
    114    H    -5.420    -11.108    -4.848
    115    C    -4.990    -11.466    -3.012
    116    H    -4.153    -10.941    -2.856
    117    C    -7.227    -13.094    -2.836
    118    O    -8.218    -13.819    -2.796
    119    N    -6.430    -12.924    -1.748
    120    C    -5.345    -12.141    -1.808
    121    N    -4.604    -11.968    -0.719
    122    H    -4.876    -12.433    0.135
    123    H    -3.782    -11.382    -0.742
    124    C    -8.990    -11.568    -5.160
    125    H    -9.018    -11.164    -4.246
    126    O    -10.206    -12.227    -5.512
    127    H    -10.251    -13.154    -5.266
    128    C    -8.674    -10.482    -6.170
    129    H    -8.067    -9.792    -5.776
    130    O    -9.898    -9.811    -6.655
    131    P    -10.562    -8.425    -6.125
    132    O    -11.642    -7.839    -6.944
    133    O    -9.392    -7.564    -5.952
    134    O    -11.267    -8.598    -4.683
    135    C    -12.598    -9.066    -4.439
    136    H    -12.670    -10.016    -4.742
    137    H    -13.249    -8.405    -4.812
    138    C    -12.958    -9.131    -2.946
    139    H    -13.907    -9.443    -2.895
    140    O    -12.069    -10.185    -2.378
    141    C    -12.083    -9.974    -0.957
    142    H    -12.614    -10.716    -0.547
    143    N    -10.690    -10.008    -0.445
    144    C    -8.919    -10.198    0.850
    145    N    -8.439    -9.874    -0.418
    146    C    -9.523    -9.776    -1.126
    147    H    -9.277    -9.541    -2.066
    148    N    -9.049    -10.731    3.126
    149    C    -10.374    -10.782    2.998
    150    H    -10.999    -10.993    3.750
    151    N    -11.083    -10.571    1.892
    152    C    -10.282    -10.280    0.847
    153    C    -8.279    -10.441    2.068
    154    N    -6.958    -10.397    2.216
    155    H    -6.561    -10.584    3.126
    156    H    -6.383    -10.178    1.415
    157    C    -12.841    -8.644    -0.758
    158    H    -12.300    -8.128    -0.094
    159    O    -14.158    -8.891    -0.279
    160    H    -14.263    -9.706    0.217
    161    C    -12.886    -7.876    -2.061
    162    H    -12.025    -7.400    -2.241
    163    O    -13.728    -6.668    -2.039
    164    P    -13.499    -5.094    -1.665
    165    O    -14.618    -4.171    -1.838
    166    O    -12.319    -4.642    -2.383
    167    O    -13.158    -4.841    -0.134
    168    C    -14.065    -4.788    0.969
    169    H    -14.718    -5.541    0.890
    170    H    -14.428    -3.859    1.048
    171    C    -13.434    -5.026    2.342
    172    H    -14.161    -5.294    2.974
    173    O    -12.544    -6.134    2.159
    174    C    -11.642    -6.188    3.283
    175    H    -11.918    -6.950    3.870
    176    N    -10.258    -6.402    2.785
    177    C    -9.133    -6.621    3.555
    178    N    -7.649    -7.019    6.669
    179    H    -6.764    -7.182    7.128
    180    H    -8.456    -6.920    7.268
    181    N    -9.100    -6.701    4.906
    182    C    -7.865    -6.920    5.365
    183    N    -6.762    -7.048    4.562
    184    H    -5.856    -7.215    5.024
    185    C    -6.768    -6.971    3.181
    186    O    -5.723    -7.112    2.554
    187    C    -8.078    -6.737    2.677
    188    N    -8.517    -6.594    1.363
    189    C    -9.794    -6.401    1.498
    190    H    -10.203    -6.285    0.593
    191    C    -11.911    -4.864    4.021
    192    H    -11.017    -4.481    4.255
    193    O    -12.675    -5.100    5.201
    194    H    -12.550    -5.965    5.598
    195    C    -12.606    -3.934    3.038
    196    H    -11.957    -3.549    2.381
    197    O    -12.933    -2.582    3.386
    198    P    -12.223    -1.093    3.359
    199    O    -13.089    0.008    3.764
    200    O    -11.535    -0.819    2.144
    201    O    -11.076    -1.052    4.434
    202    C    -11.325    -1.072    5.834
    203    H    -11.967    -1.811    6.040
    204    H    -11.561    -0.148    6.136
    205    C    -10.118    -1.416    6.690
    206    H    -10.382    -1.513    7.650
    207    O    -9.598    -2.646    6.230
    208    C    -8.192    -2.720    6.547
    209    H    -8.062    -3.465    7.201
    210    N    -7.447    -2.955    5.284
    211    C    -8.019    -2.667    4.073
    212    H    -8.934    -2.317    3.871
    213    C    -6.154    -3.441    5.367
    214    O    -5.616    -3.706    6.436
    215    N    -5.492    -3.607    4.169
    216    H    -4.527    -3.964    4.213
    217    C    -5.994    -3.342    2.912
    218    O    -5.307    -3.527    1.914
    219    C    -7.348    -2.841    2.913
    220    H    -7.634    -2.675    1.969
    221    C    -7.896    -1.392    7.241
    222    H    -6.981    -1.089    6.976
    223    O    -8.020    -1.505    8.659
    224    H    -7.763    -2.356    9.022
    225    C    -8.922    -0.465    6.621
    226    H    -8.703    -0.286    5.662
    227    O    -8.964    0.909    7.054
    228    P    -8.183    2.228    6.508
    229    O    -8.588    3.400    7.288
    230    O    -8.151    2.412    5.073
    231    O    -6.682    1.904    6.894
    232    C    -6.414    1.612    8.254
    233    H    -7.065    0.924    8.574
    234    H    -6.350    2.469    8.765
    235    C    -5.064    0.958    8.494
    236    H    -4.912    0.717    9.453
    237    O    -4.968    -0.207    7.708
    238    C    -3.575    -0.499    7.463
    239    H    -3.340    -1.305    8.006
    240    N    -3.425    -0.735    6.009
    241    C    -4.375    -0.295    5.127
    242    H    -5.235    0.184    5.303
    243    C    -2.287    -1.388    5.573
    244    O    -1.425    -1.797    6.344
    245    N    -2.173    -1.561    4.211
    246    H    -1.331    -2.046    3.868
    247    C    -3.078    -1.148    3.255
    248    O    -2.865    -1.353    2.065
    249    C    -4.239    -0.479    3.794
    250    H    -4.843    -0.217    3.041
    251    C    -2.802    0.709    8.002
    252    H    -2.094    0.966    7.344
    253    O    -2.273    0.466    9.306
    254    H    -1.978    -0.434    9.462
    255    C    -3.886    1.776    8.006
    256    H    -4.064    2.077    7.069
    257    O    -3.603    2.882    8.872
    258    P    -2.844    4.214    8.366
    259    O    -2.795    5.100    9.543
    260    O    -3.343    4.736    7.078
    261    O    -1.400    3.589    8.093
    262    C    -0.785    2.857    9.153
    263    H    -1.413    2.144    9.463
    264    H    -0.435    3.501    9.833
    265    C    0.444    2.099    8.682
    266    H    0.881    1.545    9.390
    267    O    0.086    1.249    7.575
    268    C    1.253    0.908    6.804
    269    H    1.539    -0.020    7.045
    270    N    0.891    1.040    5.375
    271    C    -0.187    1.782    4.989
    272    H    -0.846    2.300    5.535
    273    C    -0.505    1.903    3.688
    274    H    -1.235    2.385    3.203
    275    C    1.691    0.391    4.447
    276    O    2.662    -0.268    4.816
    277    N    1.377    0.509    3.130
    278    C    0.322    1.234    2.737
    279    N    0.047    1.335    1.442
    280    H    0.642    0.861    0.778
    281    H    -0.744    1.877    1.123
    282    C    2.291    1.903    7.334
    283    H    2.759    2.301    6.545
    284    O    3.190    1.293    8.266
    285    H    3.380    0.367    8.099
    286    C    1.478    2.986    8.026
    287    H    1.026    3.568    7.350
    288    O    2.233    3.662    9.031
    289    P    2.765    5.150    8.753
    290    O    3.434    5.593    9.996
    291    O    1.729    5.996    8.108
    292    O    3.857    4.757    7.642
    293    C    4.877    3.817    7.999
    294    H    4.448    3.011    8.407
    295    H    5.584    4.289    8.526
    296    C    5.589    3.299    6.762
    297    H    6.308    2.629    6.944
    298    O    4.635    2.726    5.878
    299    C    5.097    2.864    4.520
    300    H    5.285    1.948    4.166
    301    N    4.026    3.562    3.770
    302    C    3.051    4.251    4.431
    303    H    2.917    4.400    5.411
    304    C    2.065    4.866    3.757
    305    H    1.274    5.408    4.043
    306    C    4.036    3.477    2.382
    307    O    4.929    2.862    1.807
    308    N    3.038    4.099    1.691
    309    C    2.076    4.775    2.333
    310    N    1.112    5.366    1.635
    311    H    1.124    5.293    0.628
    312    H    0.378    5.880    2.102
    313    C    6.415    3.630    4.643
    314    H    6.502    4.269    3.878
    315    O    7.539    2.759    4.789
    316    H    7.491    1.946    4.280
    317    C    6.160    4.416    5.917
    318    H    5.450    5.104    5.764
    319    O    7.363    4.894    6.513
    320    P    7.657    6.467    6.462
    321    O    8.774    6.748    7.396
    322    O    6.390    7.241    6.535
    323    O    8.188    6.488    4.950
    324    C    9.347    5.705    4.653
    325    H    9.167    4.752    4.897
    326    H    10.150    6.148    5.052
    327    C    9.626    5.674    3.160
    328    H    10.468    5.187    2.929
    329    O    8.526    5.059    2.471
    330    C    8.440    5.638    1.154
    331    H    8.632    4.907    0.500
    332    N    7.071    6.188    1.012
    333    C    6.321    6.478    2.115
    334    H    6.542    6.393    3.087
    335    C    5.072    6.960    1.990
    336    H    4.371    7.229    2.651
    337    C    6.575    6.381    -0.271
    338    O    7.270    6.124    -1.252
    339    N    5.310    6.870    -0.408
    340    C    4.566    7.157    0.670
    341    N    3.335    7.635    0.505
    342    H    2.986    7.772    -0.433
    343    H    2.757    7.858    1.303
    344    C    9.554    6.685    1.073
    345    H    9.229    7.484    0.567
    346    O    10.774    6.146    0.555
    347    H    10.666    5.496    -0.143
    348    C    9.684    7.049    2.542
    349    H    8.881    7.570    2.832
    350    O    10.956    7.628    2.820
    351    P    10.994    9.209    3.069
    352    O    12.341    9.547    3.589
    353    O    9.763    9.602    3.805
    354    O    10.859    9.683    1.536
    355    C    11.867    9.287    0.598
    356    H    11.923    8.289    0.583
    357    H    12.705    9.801    0.784
    358    C    11.476    9.678    -0.821
    359    H    12.168    9.433    -1.500
    360    O    10.235    9.047    -1.170
    361    C    9.564    9.864    -2.145
    362    H    9.603    9.371    -3.014
    363    N    8.176    10.059    -1.667
    364    C    7.873    9.898    -0.347
    365    H    8.462    9.668    0.427
    366    C    6.614    10.049    0.092
    367    H    6.190    9.976    0.995
    368    C    7.198    10.387    -2.597
    369    O    7.492    10.538    -3.781
    370    N    5.918    10.541    -2.159
    371    C    5.612    10.383    -0.865
    372    N    4.354    10.531    -0.466
    373    H    3.649    10.761    -1.151
    374    H    4.104    10.416    0.506
    375    C    10.380    11.151    -2.266
    376    H    9.752    11.929    -2.270
    377    O    11.237    11.141    -3.410
    378    H    10.884    10.683    -4.177
    379    C    11.172    11.159    -0.965
    380    H    10.577    11.444    -0.213
    381    O    12.361    11.949    -1.059
    382    P    12.369    13.445    -0.466
    383    O    13.712    14.033    -0.648
    384    O    11.745    13.436    0.874
    385    O    11.362    14.171    -1.480
    386    C    11.674    14.214    -2.875
    387    H    11.854    13.285    -3.197
    388    H    12.377    14.908    -3.030
    389    C    10.494    14.680    -3.713
    390    H    10.721    14.640    -4.686
    391    O    9.375    13.856    -3.468
    392    C    8.214    14.606    -3.861
    393    H    7.945    14.263    -4.761
    394    N    7.165    14.374    -2.844
    395    C    7.490    13.928    -1.592
    396    H    8.386    13.703    -1.209
    397    C    5.854    14.629    -3.200
    398    O    5.539    15.028    -4.317
    399    N    4.908    14.413    -2.220
    400    H    3.925    14.601    -2.464
    401    C    5.149    13.967    -0.938
    402    O    4.221    13.803    -0.151
    403    C    6.544    13.724    -0.649
    404    H    6.631    13.409    0.296
    405    C    8.639    16.070    -3.992
    406    H    8.038    16.618    -3.410
    407    O    8.629    16.509    -5.355
    408    H    7.957    16.102    -5.907
    409    C    10.048    16.103    -3.418
    410    H    10.003    16.231    -2.427
    411    O    10.828    17.096    -4.109
    412    P    11.024    18.591    -3.524
    413    O    11.664    19.461    -4.534
    414    O    11.662    18.432    -2.202
    415    O    9.536    19.160    -3.294
    416    C    8.691    19.553    -4.381
    417    H    8.652    18.809    -5.048
    418    H    8.974    20.457    -4.703
    419    C    7.240    19.744    -3.940
    420    H    6.690    20.100    -4.696
    421    O    6.690    18.509    -3.511
    422    C    5.694    18.762    -2.500
    423    H    4.812    18.491    -2.885
    424    N    6.062    17.992    -1.295
    425    C    5.206    17.566    -0.304
    426    N    1.995    17.273    0.987
    427    H    1.468    16.913    1.769
    428    H    1.465    17.733    0.260
    429    N    3.864    17.733    -0.283
    430    C    3.308    17.207    0.811
    431    N    4.018    16.573    1.798
    432    H    3.488    16.204    2.601
    433    C    5.387    16.390    1.800
    434    O    5.923    15.809    2.736
    435    C    5.991    16.943    0.640
    436    N    7.328    16.971    0.256
    437    C    7.299    17.596    -0.879
    438    H    8.230    17.665    -1.237
    439    C    5.692    20.265    -2.267
    440    H    5.636    20.432    -1.283
    441    O    4.652    20.921    -3.004
    442    H    3.844    20.412    -3.105
    443    C    7.066    20.693    -2.765
    444    H    7.754    20.481    -2.071
    445    O    7.006    22.057    -3.190
    446    P    7.596    23.184    -2.207
    447    O    7.414    24.510    -2.840
    448    O    8.947    22.705    -1.834
    449    O    6.655    23.101    -0.899
    450    C    7.113    23.605    0.358
    451    H    7.219    24.597    0.292
    452    H    7.902    23.068    0.656
    453    C    6.080    23.407    1.464
    454    H    6.486    23.596    2.358
    455    O    5.007    24.314    1.241
    456    C    3.780    23.598    1.017
    457    H    3.128    23.948    1.689
    458    N    3.353    23.877    -0.374
    459    C    4.136    23.525    -1.437
    460    H    5.022    23.062    -1.461
    461    C    3.749    23.796    -2.696
    462    H    4.164    23.630    -3.591
    463    C    2.136    24.518    -0.558
    464    O    1.445    24.820    0.411
    465    N    1.738    24.795    -1.832
    466    C    2.500    24.456    -2.879
    467    N    2.084    24.746    -4.109
    468    H    1.199    25.218    -4.226
    469    H    2.642    24.500    -4.914
    470    C    4.033    22.112    1.295
    471    H    3.806    21.610    0.460
    472    O    3.302    21.642    2.433
    473    H    2.459    22.077    2.581
    474    C    5.529    21.993    1.554
    475    H    5.915    21.445    0.811
    476    O    5.758    21.528    2.890
    477    P    5.475    19.980    3.247
    478    O    6.315    19.617    4.415
    479    O    5.595    19.229    1.974
    480    O    3.919    19.965    3.707
    481    C    3.466    20.620    4.914
    482    H    3.609    21.606    4.823
    483    H    3.868    20.159    5.705
    484    C    1.952    20.486    5.139
    485    H    1.699    20.817    6.048
    486    O    1.290    21.281    4.154
    487    C    0.289    20.514    3.481
    488    H    -0.587    20.802    3.869
    489    N    0.358    20.809    2.037
    490    C    -0.131    21.538    0.026
    491    N    1.182    21.078    -0.036
    492    C    1.403    20.661    1.172
    493    H    2.334    20.300    1.227
    494    N    -2.216    22.443    -0.532
    495    C    -2.602    22.230    0.725
    496    H    -3.512    22.453    1.075
    497    N    -1.878    21.702    1.708
    498    C    -0.640    21.375    1.282
    499    C    -0.978    22.111    -0.925
    500    N    -0.596    22.371    -2.172
    501    H    -1.249    22.815    -2.802
    502    H    0.338    22.118    -2.461
    503    C    0.512    19.051    3.800
    504    H    1.015    18.648    3.035
    505    O    -0.720    18.385    4.077
    506    H    -1.479    18.718    3.592
    507    C    1.403    19.049    5.034
    508    H    2.162    18.423    4.855
    509    O    0.621    18.676    6.182
    510    P    0.011    17.185    6.388
    511    O    -0.101    16.916    7.834
    512    O    0.764    16.231    5.550
    513    O    -1.481    17.284    5.789
    514    C    -2.629    16.817    6.514
    515    H    -2.676    17.294    7.392
    516    H    -2.623    15.817    6.524
    517    C    -3.938    17.184    5.809
    518    H    -4.704    16.704    6.238
    519    O    -4.142    18.600    5.938
    520    C    -4.343    19.174    4.640
    521    H    -5.330    19.227    4.490
    522    N    -3.747    20.547    4.615
    523    C    -2.714    20.874    5.460
    524    H    -2.263    20.315    6.155
    525    C    -4.246    21.482    3.708
    526    O    -5.160    21.237    2.930
    527    N    -3.643    22.721    3.720
    528    H    -4.003    23.422    3.057
    529    C    -2.603    23.120    4.532
    530    O    -2.141    24.254    4.440
    531    C    -2.142    22.102    5.442
    532    H    -1.392    22.471    5.990
    533    C    -3.738    18.175    3.641
    534    H    -2.752    18.333    3.588
    535    O    -4.370    18.267    2.358
    536    H    -4.652    19.150    2.107
    537    C    -3.991    16.826    4.327
    538    H    -3.230    16.213    4.113
    539    O    -5.293    16.332    3.963
    540    P    -5.510    15.268    2.762
    541    O    -6.929    14.846    2.763
    542    O    -4.450    14.239    2.849
    543    O    -5.260    16.141    1.426
    544    C    -6.159    17.192    1.035
    545    H    -6.146    17.908    1.733
    546    H    -7.042    16.791    0.791
    547    C    -5.682    17.885    -0.241
    548    H    -6.370    18.553    -0.523
    549    O    -4.424    18.568    -0.021
    550    C    -3.884    18.826    -1.316
    551    H    -4.134    19.767    -1.543
    552    N    -2.422    18.667    -1.240
    553    C    -0.277    18.830    -1.662
    554    N    -0.386    18.077    -0.493
    555    C    -1.670    18.021    -0.301
    556    H    -1.852    17.495    0.529
    557    N    0.570    19.986    -3.514
    558    C    -0.684    20.272    -3.859
    559    H    -0.932    20.808    -4.666
    560    N    -1.790    19.913    -3.222
    561    C    -1.510    19.189    -2.121
    562    C    0.819    19.262    -2.412
    563    N    2.074    18.988    -2.088
    564    H    2.818    19.331    -2.679
    565    H    2.258    18.443    -1.258
    566    C    -4.570    17.873    -2.306
    567    H    -3.858    17.325    -2.745
    568    O    -5.379    18.595    -3.245
    569    H    -5.048    19.465    -3.480
    570    C    -5.432    16.959    -1.424
    571    H    -4.888    16.178    -1.117
    572    O    -6.650    16.668    -2.132
    573    P    -6.787    15.333    -3.034
    574    O    -8.090    15.303    -3.745
    575    O    -6.446    14.238    -2.098
    576    O    -5.629    15.440    -4.164
    577    C    -5.716    16.371    -5.253
    578    H    -5.891    17.285    -4.887
    579    H    -6.349    16.012    -5.939
    580    C    -4.394    16.520    -6.008
    581    H    -4.553    17.131    -6.784
    582    O    -3.395    17.115    -5.134
    583    C    -2.103    16.657    -5.579
    584    H    -1.626    17.461    -5.933
    585    N    -1.404    16.069    -4.420
    586    C    0.147    15.327    -3.055
    587    N    -1.073    15.081    -2.429
    588    C    -1.936    15.536    -3.282
    589    H    -2.857    15.399    -2.918
    590    N    2.438    15.443    -3.531
    591    C    2.126    16.024    -4.692
    592    H    2.802    16.318    -5.368
    593    N    0.909    16.308    -5.145
    594    C    -0.042    15.927    -4.267
    595    C    1.468    15.079    -2.677
    596    N    1.794    14.521    -1.514
    597    H    2.770    14.381    -1.294
    598    H    1.058    14.250    -0.877
    599    C    -2.330    15.662    -6.731
    600    H    -1.744    14.867    -6.573
    601    O    -2.120    16.278    -8.002
    602    H    -1.439    16.955    -8.017
    603    C    -3.787    15.244    -6.574
    604    H    -3.851    14.520    -5.887
    605    O    -4.325    14.910    -7.876
    606    P    -4.165    13.440    -8.553
    607    O    -4.822    13.353    -9.875
    608    O    -4.611    12.535    -7.480
    609    O    -2.595    13.171    -8.819
    610    C    -1.820    13.858    -9.813
    611    H    -1.886    14.843    -9.654
    612    H    -2.070    13.512    -10.717
    613    C    -0.326    13.561    -9.699
    614    H    0.173    14.066    -10.403
    615    O    0.136    13.988    -8.398
    616    C    1.343    13.255    -8.116
    617    H    2.104    13.890    -8.248
    618    N    1.263    12.774    -6.717