!*** FMO 5.2 (Gamess) INPUT generated by Facio 21.1.1.32 ***
 $CONTRL RUNTYP=OPTFMO NPRINT=-5 ISPHER=-1 MAXIT=50 $END
 $SYSTEM MWORDS=29 $END
 $GDDI NGROUP=1 $END
 $INTGRL NINTIC=-9000000 $END
 $SCF DIRSCF=.FALSE. NPUNCH=0 $END
!*** NumCPU : 2  MemPerNode : 512MB
 $FMOPRP
    NAODIR=210
    NGRFMO(1)=1, 1, 0, 0, 0,   0, 0, 0, 0, 0
    NPRINT=9
 $END
 $FMO
      SCFTYP(1)=RHF
      MODGRD=10
      MODMUL=0
      MAXCAO=5
      MAXBND=34
      NLAYER=1
      NFRAG=32
      ICHARG(1)=-1, -1, -1, -1, -1, -1, -1, -1, -1, -1, 
-1, -1, -1, -1, -1, -1, -1, -1, -1, -1, 
-1, -1, -1, -1, -1, -1, -1, -1, -1, -1, 
-1, 0
      FRGNAM(1)=Frag1, Frag2, Frag3, Frag4, Frag5, Frag6, Frag7, Frag8, Frag9, Frag10, Frag11, Frag12, Frag13, Frag14, Frag15, Frag16, Frag17, Frag18, Frag19, Frag20, Frag21, Frag22, Frag23, Frag24, Frag25, Frag26, Frag27, Frag28, Frag29, Frag30, Frag31, Frag32
      indat(1)=0
               1   -36   0
               37   -69   0
               70   -103   0
               104   -134   0
               135   -167   0
               168   -201   0
               202   -231   0
               232   -261   0
               262   -292   0
               293   -323   0
               324   -354   0
               355   -385   0
               386   -415   0
               416   -449   0
               450   -480   0
               481   -513   0
               514   -543   0
               544   -576   0
               577   -609   0
               610   -643   0
               644   -677   0
               678   -710   0
               711   -740   0
               741   -774   0
               775   -807   0
               808   -840   0
               841   -871   0
               872   -902   0
               903   -936   0
               937   -966   0
               967   -996   0
               997   -1024   0
 $END

 $FMOBND
   -37   36       3-21G    MINI
   -70   69       3-21G    MINI
   -104   103       3-21G    MINI
   -135   134       3-21G    MINI
   -168   167       3-21G    MINI
   -202   201       3-21G    MINI
   -232   231       3-21G    MINI
   -262   261       3-21G    MINI
   -293   292       3-21G    MINI
   -324   323       3-21G    MINI
   -355   354       3-21G    MINI
   -386   385       3-21G    MINI
   -416   415       3-21G    MINI
   -450   449       3-21G    MINI
   -481   480       3-21G    MINI
   -514   513       3-21G    MINI
   -544   543       3-21G    MINI
   -577   576       3-21G    MINI
   -610   609       3-21G    MINI
   -644   643       3-21G    MINI
   -678   677       3-21G    MINI
   -711   710       3-21G    MINI
   -741   740       3-21G    MINI
   -775   774       3-21G    MINI
   -808   807       3-21G    MINI
   -841   840       3-21G    MINI
   -872   871       3-21G    MINI
   -903   902       3-21G    MINI
   -937   936       3-21G    MINI
   -967   966       3-21G    MINI
   -997   996       3-21G    MINI
 $END
 $FMOHYB
 3-21G        9   5
   1 0  -0.070459   0.164841   0.000000   0.000000   0.502116
         0.466939   0.000000   0.000000   0.418036
   0 1  -0.070465   0.164857   0.473392   0.000000  -0.167359
         0.466967   0.394111   0.000000  -0.139327
   0 1  -0.070465   0.164857  -0.236695  -0.409969  -0.167359
         0.466967  -0.197055  -0.341311  -0.139327
   0 1  -0.070465   0.164857  -0.236695   0.409969  -0.167359
         0.466967  -0.197055   0.341311  -0.139327
   0 1   1.006716   0.074826   0.000000   0.000000   0.000000
        -0.143830   0.000000   0.000000  -0.000003
 MINI         5   5
   1 0  -0.104883   0.308874   0.000000   0.000000   0.521806
   0 1  -0.104883   0.308874   0.491961   0.000000  -0.173934
   0 1  -0.104883   0.308876  -0.245980  -0.426050  -0.173933
   0 1  -0.104883   0.308876  -0.245980   0.426050  -0.173933
   0 1   0.988209   0.063992   0.000000   0.000000   0.000000
 $END

 $DATA
 FMO calculation : XXNAMEXX
 C1 
 C.1-1    6
      N21 3
   
 O.1-1    8
      N21 3
   
 N.1-1    7
      N21 3
   
 H.1-1    1
      N21 3
   
 P.1-1   15
      N21 3
   
 $END
 $FMOXYZ
    1    H    4.071    -29.841    -0.079
    2    O    3.294    -29.488    -0.600
    3    C    2.831    -30.507    -1.496
    4    H    2.475    -31.273    -0.961
    5    H    3.545    -30.697    -2.170
    6    C    1.636    -30.048    -2.336
    7    H    1.390    -30.728    -3.026
    8    O    0.508    -29.790    -1.521
    9    C    -0.386    -28.949    -2.281
    10    H    -1.025    -29.562    -2.745
    11    N    -1.063    -28.037    -1.333
    12    C    -2.256    -27.384    -1.543
    13    N    -5.004    -26.706    -3.551
    14    H    -5.864    -26.178    -3.594
    15    H    -4.790    -27.283    -4.351
    16    N    -3.029    -27.478    -2.650
    17    C    -4.127    -26.723    -2.558
    18    N    -4.431    -25.945    -1.471
    19    H    -5.305    -25.402    -1.507
    20    C    -3.660    -25.830    -0.331
    21    O    -4.025    -25.100    0.586
    22    C    -2.485    -26.630    -0.413
    23    N    -1.455    -26.802    0.507
    24    C    -0.658    -27.633    -0.091
    25    H    0.125    -27.818    0.503
    26    C    0.450    -28.216    -3.329
    27    H    0.404    -27.234    -3.147
    28    O    0.053    -28.533    -4.671
    29    H    -0.886    -28.692    -4.789
    30    C    1.854    -28.710    -3.027
    31    H    2.272    -28.073    -2.379
    32    O    2.599    -28.823    -4.243
    33    P    3.524    -27.602    -4.750
    34    O    4.280    -28.060    -5.936
    35    O    4.217    -27.085    -3.552
    36    O    2.435    -26.508    -5.202
    37    C    1.590    -26.721    -6.338
    38    H    1.032    -27.536    -6.181
    39    H    2.146    -26.687    -7.168
    40    C    0.552    -25.612    -6.556
    41    H    0.015    -25.732    -7.391
    42    O    -0.339    -25.662    -5.409
    43    C    -1.078    -24.422    -5.413
    44    H    -1.887    -24.568    -5.982
    45    N    -1.449    -24.029    -4.037
    46    C    -2.537    -23.231    -2.300
    47    N    -1.317    -23.693    -1.815
    48    C    -0.728    -24.143    -2.882
    49    H    0.173    -24.497    -2.632
    50    N    -4.679    -22.291    -2.449
    51    C    -4.650    -22.534    -3.760
    52    H    -5.396    -22.306    -4.385
    53    N    -3.664    -23.101    -4.451
    54    C    -2.628    -23.427    -3.649
    55    C    -3.632    -22.627    -1.677
    56    N    -3.676    -22.382    -0.371
    57    H    -4.500    -21.946    0.018
    58    H    -2.885    -22.638    0.202
    59    C    -0.181    -23.383    -6.081
    60    H    0.076    -22.706    -5.392
    61    O    -0.792    -22.765    -7.212
    62    H    -1.745    -22.668    -7.155
    63    C    1.048    -24.171    -6.480
    64    H    1.717    -24.096    -5.741
    65    O    1.732    -23.567    -7.607
    66    P    2.408    -22.085    -7.757
    67    O    3.164    -22.048    -9.010
    68    O    3.044    -21.834    -6.459
    69    O    1.134    -21.142    -7.807
    70    C    0.234    -21.382    -8.885
    71    H    -0.069    -22.334    -8.850
    72    H    0.647    -21.052    -9.734
    73    C    -1.023    -20.552    -8.700
    74    H    -1.660    -20.685    -9.460
    75    O    -1.633    -21.026    -7.491
    76    C    -2.706    -20.126    -7.154
    77    H    -3.574    -20.513    -7.465
    78    N    -2.743    -19.931    -5.684
    79    C    -3.706    -19.252    -4.968
    80    N    -6.694    -17.484    -4.874
    81    H    -7.329    -17.003    -4.253
    82    H    -6.950    -17.508    -5.851
    83    N    -4.824    -18.684    -5.480
    84    C    -5.561    -18.087    -4.545
    85    N    -5.229    -18.052    -3.215
    86    H    -5.875    -17.565    -2.578
    87    C    -4.096    -18.618    -2.662
    88    O    -3.893    -18.525    -1.456
    89    C    -3.297    -19.259    -3.650
    90    N    -2.090    -19.943    -3.521
    91    C    -1.827    -20.308    -4.741
    92    H    -0.966    -20.817    -4.750
    93    C    -2.351    -18.910    -8.040
    94    H    -2.445    -18.092    -7.473
    95    O    -3.258    -18.839    -9.148
    96    H    -4.135    -19.190    -8.977
    97    C    -0.901    -19.086    -8.411
    98    H    -0.298    -18.959    -7.623
    99    O    -0.267    -18.213    -9.402
    100    P    0.567    -16.814    -9.326
    101    O    0.901    -16.345    -10.664
    102    O    1.637    -16.994    -8.356
    103    O    -0.461    -15.806    -8.689
    104    C    -1.615    -15.436    -9.439
    105    H    -2.132    -16.260    -9.669
    106    H    -1.338    -14.833    -10.187
    107    C    -2.572    -14.600    -8.604
    108    H    -3.305    -14.388    -9.251
    109    O    -3.076    -15.505    -7.604
    110    C    -3.651    -14.692    -6.583
    111    H    -4.643    -14.814    -6.623
    112    N    -3.155    -15.132    -5.257
    113    C    -1.952    -15.767    -5.140
    114    H    -1.316    -16.072    -5.849
    115    C    -1.445    -16.081    -3.933
    116    H    -0.603    -16.532    -3.638
    117    C    -3.898    -14.804    -4.129
    118    O    -4.988    -14.251    -4.246
    119    N    -3.394    -15.115    -2.902
    120    C    -2.211    -15.730    -2.783
    121    N    -1.728    -15.991    -1.574
    122    H    -2.266    -15.719    -0.764
    123    H    -0.837    -16.454    -1.464
    124    C    -3.306    -13.240    -6.987
    125    H    -2.976    -12.799    -6.153
    126    O    -4.461    -12.606    -7.539
    127    H    -5.300    -12.936    -7.211
    128    C    -2.192    -13.258    -8.008
    129    H    -1.295    -13.337    -7.573
    130    O    -2.129    -12.111    -8.910
    131    P    -1.552    -10.611    -8.639
    132    O    -1.743    -9.841    -9.867
    133    O    -0.195    -10.565    -8.117
    134    O    -2.520    -9.880    -7.613
    135    C    -3.851    -9.454    -7.922
    136    H    -4.380    -10.242    -8.238
    137    H    -3.806    -8.651    -8.516
    138    C    -4.597    -8.969    -6.685
    139    H    -5.501    -8.795    -7.076
    140    O    -4.694    -10.076    -5.734
    141    C    -5.009    -9.481    -4.467
    142    H    -5.965    -9.703    -4.275
    143    N    -4.125    -10.086    -3.441
    144    C    -3.288    -10.789    -1.532
    145    N    -2.364    -11.141    -2.514
    146    C    -2.914    -10.699    -3.606
    147    H    -2.314    -10.906    -4.379
    148    N    -4.368    -10.499    0.525
    149    C    -5.357    -9.886    -0.125
    150    H    -6.172    -9.514    0.320
    151    N    -5.440    -9.664    -1.435
    152    C    -4.360    -10.145    -2.083
    153    C    -3.308    -10.969    -0.147
    154    N    -2.333    -11.579    0.520
    155    H    -2.412    -11.676    1.522
    156    H    -1.536    -11.931    0.009
    157    C    -4.873    -7.962    -4.640
    158    H    -4.262    -7.665    -3.906
    159    O    -6.149    -7.330    -4.743
    160    H    -6.856    -7.763    -4.260
    161    C    -4.219    -7.650    -5.992
    162    H    -3.224    -7.601    -5.906
    163    O    -4.854    -6.534    -6.629
    164    P    -4.794    -4.988    -6.055
    165    O    -5.703    -4.181    -6.878
    166    O    -3.376    -4.601    -6.199
    167    O    -5.249    -4.840    -4.517
    168    C    -6.585    -4.563    -4.038
    169    H    -7.225    -5.195    -4.475
    170    H    -6.764    -3.583    -4.121
    171    C    -6.688    -4.861    -2.548
    172    H    -7.662    -5.010    -2.377
    173    O    -5.988    -6.071    -2.313
    174    C    -5.709    -6.169    -0.910
    175    H    -6.347    -6.832    -0.519
    176    N    -4.305    -6.618    -0.757
    177    C    -3.683    -6.950    0.425
    178    N    -3.776    -7.338    3.875
    179    H    -3.219    -7.605    4.674
    180    H    -4.730    -7.066    4.062
    181    N    -4.247    -6.930    1.656
    182    C    -3.390    -7.307    2.608
    183    N    -2.091    -7.671    2.366
    184    H    -1.516    -7.943    3.176
    185    C    -1.491    -7.702    1.121
    186    O    -0.320    -8.056    1.013
    187    C    -2.392    -7.301    0.096
    188    N    -2.192    -7.192    -1.278
    189    C    -3.346    -6.788    -1.714
    190    H    -3.299    -6.678    -2.707
    191    C    -6.031    -4.774    -0.349
    192    H    -5.221    -4.488    0.162
    193    O    -7.262    -4.774    0.379
    194    H    -7.473    -5.601    0.818
    195    C    -6.242    -3.818    -1.524
    196    H    -5.372    -3.422    -1.820
    197    O    -7.369    -2.954    -1.240
    198    P    -7.262    -1.672    -0.226
    199    O    -8.597    -1.041    -0.139
    200    O    -6.184    -0.836    -0.808
    201    O    -6.827    -2.085    1.287
    202    C    -7.728    -2.370    2.381
    203    H    -8.316    -3.138    2.127
    204    H    -8.167    -1.520    2.671
    205    C    -6.970    -2.855    3.616
    206    H    -7.612    -3.165    4.317
    207    O    -6.131    -3.924    3.258
    208    C    -4.988    -3.953    4.132
    209    H    -5.041    -4.793    4.671
    210    N    -3.780    -3.877    3.279
    211    C    -3.858    -3.406    1.996
    212    H    -4.653    -3.082    1.483
    213    C    -2.578    -4.287    3.825
    214    O    -2.483    -4.710    4.971
    215    N    -1.478    -4.188    3.000
    216    H    -0.572    -4.486    3.389
    217    C    -1.468    -3.728    1.700
    218    O    -0.421    -3.683    1.064
    219    C    -2.763    -3.321    1.210
    220    H    -2.669    -3.001    0.267
    221    C    -5.173    -2.758    5.057
    222    H    -4.280    -2.329    5.192
    223    O    -5.841    -3.111    6.273
    224    H    -5.642    -3.990    6.604
    225    C    -6.057    -1.819    4.262
    226    H    -5.525    -1.364    3.548
    227    O    -6.780    -1.064    5.244
    228    P    -6.120    0.323    5.773
    229    O    -7.057    0.922    6.757
    230    O    -5.715    1.049    4.537
    231    O    -4.769    -0.106    6.570
    232    C    -4.735    -0.570    7.935
    233    H    -5.252    -1.423    8.002
    234    H    -4.992    0.183    8.541
    235    C    -3.339    -0.962    8.428
    236    H    -3.341    -1.377    9.338
    237    O    -2.781    -1.874    7.509
    238    C    -1.340    -1.804    7.573
    239    H    -1.019    -2.641    8.017
    240    N    -0.841    -1.668    6.185
    241    C    -1.673    -1.256    5.180
    242    H    -2.645    -1.024    5.212
    243    C    0.492    -1.949    5.946
    244    O    1.256    -2.325    6.830
    245    N    0.921    -1.785    4.647
    246    H    1.911    -1.989    4.450
    247    C    0.153    -1.373    3.578
    248    O    0.649    -1.257    2.463
    249    C    -1.226    -1.104    3.913
    250    H    -1.711    -0.815    3.088
    251    C    -1.033    -0.609    8.480
    252    H    -0.304    -0.065    8.064
    253    O    -0.733    -1.015    9.817
    254    H    -0.255    -1.844    9.891
    255    C    -2.334    0.175    8.416
    256    H    -2.394    0.653    7.540
    257    O    -2.468    1.005    9.577
    258    P    -1.983    2.543    9.560
    259    O    -2.281    3.130    10.887
    260    O    -2.499    3.170    8.323
    261    O    -0.389    2.399    9.410
    262    C    0.397    1.793    10.446
    263    H    0.058    0.867    10.612
    264    H    0.449    2.420    11.224
    265    C    1.851    1.589    10.033
    266    H    2.419    1.108    10.701
    267    O    1.877    0.862    8.784
    268    C    3.131    1.057    8.105
    269    H    3.702    0.248    8.243
    270    N    2.838    1.294    6.672
    271    C    1.597    1.694    6.266
    272    H    0.767    1.867    6.797
    273    C    1.340    1.920    4.966
    274    H    0.521    2.209    4.470
    275    C    3.869    1.111    5.762
    276    O    4.982    0.757    6.147
    277    N    3.618    1.339    4.445
    278    C    2.404    1.731    4.036
    279    N    2.194    1.952    2.743
    280    H    2.957    1.819    2.095
    281    H    1.287    2.248    2.411
    282    C    3.735    2.233    8.883
    283    H    4.104    2.885    8.220
    284    O    4.728    1.798    9.820
    285    H    5.232    1.028    9.548
    286    C    2.541    2.863    9.586
    287    H    1.957    3.335    8.925
    288    O    2.911    3.719    10.674
    289    P    3.008    5.325    10.551
    290    O    3.471    5.860    11.848
    291    O    1.757    5.806    9.940
    292    O    4.165    5.478    9.453
    293    C    5.464    4.951    9.740
    294    H    5.372    3.999    10.033
    295    H    5.945    5.584    10.347
    296    C    6.320    4.890    8.486
    297    H    7.230    4.497    8.616
    298    O    5.632    4.144    7.490
    299    C    6.033    4.607    6.185
    300    H    6.527    3.864    5.734
    301    N    4.797    4.989    5.461
    302    C    3.635    5.214    6.141
    303    H    3.445    5.177    7.122
    304    C    2.507    5.543    5.489
    305    H    1.575    5.742    5.790
    306    C    4.853    5.097    4.076
    307    O    5.911    4.901    3.484
    308    N    3.712    5.430    3.407
    309    C    2.569    5.651    4.067
    310    N    1.470    5.968    3.390
    311    H    1.519    6.036    2.384
    312    H    0.599    6.138    3.872
    313    C    7.008    5.750    6.476
    314    H    6.897    6.471    5.792
    315    O    8.360    5.292    6.580
    316    H    8.596    4.585    5.975
    317    C    6.451    6.238    7.804
    318    H    5.539    6.630    7.679
    319    O    7.328    7.112    8.521
    320    P    7.190    8.715    8.492
    321    O    8.160    9.278    9.458
    322    O    5.759    9.073    8.570
    323    O    7.686    9.003    6.999
    324    C    9.010    8.585    6.670
    325    H    9.094    7.604    6.844
    326    H    9.664    9.198    7.113
    327    C    9.290    8.735    5.188
    328    H    10.233    8.509    4.943
    329    O    8.398    7.894    4.438
    330    C    8.177    8.516    3.157
    331    H    8.561    7.906    2.464
    332    N    6.712    8.697    3.013
    333    C    5.902    8.710    4.111
    334    H    6.127    8.622    5.081
    335    C    4.572    8.859    3.982
    336    H    3.820    8.894    4.640
    337    C    6.195    8.837    1.730
    338    O    6.941    8.833    0.754
    339    N    4.847    8.989    1.591
    340    C    4.044    9.003    2.664
    341    N    2.732    9.155    2.497
    342    H    2.368    9.257    1.561
    343    H    2.109    9.168    3.292
    344    C    8.982    9.820    3.174
    345    H    8.471    10.536    2.698
    346    O    10.302    9.646    2.651
    347    H    10.369    9.032    1.916
    348    C    8.982    10.120    4.666
    349    H    8.064    10.383    4.963
    350    O    10.026    11.013    5.064
    351    P    9.759    12.592    5.225
    352    O    10.993    13.209    5.763
    353    O    8.463    12.798    5.913
    354    O    9.588    12.998    3.682
    355    C    10.661    12.681    2.795
    356    H    10.859    11.703    2.861
    357    H    11.412    13.323    2.950
    358    C    10.250    12.901    1.347
    359    H    10.995    12.725    0.704
    360    O    9.140    12.059    1.016
    361    C    8.385    12.697    -0.028
    362    H    8.531    12.163    -0.861
    363    N    6.971    12.702    0.410
    364    C    6.658    12.582    1.731
    365    H    7.252    12.500    2.531
    366    C    5.378    12.559    2.133
    367    H    4.943    12.479    3.030
    368    C    5.984    12.807    -0.561
    369    O    6.287    12.925    -1.746
    370    N    4.683    12.784    -0.161
    371    C    4.365    12.665    1.134
    372    N    3.088    12.636    1.496
    373    H    2.377    12.705    0.782
    374    H    2.830    12.547    2.468
    375    C    8.993    14.088    -0.216
    376    H    8.250    14.754    -0.282
    377    O    9.876    14.142    -1.339
    378    H    9.624    13.586    -2.080
    379    C    9.740    14.306    1.095
    380    H    9.091    14.551    1.815
    381    O    10.861    15.181    0.940
    382    P    10.698    16.743    1.288
    383    O    11.998    17.408    1.040
    384    O    10.038    16.878    2.608
    385    O    9.668    17.186    0.138
    386    C    10.040    16.976    -1.227
    387    H    10.317    16.023    -1.346
    388    H    10.685    17.689    -1.502
    389    C    8.854    17.150    -2.160
    390    H    9.122    16.967    -3.106
    391    O    7.813    16.271    -1.800
    392    C    6.603    16.821    -2.347
    393    H    6.410    16.305    -3.181
    394    N    5.545    16.656    -1.327
    395    C    5.864    16.468    -0.010
    396    H    6.762    16.410    0.426
    397    C    4.231    16.707    -1.751
    398    O    3.921    16.875    -2.926
    399    N    3.274    16.561    -0.768
    400    H    2.288    16.600    -1.063
    401    C    3.507    16.367    0.576
    402    O    2.569    16.241    1.359
    403    C    4.907    16.327    0.933
    404    H    4.987    16.188    1.920
    405    C    6.884    18.279    -2.717
    406    H    6.213    18.853    -2.247
    407    O    6.886    18.478    -4.135
    408    H    6.276    17.920    -4.623
    409    C    8.263    18.546    -2.130
    410    H    8.169    18.839    -1.179
    411    O    9.009    19.412    -2.997
    412    P    9.177    20.969    -2.615
    413    O    9.849    21.654    -3.743
    414    O    9.753    21.065    -1.252
    415    O    7.650    21.479    -2.569
    416    C    6.864    21.544    -3.765
    417    H    6.922    20.666    -4.241
    418    H    7.111    22.369    -4.273
    419    C    5.382    21.715    -3.448
    420    H    4.862    21.883    -4.286
    421    O    4.879    20.549    -2.819
    422    C    3.806    20.921    -1.930
    423    H    2.967    20.523    -2.302
    424    N    4.138    20.419    -0.582
    425    C    3.244    20.130    0.426
    426    N    -0.022    19.868    1.577
    427    H    -0.578    19.627    2.385
    428    H    -0.528    20.145    0.748
    429    N    1.897    20.206    0.343
    430    C    1.301    19.860    1.487
    431    N    1.980    19.475    2.615
    432    H    1.421    19.231    3.445
    433    C    3.355    19.389    2.725
    434    O    3.861    19.035    3.782
    435    C    4.000    19.753    1.513
    436    N    5.356    19.799    1.203
    437    C    5.365    20.194    -0.031
    438    H    6.312    20.257    -0.346
    439    C    3.705    22.437    -1.994
    440    H    3.576    22.783    -1.065
    441    O    2.678    22.866    -2.896
    442    H    1.910    22.292    -2.938
    443    C    5.081    22.859    -2.494
    444    H    5.735    22.833    -1.738
    445    O    5.004    24.107    -3.190
    446    P    5.589    25.423    -2.470
    447    O    5.424    26.568    -3.389
    448    O    6.927    25.108    -1.917
    449    O    4.561    25.593    -1.243
    450    C    4.891    26.372    -0.094
    451    H    4.963    27.333    -0.362
    452    H    5.673    25.955    0.369
    453    C    3.770    26.343    0.941
    454    H    4.081    26.744    1.802
    455    O    2.684    27.113    0.437
    456    C    1.513    26.292    0.282
    457    H    0.789    26.739    0.808
    458    N    1.197    26.239    -1.164
    459    C    2.085    25.716    -2.061
    460    H    2.990    25.316    -1.916
    461    C    1.798    25.684    -3.375
    462    H    2.295    25.354    -4.177
    463    C    -0.026    26.750    -1.577
    464    O    -0.812    27.210    -0.753
    465    N    -0.323    26.721    -2.906
    466    C    0.542    26.212    -3.793
    467    N    0.223    26.204    -5.085
    468    H    -0.668    26.584    -5.370
    469    H    0.860    25.825    -5.771
    470    C    1.804    24.919    0.899
    471    H    1.673    24.237    0.180
    472    O    0.997    24.662    2.053
    473    H    0.127    25.068    2.038
    474    C    3.275    24.947    1.293
    475    H    3.748    24.279    0.719
    476    O    3.414    24.765    2.711
    477    P    3.157    23.315    3.379
    478    O    3.906    23.254    4.655
    479    O    3.385    22.282    2.342
    480    O    1.575    23.346    3.723
    481    C    1.029    24.265    4.692
    482    H    1.176    25.201    4.372
    483    H    1.370    24.021    5.600
    484    C    -0.497    24.153    4.826
    485    H    -0.820    24.686    5.608
    486    O    -1.094    24.667    3.635
    487    C    -2.033    23.732    3.100
    488    H    -2.938    24.081    3.342
    489    N    -1.854    23.670    1.637
    490    C    -2.191    23.879    -0.521
    491    N    -0.873    23.452    -0.373
    492    C    -0.744    23.346    0.914
    493    H    0.183    23.035    1.124
    494    N    -4.234    24.567    -1.434
    495    C    -4.714    24.654    -0.194
    496    H    -5.650    24.932    0.023
    497    N    -4.065    24.398    0.938
    498    C    -2.795    24.010    0.696
    499    C    -2.966    24.182    -1.642
    500    N    -2.490    24.144    -2.884
    501    H    -3.095    24.407    -3.649
    502    H    -1.534    23.853    -3.033
    503    C    -1.822    22.395    3.780
    504    H    -1.262    21.830    3.173
    505    O    -3.068    21.783    4.122
    506    H    -3.790    21.968    3.517
    507    C    -1.020    22.722    5.033
    508    H    -0.243    22.093    5.062
    509    O    -1.891    22.684    6.172
    510    P    -2.531    21.294    6.700
    511    O    -2.754    21.420    8.157
    512    O    -1.699    20.185    6.179
    513    O    -3.971    21.230    5.972
    514    C    -5.172    20.930    6.706
    515    H    -5.292    21.612    7.427
    516    H    -5.160    19.966    6.970
    517    C    -6.422    21.072    5.834
    518    H    -7.218    20.696    6.308
    519    O    -6.642    22.469    5.585
    520    C    -6.745    22.690    4.173
    521    H    -7.718    22.677    3.942
    522    N    -6.161    24.028    3.843
    523    C    -5.200    24.588    4.652
    524    H    -4.800    24.236    5.498
    525    C    -6.596    24.689    2.694
    526    O    -7.443    24.230    1.939
    527    N    -6.006    25.908    2.435
    528    H    -6.319    26.408    1.591
    529    C    -5.036    26.529    3.193
    530    O    -4.578    27.615    2.850
    531    C    -4.639    25.787    4.364
    532    H    -3.937    26.304    4.854
    533    C    -6.057    21.488    3.508
    534    H    -5.071    21.655    3.488
    535    O    -6.586    21.236    2.200
    536    H    -6.855    22.019    1.714
    537    C    -6.350    20.349    4.493
    538    H    -5.567    19.726    4.500
    539    O    -7.611    19.736    4.175
    540    P    -7.708    18.387    3.288
    541    O    -9.120    17.943    3.288
    542    O    -6.653    17.445    3.722
    543    O    -7.351    18.895    1.797
    544    C    -8.221    19.792    1.087
    545    H    -8.270    20.659    1.583
    546    H    -9.078    19.320    0.882
    547    C    -7.645    20.160    -0.279
    548    H    -8.307    20.719    -0.778
    549    O    -6.409    20.900    -0.145
    550    C    -5.767    20.835    -1.418
    551    H    -6.003    21.682    -1.895
    552    N    -4.316    20.737    -1.190
    553    C    -2.144    20.841    -1.470
    554    N    -2.345    20.405    -0.160
    555    C    -3.641    20.367    -0.061
    556    H    -3.888    20.062    0.859
    557    N    -1.153    21.512    -3.482
    558    C    -2.375    21.670    -3.987
    559    H    -2.559    21.978    -4.920
    560    N    -3.528    21.456    -3.367
    561    C    -3.336    21.041    -2.100
    562    C    -0.992    21.096    -2.217
    563    N    0.234    20.944    -1.737
    564    H    1.023    21.145    -2.335
    565    H    0.351    20.631    -0.784
    566    C    -6.364    19.647    -2.185
    567    H    -5.619    19.021    -2.417
    568    O    -7.098    20.086    -3.336
    569    H    -6.750    20.873    -3.763
    570    C    -7.282    18.972    -1.158
    571    H    -6.752    18.318    -0.618
    572    O    -8.432    18.444    -1.834
    573    P    -8.454    16.895    -2.284
    574    O    -9.705    16.655    -3.039
    575    O    -8.145    16.059    -1.100
    576    O    -7.223    16.782    -3.327
    577    C    -7.256    17.484    -4.576
    578    H    -7.480    18.443    -4.404
    579    H    -7.830    16.977    -5.219
    580    C    -5.891    17.539    -5.261
    581    H    -5.997    17.974    -6.155
    582    O    -4.942    18.304    -4.473
    583    C    -3.623    17.789    -4.753
    584    H    -3.139    18.517    -5.239
    585    N    -2.991    17.459    -3.462
    586    C    -1.517    17.048    -1.890
    587    N    -2.769    16.905    -1.297
    588    C    -3.585    17.156    -2.271
    589    H    -4.524    17.073    -1.938
    590    N    0.797    17.121    -2.251
    591    C    0.548    17.446    -3.521
    592    H    1.259    17.613    -4.204
    593    N    -0.644    17.602    -4.090
    594    C    -1.640    17.384    -3.207
    595    C    -0.217    16.914    -1.396
    596    N    0.045    16.613    -0.128
    597    H    1.008    16.545    0.170
    598    H    -0.725    16.459    0.508
    599    C    -3.767    16.576    -5.684
    600    H    -3.188    15.836    -5.342
    601    O    -3.499    16.918    -7.046
    602    H    -2.813    17.578    -7.171
    603    C    -5.229    16.194    -5.484
    604    H    -5.306    15.651    -4.648
    605    O    -5.741    15.613    -6.692
    606    P    -5.569    14.031    -6.959
    607    O    -6.213    13.719    -8.255
    608    O    -5.977    13.309    -5.730
    609    O    -3.974    13.869    -7.140
    610    C    -3.265    14.568    -8.173
    611    H    -3.452    15.547    -8.091
    612    H    -3.451    14.127    -9.051
    613    C    -1.752    14.457    -8.007
    614    H    -1.257    14.917    -8.744
    615    O    -1.341    15.018    -6.745
    616    C    -0.079    14.412    -6.397
    617    H    0.626    15.093    -6.597