!*** FMO 5.2 (Gamess) INPUT generated by Facio 21.1.1.32 ***
 $CONTRL RUNTYP=OPTFMO NPRINT=-5 ISPHER=-1 MAXIT=50 $END
 $SYSTEM MWORDS=29 $END
 $GDDI NGROUP=1 $END
 $INTGRL NINTIC=-9000000 $END
 $SCF DIRSCF=.FALSE. NPUNCH=0 $END
!*** NumCPU : 2  MemPerNode : 512MB
 $FMOPRP
    NAODIR=210
    NGRFMO(1)=1, 1, 0, 0, 0,   0, 0, 0, 0, 0
    NPRINT=9
 $END
 $FMO
      SCFTYP(1)=RHF
      MODGRD=10
      MODMUL=0
      MAXCAO=5
      MAXBND=34
      NLAYER=1
      NFRAG=32
      ICHARG(1)=-1, -1, -1, -1, -1, -1, -1, -1, -1, -1, 
-1, -1, -1, -1, -1, -1, -1, -1, -1, -1, 
-1, -1, -1, -1, -1, -1, -1, -1, -1, -1, 
-1, 0
      FRGNAM(1)=Frag1, Frag2, Frag3, Frag4, Frag5, Frag6, Frag7, Frag8, Frag9, Frag10, Frag11, Frag12, Frag13, Frag14, Frag15, Frag16, Frag17, Frag18, Frag19, Frag20, Frag21, Frag22, Frag23, Frag24, Frag25, Frag26, Frag27, Frag28, Frag29, Frag30, Frag31, Frag32
      indat(1)=0
               1   -36   0
               37   -69   0
               70   -103   0
               104   -134   0
               135   -167   0
               168   -201   0
               202   -231   0
               232   -261   0
               262   -292   0
               293   -323   0
               324   -354   0
               355   -385   0
               386   -415   0
               416   -449   0
               450   -480   0
               481   -513   0
               514   -543   0
               544   -576   0
               577   -609   0
               610   -643   0
               644   -677   0
               678   -710   0
               711   -740   0
               741   -774   0
               775   -807   0
               808   -840   0
               841   -871   0
               872   -902   0
               903   -936   0
               937   -966   0
               967   -996   0
               997   -1024   0
 $END

 $FMOBND
   -37   36       3-21G    MINI
   -70   69       3-21G    MINI
   -104   103       3-21G    MINI
   -135   134       3-21G    MINI
   -168   167       3-21G    MINI
   -202   201       3-21G    MINI
   -232   231       3-21G    MINI
   -262   261       3-21G    MINI
   -293   292       3-21G    MINI
   -324   323       3-21G    MINI
   -355   354       3-21G    MINI
   -386   385       3-21G    MINI
   -416   415       3-21G    MINI
   -450   449       3-21G    MINI
   -481   480       3-21G    MINI
   -514   513       3-21G    MINI
   -544   543       3-21G    MINI
   -577   576       3-21G    MINI
   -610   609       3-21G    MINI
   -644   643       3-21G    MINI
   -678   677       3-21G    MINI
   -711   710       3-21G    MINI
   -741   740       3-21G    MINI
   -775   774       3-21G    MINI
   -808   807       3-21G    MINI
   -841   840       3-21G    MINI
   -872   871       3-21G    MINI
   -903   902       3-21G    MINI
   -937   936       3-21G    MINI
   -967   966       3-21G    MINI
   -997   996       3-21G    MINI
 $END
 $FMOHYB
 3-21G        9   5
   1 0  -0.070459   0.164841   0.000000   0.000000   0.502116
         0.466939   0.000000   0.000000   0.418036
   0 1  -0.070465   0.164857   0.473392   0.000000  -0.167359
         0.466967   0.394111   0.000000  -0.139327
   0 1  -0.070465   0.164857  -0.236695  -0.409969  -0.167359
         0.466967  -0.197055  -0.341311  -0.139327
   0 1  -0.070465   0.164857  -0.236695   0.409969  -0.167359
         0.466967  -0.197055   0.341311  -0.139327
   0 1   1.006716   0.074826   0.000000   0.000000   0.000000
        -0.143830   0.000000   0.000000  -0.000003
 MINI         5   5
   1 0  -0.104883   0.308874   0.000000   0.000000   0.521806
   0 1  -0.104883   0.308874   0.491961   0.000000  -0.173934
   0 1  -0.104883   0.308876  -0.245980  -0.426050  -0.173933
   0 1  -0.104883   0.308876  -0.245980   0.426050  -0.173933
   0 1   0.988209   0.063992   0.000000   0.000000   0.000000
 $END

 $DATA
 FMO calculation : XXNAMEXX
 C1 
 C.1-1    6
      N21 3
   
 O.1-1    8
      N21 3
   
 N.1-1    7
      N21 3
   
 H.1-1    1
      N21 3
   
 P.1-1   15
      N21 3
   
 $END
 $FMOXYZ
    1    H    3.781    -29.351    0.411
    2    O    3.013    -29.059    -0.159
    3    C    2.809    -30.025    -1.198
    4    H    2.527    -30.892    -0.786
    5    H    3.608    -30.030    -1.800
    6    C    1.647    -29.644    -2.113
    7    H    1.601    -30.282    -2.882
    8    O    0.414    -29.667    -1.422
    9    C    -0.517    -28.888    -2.201
    10    H    -1.000    -29.532    -2.794
    11    N    -1.427    -28.206    -1.253
    12    C    -2.683    -27.720    -1.538
    13    N    -5.290    -27.242    -3.778
    14    H    -6.216    -26.848    -3.869
    15    H    -4.906    -27.686    -4.600
    16    N    -3.316    -27.804    -2.731
    17    C    -4.525    -27.239    -2.696
    18    N    -5.059    -26.643    -1.582
    19    H    -6.002    -26.237    -1.667
    20    C    -4.434    -26.543    -0.354
    21    O    -5.003    -25.985    0.580
    22    C    -3.144    -27.142    -0.375
    23    N    -2.196    -27.260    0.638
    24    C    -1.220    -27.889    0.060
    25    H    -0.481    -28.021    0.721
    26    C    0.302    -27.930    -3.068
    27    H    0.083    -26.995    -2.790
    28    O    0.084    -28.146    -4.467
    29    H    -0.802    -28.433    -4.699
    30    C    1.741    -28.237    -2.683
    31    H    2.015    -27.609    -1.955
    32    O    2.612    -28.189    -3.820
    33    P    3.430    -26.846    -4.179
    34    O    4.306    -27.167    -5.323
    35    O    4.023    -26.216    -2.977
    36    O    2.259    -25.883    -4.707
    37    C    1.491    -26.276    -5.847
    38    H    1.120    -27.191    -5.690
    39    H    2.034    -26.126    -6.673
    40    C    0.259    -25.405    -6.049
    41    H    -0.200    -25.669    -6.897
    42    O    -0.664    -25.556    -4.948
    43    C    -1.556    -24.428    -5.040
    44    H    -2.298    -24.698    -5.653
    45    N    -2.040    -24.121    -3.679
    46    C    -3.309    -23.536    -1.985
    47    N    -2.051    -23.802    -1.452
    48    C    -1.355    -24.138    -2.496
    49    H    -0.420    -24.350    -2.210
    50    N    -5.567    -22.949    -2.218
    51    C    -5.446    -23.168    -3.528
    52    H    -6.193    -23.056    -4.183
    53    N    -4.354    -23.560    -4.180
    54    C    -3.314    -23.726    -3.337
    55    C    -4.512    -23.124    -1.405
    56    N    -4.648    -22.905    -0.100
    57    H    -5.546    -22.610    0.256
    58    H    -3.850    -23.039    0.505
    59    C    -0.767    -23.288    -5.685
    60    H    -0.578    -22.612    -4.973
    61    O    -1.454    -22.736    -6.813
    62    H    -2.412    -22.752    -6.752
    63    C    0.544    -23.918    -6.131
    64    H    1.249    -23.684    -5.462
    65    O    0.821    -23.605    -7.504
    66    P    1.282    -22.127    -7.950
    67    O    1.775    -22.204    -9.347
    68    O    2.134    -21.552    -6.882
    69    O    -0.146    -21.385    -7.946
    70    C    -1.148    -21.755    -8.900
    71    H    -1.317    -22.738    -8.830
    72    H    -0.898    -21.385    -9.795
    73    C    -2.489    -21.112    -8.580
    74    H    -3.204    -21.359    -9.234
    75    O    -2.902    -21.503    -7.269
    76    C    -3.992    -20.648    -6.861
    77    H    -4.857    -21.101    -7.078
    78    N    -3.833    -20.382    -5.416
    79    C    -4.737    -19.737    -4.606
    80    N    -7.784    -18.131    -4.176
    81    H    -8.365    -17.671    -3.490
    82    H    -8.155    -18.191    -5.113
    83    N    -5.938    -19.242    -4.989
    84    C    -6.587    -18.665    -3.979
    85    N    -6.099    -18.586    -2.700
    86    H    -6.690    -18.123    -1.995
    87    C    -4.877    -19.078    -2.283
    88    O    -4.535    -18.950    -1.111
    89    C    -4.169    -19.697    -3.351
    90    N    -2.920    -20.312    -3.361
    91    C    -2.785    -20.689    -4.596
    92    H    -1.903    -21.148    -4.702
    93    C    -3.814    -19.439    -7.789
    94    H    -3.806    -18.622    -7.212
    95    O    -4.816    -19.396    -8.810
    96    H    -5.669    -19.755    -8.556
    97    C    -2.447    -19.606    -8.428
    98    H    -1.722    -19.364    -7.783
    99    O    -2.358    -18.931    -9.689
    100    P    -1.643    -17.491    -9.848
    101    O    -1.727    -17.126    -11.277
    102    O    -0.331    -17.444    -9.159
    103    O    -2.664    -16.558    -9.030
    104    C    -3.999    -16.395    -9.515
    105    H    -4.428    -17.295    -9.596
    106    H    -3.982    -15.810    -10.326
    107    C    -4.885    -15.644    -8.529
    108    H    -5.783    -15.471    -8.934
    109    O    -5.053    -16.424    -7.337
    110    C    -5.418    -15.509    -6.288
    111    H    -6.393    -15.649    -6.112
    112    N    -4.581    -15.820    -5.110
    113    C    -3.363    -16.419    -5.251
    114    H    -2.896    -16.751    -6.071
    115    C    -2.583    -16.648    -4.181
    116    H    -1.680    -17.063    -4.066
    117    C    -5.057    -15.436    -3.867
    118    O    -6.163    -14.914    -3.761
    119    N    -4.273    -15.662    -2.779
    120    C    -3.074    -16.244    -2.905
    121    N    -2.318    -16.421    -1.828
    122    H    -2.665    -16.111    -0.932
    123    H    -1.410    -16.858    -1.901
    124    C    -5.207    -14.091    -6.834
    125    H    -4.694    -13.569    -6.153
    126    O    -6.447    -13.471    -7.188
    127    H    -7.195    -13.718    -6.639
    128    C    -4.330    -14.301    -8.061
    129    H    -3.377    -14.421    -7.784
    130    O    -4.508    -13.258    -9.047
    131    P    -3.808    -11.793    -9.112
    132    O    -4.271    -11.058    -10.310
    133    O    -2.348    -11.865    -8.884
    134    O    -4.457    -11.048    -7.849
    135    C    -5.867    -10.803    -7.814
    136    H    -6.351    -11.675    -7.886
    137    H    -6.090    -10.088    -8.476
    138    C    -6.315    -10.231    -6.475
    139    H    -7.288    -10.003    -6.518
    140    O    -6.102    -11.223    -5.409
    141    C    -6.082    -10.467    -4.181
    142    H    -6.959    -10.629    -3.729
    143    N    -4.947    -10.967    -3.375
    144    C    -3.637    -11.497    -1.695
    145    N    -2.999    -11.961    -2.844
    146    C    -3.818    -11.617    -3.792
    147    H    -3.440    -11.910    -4.671
    148    N    -4.144    -10.988    0.534
    149    C    -5.272    -10.422    0.106
    150    H    -5.944    -9.993    0.709
    151    N    -5.696    -10.327    -1.152
    152    C    -4.819    -10.890    -2.006
    153    C    -3.293    -11.542    -0.341
    154    N    -2.173    -12.103    0.105
    155    H    -1.986    -12.100    1.097
    156    H    -1.536    -12.519    -0.559
    157    C    -5.987    -8.985    -4.571
    158    H    -5.253    -8.584    -4.023
    159    O    -7.241    -8.316    -4.409
    160    H    -7.793    -8.655    -3.700
    161    C    -5.579    -8.959    -6.042
    162    H    -4.594    -9.104    -6.139
    163    O    -6.027    -7.764    -6.732
    164    P    -5.413    -6.248    -6.756
    165    O    -6.256    -5.290    -7.507
    166    O    -3.980    -6.278    -7.111
    167    O    -5.521    -5.792    -5.223
    168    C    -6.804    -5.669    -4.603
    169    H    -7.384    -6.426    -4.902
    170    H    -7.143    -4.738    -4.737
    171    C    -6.734    -5.827    -3.089
    172    H    -7.646    -5.942    -2.695
    173    O    -5.955    -6.974    -2.792
    174    C    -5.539    -6.873    -1.418
    175    H    -6.130    -7.472    -0.877
    176    N    -4.118    -7.280    -1.354
    177    C    -3.375    -7.455    -0.210
    178    N    -3.110    -7.391    3.252
    179    H    -2.470    -7.550    4.017
    180    H    -4.045    -7.099    3.500
    181    N    -3.812    -7.276    1.059
    182    C    -2.856    -7.524    1.958
    183    N    -1.583    -7.914    1.633
    184    H    -0.925    -8.077    2.408
    185    C    -1.112    -8.106    0.346
    186    O    0.046    -8.468    0.165
    187    C    -2.120    -7.843    -0.623
    188    N    -2.062    -7.913    -2.013
    189    C    -3.261    -7.571    -2.376
    190    H    -3.317    -7.591    -3.374
    191    C    -5.818    -5.413    -1.031
    192    H    -4.987    -5.055    -0.604
    193    O    -6.971    -5.299    -0.190
    194    H    -7.125    -6.048    0.390
    195    C    -6.058    -4.677    -2.347
    196    H    -5.191    -4.463    -2.798
    197    O    -7.017    -3.600    -2.194
    198    P    -6.836    -2.054    -1.707
    199    O    -8.096    -1.263    -1.713
    200    O    -5.704    -1.571    -2.521
    201    O    -6.374    -2.159    -0.167
    202    C    -7.303    -2.514    0.865
    203    H    -7.778    -3.354    0.601
    204    H    -7.858    -1.714    1.093
    205    C    -6.576    -2.867    2.159
    206    H    -7.210    -3.105    2.895
    207    O    -5.718    -3.953    1.926
    208    C    -4.615    -3.888    2.848
    209    H    -4.690    -4.671    3.465
    210    N    -3.370    -3.890    2.048
    211    C    -3.388    -3.550    0.722
    212    H    -4.160    -3.284    0.144
    213    C    -2.193    -4.237    2.686
    214    O    -2.149    -4.543    3.871
    215    N    -1.056    -4.213    1.906
    216    H    -0.169    -4.466    2.364
    217    C    -0.986    -3.883    0.569
    218    O    0.088    -3.895    -0.021
    219    C    -2.258    -3.536    -0.019
    220    H    -2.120    -3.311    -0.984
    221    C    -4.843    -2.605    3.643
    222    H    -3.962    -2.158    3.797
    223    O    -5.571    -2.844    4.857
    224    H    -5.376    -3.679    5.289
    225    C    -5.654    -1.774    2.668
    226    H    -5.076    -1.459    1.915
    227    O    -6.510    -0.880    3.405
    228    P    -6.070    0.589    3.861
    229    O    -7.183    1.228    4.632
    230    O    -5.628    1.085    2.543
    231    O    -4.807    0.319    4.838
    232    C    -5.009    -0.191    6.160
    233    H    -5.494    -1.064    6.102
    234    H    -5.406    0.529    6.729
    235    C    -3.679    -0.527    6.827
    236    H    -3.799    -0.897    7.748
    237    O    -2.997    -1.473    6.038
    238    C    -1.581    -1.369    6.294
    239    H    -1.311    -2.176    6.819
    240    N    -0.903    -1.288    4.980
    241    C    -1.598    -0.937    3.855
    242    H    -2.568    -0.721    3.747
    243    C    0.453    -1.553    4.935
    244    O    1.096    -1.874    5.929
    245    N    1.050    -1.441    3.698
    246    H    2.060    -1.636    3.644
    247    C    0.427    -1.092    2.518
    248    O    1.066    -1.017    1.475
    249    C    -0.988    -0.835    2.653
    250    H    -1.362    -0.594    1.757
    251    C    -1.419    -0.124    7.175
    252    H    -0.649    0.414    6.832
    253    O    -1.293    -0.467    8.558
    254    H    -0.819    -1.284    8.731
    255    C    -2.712    0.635    6.908
    256    H    -2.664    1.082    6.015
    257    O    -3.084    1.430    8.045
    258    P    -2.760    3.005    8.131
    259    O    -3.318    3.555    9.395
    260    O    -3.134    3.584    6.819
    261    O    -1.158    2.942    8.253
    262    C    -0.553    2.337    9.404
    263    H    -0.895    1.402    9.498
    264    H    -0.652    2.953    10.185
    265    C    0.949    2.182    9.222
    266    H    1.404    1.726    9.987
    267    O    1.189    1.427    8.013
    268    C    2.527    1.655    7.534
    269    H    3.098    0.872    7.780
    270    N    2.450    1.854    6.067
    271    C    1.274    2.201    5.467
    272    H    0.367    2.354    5.860
    273    C    1.213    2.393    4.139
    274    H    0.471    2.643    3.516
    275    C    3.615    1.691    5.331
    276    O    4.666    1.385    5.892
    277    N    3.562    1.885    3.987
    278    C    2.414    2.225    3.387
    279    N    2.398    2.413    2.072
    280    H    3.255    2.295    1.552
    281    H    1.544    2.670    1.598
    282    C    2.955    2.867    8.370
    283    H    3.386    3.516    7.743
    284    O    3.811    2.488    9.450
    285    H    4.364    1.722    9.279
    286    C    1.674    3.484    8.919
    287    H    1.179    3.973    8.201
    288    O    1.886    4.354    10.044
    289    P    1.845    5.966    9.935
    290    O    2.103    6.543    11.266
    291    O    0.723    6.534    9.158
    292    O    3.161    6.199    9.053
    293    C    4.421    5.727    9.534
    294    H    4.322    4.777    9.829
    295    H    4.786    6.386    10.192
    296    C    5.465    5.675    8.430
    297    H    6.349    5.308    8.719
    298    O    4.961    4.881    7.361
    299    C    5.537    5.333    6.121
    300    H    6.119    4.602    5.766
    301    N    4.412    5.658    5.213
    302    C    3.155    5.854    5.708
    303    H    2.822    5.829    6.651
    304    C    2.127    6.130    4.888
    305    H    1.154    6.302    5.043
    306    C    4.671    5.743    3.849
    307    O    5.811    5.574    3.426
    308    N    3.632    6.022    3.011
    309    C    2.396    6.213    3.489
    310    N    1.401    6.478    2.649
    311    H    1.598    6.530    1.660
    312    H    0.462    6.625    2.992
    313    C    6.417    6.516    6.531
    314    H    6.374    7.217    5.819
    315    O    7.753    6.112    6.838
    316    H    8.093    5.394    6.299
    317    C    5.693    7.021    7.766
    318    H    4.808    7.416    7.519
    319    O    6.509    7.888    8.561
    320    P    6.411    9.491    8.449
    321    O    7.291    10.066    9.488
    322    O    5.011    9.968    8.336
    323    O    7.117    9.697    7.026
    324    C    8.480    9.303    6.870
    325    H    8.568    8.335    7.104
    326    H    9.065    9.956    7.351
    327    C    8.925    9.388    5.420
    328    H    9.892    9.160    5.304
    329    O    8.139    8.518    4.598
    330    C    8.076    9.090    3.280
    331    H    8.540    8.453    2.664
    332    N    6.643    9.270    2.958
    333    C    5.707    9.325    3.951
    334    H    5.815    9.276    4.944
    335    C    4.403    9.466    3.659
    336    H    3.578    9.525    4.221
    337    C    6.281    9.360    1.619
    338    O    7.139    9.320    0.739
    339    N    4.961    9.504    1.315
    340    C    4.035    9.558    2.283
    341    N    2.754    9.701    1.955
    342    H    2.505    9.766    0.978
    343    H    2.041    9.744    2.669
    344    C    8.871    10.400    3.336
    345    H    8.423    11.101    2.782
    346    O    10.255    10.211    2.991
    347    H    10.414    9.584    2.282
    348    C    8.669    10.726    4.801
    349    H    7.714    10.979    4.957
    350    O    9.846    11.401    5.275
    351    P    9.935    12.943    5.054
    352    O    11.267    13.311    5.639
    353    O    8.615    13.094    5.687
    354    O    9.867    13.110    3.433
    355    C    11.014    12.864    2.620
    356    H    11.243    11.892    2.666
    357    H    11.727    13.525    2.854
    358    C    10.654    13.139    1.161
    359    H    11.417    12.972    0.536
    360    O    9.542    12.324    0.769
    361    C    8.832    12.998    -0.285
    362    H    9.003    12.484    -1.126
    363    N    7.402    13.009    0.096
    364    C    7.035    12.854    1.400
    365    H    7.597    12.741    2.220
    366    C    5.739    12.836    1.752
    367    H    5.268    12.736    2.629
    368    C    6.454    13.155    -0.908
    369    O    6.805    13.303    -2.077
    370    N    5.138    13.137    -0.560
    371    C    4.768    12.984    0.718
    372    N    3.478    12.961    1.029
    373    H    2.796    13.060    0.291
    374    H    3.181    12.846    1.987
    375    C    9.461    14.386    -0.414
    376    H    8.730    15.065    -0.489
    377    O    10.390    14.460    -1.498
    378    H    10.160    13.931    -2.265
    379    C    10.155    14.551    0.932
    380    H    9.476    14.774    1.632
    381    O    11.245    15.468    0.857
    382    P    11.017    16.919    1.503
    383    O    12.287    17.673    1.452
    384    O    10.279    16.778    2.781
    385    O    10.015    17.513    0.400
    386    C    10.457    17.618    -0.959
    387    H    10.788    16.725    -1.264
    388    H    11.075    18.400    -1.041
    389    C    9.314    17.940    -1.908
    390    H    9.624    17.957    -2.858
    391    O    8.295    16.968    -1.774
    392    C    7.082    17.566    -2.268
    393    H    6.947    17.212    -3.193
    394    N    5.984    17.163    -1.358
    395    C    6.250    16.735    -0.086
    396    H    7.129    16.626    0.379
    397    C    4.689    17.246    -1.834
    398    O    4.427    17.626    -2.971
    399    N    3.695    16.879    -0.951
    400    H    2.723    16.938    -1.285
    401    C    3.875    16.438    0.343
    402    O    2.909    16.129    1.035
    403    C    5.258    16.380    0.760
    404    H    5.300    16.055    1.705
    405    C    7.316    19.082    -2.342
    406    H    6.596    19.535    -1.817
    407    O    7.366    19.541    -3.696
    408    H    6.802    19.062    -4.307
    409    C    8.646    19.274    -1.627
    410    H    8.485    19.357    -0.644
    411    O    9.384    20.509    -1.812
    412    P    9.536    21.638    -0.682
    413    O    10.299    22.773    -1.225
    414    O    9.903    21.306    0.702
    415    O    8.036    22.169    -0.533
    416    C    7.366    22.654    -1.689
    417    H    7.508    22.011    -2.441
    418    H    7.620    23.610    -1.836
    419    C    5.847    22.706    -1.544
    420    H    5.421    23.137    -2.339
    421    O    5.342    21.382    -1.409
    422    C    4.144    21.417    -0.604
    423    H    3.384    21.151    -1.197
    424    N    4.329    20.493    0.535
    425    C    3.332    19.874    1.258
    426    N    -0.033    19.203    1.792
    427    H    -0.672    18.700    2.391
    428    H    -0.445    19.733    1.037
    429    N    2.004    19.956    1.017
    430    C    1.289    19.242    1.890
    431    N    1.840    18.512    2.912
    432    H    1.195    17.998    3.529
    433    C    3.192    18.412    3.178
    434    O    3.579    17.732    4.120
    435    C    3.964    19.166    2.255
    436    N    5.343    19.330    2.170
    437    C    5.487    20.113    1.148
    438    H    6.461    20.289    1.008
    439    C    3.960    22.869    -0.183
    440    H    3.684    22.884    0.778
    441    O    3.031    23.554    -1.030
    442    H    2.314    23.012    -1.367
    443    C    5.360    23.450    -0.305
    444    H    5.911    23.170    0.481
    445    O    5.433    24.889    -0.197
    446    P    5.828    25.599    1.193
    447    O    5.823    27.056    0.992
    448    O    7.045    25.068    1.833
    449    O    4.666    25.290    2.267
    450    C    4.744    25.490    3.683
    451    H    4.809    26.470    3.870
    452    H    5.454    24.893    4.057
    453    C    3.472    25.057    4.420
    454    H    3.626    25.043    5.408
    455    O    2.441    25.998    4.124
    456    C    1.358    25.361    3.423
    457    H    0.532    25.558    3.951
    458    N    1.303    25.948    2.063
    459    C    2.360    25.838    1.204
    460    H    3.245    25.387    1.323
    461    C    2.309    26.386    -0.023
    462    H    2.956    26.421    -0.785
    463    C    0.146    26.623    1.698
    464    O    -0.795    26.705    2.483
    465    N    0.088    27.181    0.456
    466    C    1.120    27.079    -0.392
    467    N    1.033    27.641    -1.595
    468    H    0.187    28.134    -1.843
    469    H    1.799    27.577    -2.251
    470    C    1.606    23.849    3.430
    471    H    1.637    23.549    2.476
    472    O    0.624    23.142    4.194
    473    H    -0.249    23.541    4.199
    474    C    2.982    23.659    4.055
    475    H    3.578    23.280    3.347
    476    O    2.873    22.885    5.261
    477    P    2.492    21.314    5.217
    478    O    2.975    20.693    6.473
    479    O    2.969    20.812    3.910
    480    O    0.872    21.262    5.221
    481    C    0.091    21.691    6.357
    482    H    0.239    22.669    6.503
    483    H    0.263    21.071    7.123
    484    C    -1.425    21.578    6.124
    485    H    -1.915    21.746    6.979
    486    O    -1.800    22.574    5.169
    487    C    -2.564    21.986    4.113
    488    H    -3.517    22.230    4.293
    489    N    -2.101    22.547    2.828
    490    C    -2.021    23.662    0.941
    491    N    -0.736    23.168    1.155
    492    C    -0.855    22.522    2.273
    493    H    0.029    22.119    2.512
    494    N    -3.881    24.741    0.015
    495    C    -4.598    24.310    1.053
    496    H    -5.572    24.501    1.175
    497    N    -4.169    23.576    2.076
    498    C    -2.857    23.285    1.951
    499    C    -2.578    24.438    -0.078
    500    N    -1.868    24.914    -1.097
    501    H    -2.326    25.497    -1.783
    502    H    -0.887    24.682    -1.161
    503    C    -2.417    20.482    4.195
    504    H    -1.709    20.213    3.542
    505    O    -3.669    19.827    3.986
    506    H    -4.265    20.276    3.382
    507    C    -1.919    20.207    5.606
    508    H    -1.139    19.585    5.537
    509    O    -3.001    19.640    6.373
    510    P    -3.706    18.210    6.051
    511    O    -4.241    17.633    7.301
    512    O    -2.813    17.351    5.244
    513    O    -4.985    18.535    5.120
    514    C    -6.306    18.031    5.390
    515    H    -6.581    18.315    6.309
    516    H    -6.333    17.055    5.173
    517    C    -7.362    18.652    4.470
    518    H    -8.231    18.165    4.560
    519    O    -7.555    20.025    4.844
    520    C    -7.375    20.865    3.697
    521    H    -8.281    21.029    3.307
    522    N    -6.753    22.155    4.130
    523    C    -5.983    22.209    5.267
    524    H    -5.757    21.482    5.916
    525    C    -6.956    23.295    3.353
    526    O    -7.627    23.296    2.329
    527    N    -6.342    24.448    3.796
    528    H    -6.485    25.299    3.233
    529    C    -5.554    24.579    4.919
    530    O    -5.051    25.662    5.203
    531    C    -5.392    23.360    5.670
    532    H    -4.811    23.541    6.463
    533    C    -6.541    20.046    2.698
    534    H    -5.574    20.132    2.939
    535    O    -6.800    20.446    1.344
    536    H    -6.980    21.381    1.225
    537    C    -7.004    18.613    2.992
    538    H    -6.225    18.000    2.862
    539    O    -8.224    18.391    2.267
    540    P    -8.193    17.664    0.833
    541    O    -9.597    17.433    0.397
    542    O    -7.269    16.545    1.118
    543    O    -7.482    18.719    -0.177
    544    C    -8.169    19.887    -0.654
    545    H    -8.340    20.502    0.116
    546    H    -8.951    19.601    -1.208
    547    C    -7.282    20.688    -1.608
    548    H    -7.794    21.457    -1.991
    549    O    -6.105    21.193    -0.938
    550    C    -5.178    21.543    -1.965
    551    H    -5.289    22.525    -2.119
    552    N    -3.824    21.227    -1.482
    553    C    -1.648    21.218    -1.217
    554    N    -2.159    20.350    -0.253
    555    C    -3.440    20.403    -0.463
    556    H    -3.902    19.805    0.192
    557    N    -0.201    22.489    -2.550
    558    C    -1.267    22.939    -3.210
    559    H    -1.221    23.587    -3.971
    560    N    -2.536    22.623    -2.988
    561    C    -2.654    21.751    -1.968
    562    C    -0.350    21.620    -1.539
    563    N    0.725    21.184    -0.897
    564    H    1.635    21.516    -1.184
    565    H    0.609    20.530    -0.136
    566    C    -5.577    20.789    -3.240
    567    H    -4.805    20.224    -3.530
    568    O    -6.017    21.689    -4.267
    569    H    -5.569    22.538    -4.281
    570    C    -6.707    19.878    -2.755
    571    H    -6.312    19.034    -2.392
    572    O    -7.654    19.751    -3.816
    573    P    -7.491    18.460    -4.758
    574    O    -8.525    18.572    -5.813
    575    O    -7.499    17.356    -3.774
    576    O    -6.025    18.530    -5.448
    577    C    -5.721    19.521    -6.440
    578    H    -5.920    20.427    -6.067
    579    H    -6.157    19.263    -7.302
    580    C    -4.232    19.582    -6.784
    581    H    -4.089    20.235    -7.528
    582    O    -3.481    20.026    -5.608
    583    C    -2.153    19.464    -5.701
    584    H    -1.531    20.234    -5.843
    585    N    -1.869    18.757    -4.435
    586    C    -0.846    17.802    -2.744
    587    N    -2.210    17.646    -2.512
    588    C    -2.750    18.224    -3.539
    589    H    -3.745    18.159    -3.463
    590    N    1.487    17.720    -2.537
    591    C    1.572    18.383    -3.691
    592    H    2.436    18.642    -4.123
    593    N    0.565    18.805    -4.450
    594    C    -0.627    18.476    -3.910
    595    C    0.285    17.409    -2.024
    596    N    0.214    16.767    -0.862
    597    H    1.070    16.524    -0.384
    598    H    -0.694    16.537    -0.484
    599    C    -2.114    18.551    -6.945
    600    H    -1.656    17.697    -6.698
    601    O    -1.494    19.210    -8.050
    602    H    -0.781    19.809    -7.816
    603    C    -3.585    18.267    -7.200
    604    H    -3.889    17.544    -6.579
    605    O    -3.959    17.487    -8.383
    606    P    -4.203    15.905    -8.453
    607    O    -4.732    15.492    -9.762
    608    O    -4.808    15.112    -7.385
    609    O    -2.707    15.345    -8.440
    610    C    -1.784    15.989    -9.300
    611    H    -1.851    16.978    -9.168
    612    H    -1.898    15.631    -10.227
    613    C    -0.326    15.683    -8.975
    614    H    0.280    16.141    -9.626
    615    O    -0.037    16.173    -7.631
    616    C    1.114    15.438    -7.167
    617    H    1.896    16.058    -7.227