!*** FMO 5.2 (Gamess) INPUT generated by Facio 21.1.1.32 ***
 $CONTRL RUNTYP=OPTFMO NPRINT=-5 ISPHER=-1 MAXIT=50 $END
 $SYSTEM MWORDS=29 $END
 $GDDI NGROUP=1 $END
 $INTGRL NINTIC=-9000000 $END
 $SCF DIRSCF=.FALSE. NPUNCH=0 $END
!*** NumCPU : 2  MemPerNode : 512MB
 $FMOPRP
    NAODIR=210
    NGRFMO(1)=1, 1, 0, 0, 0,   0, 0, 0, 0, 0
    NPRINT=9
 $END
 $FMO
      SCFTYP(1)=RHF
      MODGRD=10
      MODMUL=0
      MAXCAO=5
      MAXBND=34
      NLAYER=1
      NFRAG=32
      ICHARG(1)=-1, -1, -1, -1, -1, -1, -1, -1, -1, -1, 
-1, -1, -1, -1, -1, -1, -1, -1, -1, -1, 
-1, -1, -1, -1, -1, -1, -1, -1, -1, -1, 
-1, 0
      FRGNAM(1)=Frag1, Frag2, Frag3, Frag4, Frag5, Frag6, Frag7, Frag8, Frag9, Frag10, Frag11, Frag12, Frag13, Frag14, Frag15, Frag16, Frag17, Frag18, Frag19, Frag20, Frag21, Frag22, Frag23, Frag24, Frag25, Frag26, Frag27, Frag28, Frag29, Frag30, Frag31, Frag32
      indat(1)=0
               1   -36   0
               37   -69   0
               70   -103   0
               104   -134   0
               135   -167   0
               168   -201   0
               202   -231   0
               232   -261   0
               262   -292   0
               293   -323   0
               324   -354   0
               355   -385   0
               386   -415   0
               416   -449   0
               450   -480   0
               481   -513   0
               514   -543   0
               544   -576   0
               577   -609   0
               610   -643   0
               644   -677   0
               678   -710   0
               711   -740   0
               741   -774   0
               775   -807   0
               808   -840   0
               841   -871   0
               872   -902   0
               903   -936   0
               937   -966   0
               967   -996   0
               997   -1024   0
 $END

 $FMOBND
   -37   36       3-21G    MINI
   -70   69       3-21G    MINI
   -104   103       3-21G    MINI
   -135   134       3-21G    MINI
   -168   167       3-21G    MINI
   -202   201       3-21G    MINI
   -232   231       3-21G    MINI
   -262   261       3-21G    MINI
   -293   292       3-21G    MINI
   -324   323       3-21G    MINI
   -355   354       3-21G    MINI
   -386   385       3-21G    MINI
   -416   415       3-21G    MINI
   -450   449       3-21G    MINI
   -481   480       3-21G    MINI
   -514   513       3-21G    MINI
   -544   543       3-21G    MINI
   -577   576       3-21G    MINI
   -610   609       3-21G    MINI
   -644   643       3-21G    MINI
   -678   677       3-21G    MINI
   -711   710       3-21G    MINI
   -741   740       3-21G    MINI
   -775   774       3-21G    MINI
   -808   807       3-21G    MINI
   -841   840       3-21G    MINI
   -872   871       3-21G    MINI
   -903   902       3-21G    MINI
   -937   936       3-21G    MINI
   -967   966       3-21G    MINI
   -997   996       3-21G    MINI
 $END
 $FMOHYB
 3-21G        9   5
   1 0  -0.070459   0.164841   0.000000   0.000000   0.502116
         0.466939   0.000000   0.000000   0.418036
   0 1  -0.070465   0.164857   0.473392   0.000000  -0.167359
         0.466967   0.394111   0.000000  -0.139327
   0 1  -0.070465   0.164857  -0.236695  -0.409969  -0.167359
         0.466967  -0.197055  -0.341311  -0.139327
   0 1  -0.070465   0.164857  -0.236695   0.409969  -0.167359
         0.466967  -0.197055   0.341311  -0.139327
   0 1   1.006716   0.074826   0.000000   0.000000   0.000000
        -0.143830   0.000000   0.000000  -0.000003
 MINI         5   5
   1 0  -0.104883   0.308874   0.000000   0.000000   0.521806
   0 1  -0.104883   0.308874   0.491961   0.000000  -0.173934
   0 1  -0.104883   0.308876  -0.245980  -0.426050  -0.173933
   0 1  -0.104883   0.308876  -0.245980   0.426050  -0.173933
   0 1   0.988209   0.063992   0.000000   0.000000   0.000000
 $END

 $DATA
 FMO calculation : XXNAMEXX
 C1 
 C.1-1    6
      N21 3
   
 O.1-1    8
      N21 3
   
 N.1-1    7
      N21 3
   
 H.1-1    1
      N21 3
   
 P.1-1   15
      N21 3
   
 $END
 $FMOXYZ
    1    H    6.559    -23.349    2.873
    2    O    5.901    -23.485    2.132
    3    C    6.375    -24.528    1.274
    4    H    6.391    -25.388    1.785
    5    H    7.222    -24.228    0.834
    6    C    5.411    -24.782    0.121
    7    H    5.851    -25.444    -0.485
    8    O    4.186    -25.317    0.575
    9    C    3.234    -25.123    -0.487
    10    H    3.227    -25.967    -1.023
    11    N    1.922    -24.847    0.141
    12    C    0.687    -25.013    -0.443
    13    N    -1.256    -25.983    -3.151
    14    H    -2.209    -26.062    -3.475
    15    H    -0.535    -26.279    -3.794
    16    N    0.455    -25.488    -1.690
    17    C    -0.849    -25.532    -1.973
    18    N    -1.834    -25.142    -1.104
    19    H    -2.809    -25.219    -1.427
    20    C    -1.625    -24.654    0.172
    21    O    -2.583    -24.329    0.869
    22    C    -0.240    -24.601    0.490
    23    N    0.395    -24.180    1.656
    24    C    1.653    -24.349    1.387
    25    H    2.196    -24.069    2.179
    26    C    3.763    -23.981    -1.362
    27    H    3.115    -23.223    -1.288
    28    O    3.987    -24.409    -2.710
    29    H    3.388    -25.090    -3.024
    30    C    5.085    -23.566    -0.730
    31    H    4.928    -22.782    -0.130
    32    O    6.105    -23.430    -1.734
    33    P    6.396    -21.976    -2.383
    34    O    7.542    -22.098    -3.309
    35    O    6.463    -20.967    -1.293
    36    O    5.094    -21.699    -3.292
    37    C    4.829    -22.486    -4.460
    38    H    4.844    -23.454    -4.210
    39    H    5.430    -22.184    -5.200
    40    C    3.423    -22.245    -4.984
    41    H    3.333    -22.775    -5.827
    42    O    2.424    -22.688    -4.042
    43    C    1.199    -22.059    -4.468
    44    H    0.777    -22.673    -5.135
    45    N    0.356    -21.877    -3.268
    46    C    -1.369    -21.748    -1.914
    47    N    -0.254    -21.403    -1.155
    48    C    0.722    -21.497    -2.006
    49    H    1.579    -21.263    -1.546
    50    N    -3.565    -22.208    -2.591
    51    C    -3.092    -22.466    -3.812
    52    H    -3.664    -22.741    -4.585
    53    N    -1.823    -22.407    -4.211
    54    C    -1.010    -22.038    -3.200
    55    C    -2.728    -21.843    -1.606
    56    N    -3.214    -21.593    -0.394
    57    H    -4.208    -21.683    -0.237
    58    H    -2.578    -21.319    0.342
    59    C    1.590    -20.755    -5.169
    60    H    1.360    -20.006    -4.547
    61    O    0.983    -20.650    -6.457
    62    H    0.120    -21.063    -6.533
    63    C    3.104    -20.808    -5.343
    64    H    3.525    -20.203    -4.668
    65    O    3.475    -20.656    -6.726
    66    P    3.371    -19.177    -7.379
    67    O    4.070    -19.187    -8.685
    68    O    3.786    -18.202    -6.330
    69    O    1.790    -19.008    -7.681
    70    C    1.135    -19.689    -8.762
    71    H    1.273    -20.674    -8.657
    72    H    1.409    -19.267    -9.626
    73    C    -0.377    -19.507    -8.710
    74    H    -0.840    -19.998    -9.448
    75    O    -0.847    -20.004    -7.452
    76    C    -2.206    -19.560    -7.269
    77    H    -2.828    -20.280    -7.576
    78    N    -2.389    -19.232    -5.839
    79    C    -3.576    -18.913    -5.222
    80    N    -7.008    -18.415    -5.373
    81    H    -7.812    -18.162    -4.817
    82    H    -7.179    -18.615    -6.348
    83    N    -4.792    -18.858    -5.816
    84    C    -5.753    -18.512    -4.961
    85    N    -5.537    -18.246    -3.633
    86    H    -6.355    -17.993    -3.061
    87    C    -4.308    -18.291    -3.002
    88    O    -4.226    -18.030    -1.805
    89    C    -3.270    -18.657    -3.903
    90    N    -1.904    -18.817    -3.680
    91    C    -1.451    -19.153    -4.849
    92    H    -0.463    -19.293    -4.787
    93    C    -2.281    -18.381    -8.251
    94    H    -2.634    -17.603    -7.732
    95    O    -3.067    -18.706    -9.402
    96    H    -3.772    -19.338    -9.246
    97    C    -0.866    -18.071    -8.704
    98    H    -0.366    -17.560    -8.005
    99    O    -0.883    -17.457    -10.004
    100    P    -0.687    -15.859    -10.164
    101    O    -0.705    -15.510    -11.599
    102    O    0.469    -15.440    -9.338
    103    O    -2.027    -15.238    -9.521
    104    C    -3.288    -15.280    -10.200
    105    H    -3.534    -16.234    -10.372
    106    H    -3.258    -14.656    -10.981
    107    C    -4.432    -14.749    -9.340
    108    H    -5.269    -14.763    -9.887
    109    O    -4.594    -15.626    -8.213
    110    C    -5.283    -14.883    -7.198
    111    H    -6.216    -15.241    -7.158
    112    N    -4.570    -15.074    -5.916
    113    C    -3.241    -15.385    -5.894
    114    H    -2.607    -15.565    -6.646
    115    C    -2.579    -15.492    -4.729
    116    H    -1.630    -15.705    -4.496
    117    C    -5.280    -14.866    -4.743
    118    O    -6.478    -14.603    -4.783
    119    N    -4.617    -14.969    -3.560
    120    C    -3.313    -15.269    -3.527
    121    N    -2.685    -15.330    -2.358
    122    H    -3.208    -15.148    -1.513
    123    H    -1.701    -15.555    -2.312
    124    C    -5.327    -13.425    -7.681
    125    H    -5.036    -12.849    -6.918
    126    O    -6.625    -13.086    -8.183
    127    H    -7.356    -13.536    -7.754
    128    C    -4.294    -13.336    -8.790
    129    H    -3.378    -13.225    -8.403
    130    O    -4.657    -12.304    -9.733
    131    P    -4.233    -10.752    -9.567
    132    O    -4.707    -10.000    -10.742
    133    O    -2.804    -10.653    -9.217
    134    O    -5.095    -10.196    -8.330
    135    C    -6.502    -9.927    -8.403
    136    H    -6.986    -10.778    -8.605
    137    H    -6.653    -9.147    -9.010
    138    C    -7.076    -9.477    -7.061
    139    H    -8.051    -9.309    -7.206
    140    O    -6.917    -10.553    -6.070
    141    C    -7.042    -9.921    -4.785
    142    H    -7.941    -10.173    -4.425
    143    N    -5.952    -10.434    -3.925
    144    C    -4.754    -11.039    -2.185
    145    N    -3.997    -11.365    -3.308
    146    C    -4.755    -10.983    -4.293
    147    H    -4.289    -11.176    -5.156
    148    N    -5.473    -10.756    0.025
    149    C    -6.595    -10.217    -0.450
    150    H    -7.340    -9.881    0.126
    151    N    -6.919    -10.034    -1.728
    152    C    -5.942    -10.471    -2.547
    153    C    -4.521    -11.184    -0.815
    154    N    -3.409    -11.721    -0.320
    155    H    -3.305    -11.795    0.682
    156    H    -2.694    -12.042    -0.958
    157    C    -7.009    -8.405    -5.033
    158    H    -6.341    -8.023    -4.394
    159    O    -8.315    -7.831    -4.923
    160    H    -8.899    -8.269    -4.300
    161    C    -6.507    -8.202    -6.454
    162    H    -5.508    -8.245    -6.483
    163    O    -7.097    -7.012    -7.015
    164    P    -6.531    -5.524    -6.713
    165    O    -7.435    -4.549    -7.349
    166    O    -5.092    -5.456    -7.044
    167    O    -6.699    -5.298    -5.128
    168    C    -7.964    -5.110    -4.480
    169    H    -8.613    -5.785    -4.831
    170    H    -8.217    -4.144    -4.534
    171    C    -7.877    -5.401    -2.986
    172    H    -8.802    -5.531    -2.628
    173    O    -7.138    -6.596    -2.799
    174    C    -6.711    -6.637    -1.428
    175    H    -7.311    -7.272    -0.942
    176    N    -5.302    -7.087    -1.417
    177    C    -4.554    -7.387    -0.301
    178    N    -4.264    -7.663    3.148
    179    H    -3.622    -7.910    3.888
    180    H    -5.190    -7.375    3.431
    181    N    -4.977    -7.322    0.983
    182    C    -4.022    -7.677    1.845
    183    N    -2.761    -8.063    1.472
    184    H    -2.101    -8.315    2.222
    185    C    -2.303    -8.141    0.169
    186    O    -1.155    -8.511    -0.058
    187    C    -3.311    -7.763    -0.761
    188    N    -3.265    -7.700    -2.152
    189    C    -4.458    -7.297    -2.470
    190    H    -4.521    -7.218    -3.465
    191    C    -6.955    -5.215    -0.901
    192    H    -6.107    -4.918    -0.462
    193    O    -8.096    -5.164    -0.040
    194    H    -8.260    -5.965    0.463
    195    C    -7.214    -4.342    -2.122
    196    H    -6.353    -4.066    -2.549
    197    O    -8.185    -3.325    -1.807
    198    P    -7.757    -1.898    -1.169
    199    O    -8.988    -1.098    -1.008
    200    O    -6.632    -1.318    -1.946
    201    O    -7.235    -2.217    0.326
    202    C    -8.112    -2.581    1.403
    203    H    -8.677    -3.354    1.115
    204    H    -8.575    -1.760    1.737
    205    C    -7.327    -3.099    2.602
    206    H    -7.950    -3.384    3.330
    207    O    -6.527    -4.188    2.235
    208    C    -5.377    -4.237    3.102
    209    H    -5.452    -5.068    3.653
    210    N    -4.182    -4.207    2.229
    211    C    -4.264    -3.745    0.942
    212    H    -5.055    -3.398    0.438
    213    C    -2.988    -4.653    2.760
    214    O    -2.891    -5.068    3.910
    215    N    -1.899    -4.601    1.918
    216    H    -0.999    -4.928    2.296
    217    C    -1.892    -4.153    0.614
    218    O    -0.855    -4.151    -0.039
    219    C    -3.179    -3.706    0.138
    220    H    -3.087    -3.399    -0.809
    221    C    -5.509    -3.025    4.014
    222    H    -4.603    -2.618    4.135
    223    O    -6.172    -3.335    5.240
    224    H    -5.991    -4.211    5.588
    225    C    -6.369    -2.081    3.195
    226    H    -5.830    -1.674    2.458
    227    O    -7.149    -1.297    4.104
    228    P    -6.499    0.089    4.644
    229    O    -7.489    0.676    5.581
    230    O    -6.056    0.815    3.414
    231    O    -5.194    -0.385    5.486
    232    C    -5.296    -1.007    6.779
    233    H    -5.834    -1.846    6.695
    234    H    -5.593    -0.324    7.446
    235    C    -3.947    -1.481    7.307
    236    H    -4.024    -1.953    8.185
    237    O    -3.364    -2.352    6.369
    238    C    -1.930    -2.329    6.532
    239    H    -1.663    -3.199    6.946
    240    N    -1.345    -2.126    5.187
    241    C    -2.102    -1.626    4.163
    242    H    -3.066    -1.361    4.153
    243    C    -0.010    -2.437    5.011
    244    O    0.687    -2.891    5.914
    245    N    0.502    -2.212    3.752
    246    H    1.496    -2.437    3.601
    247    C    -0.188    -1.712    2.667
    248    O    0.379    -1.547    1.592
    249    C    -1.575    -1.416    2.936
    250    H    -2.000    -1.063    2.103
    251    C    -1.649    -1.198    7.524
    252    H    -0.889    -0.650    7.175
    253    O    -1.441    -1.689    8.848
    254    H    -0.993    -2.536    8.900
    255    C    -2.927    -0.372    7.458
    256    H    -2.926    0.185    6.628
    257    O    -3.159    0.271    8.719
    258    P    -2.682    1.801    8.913
    259    O    -3.101    2.232    10.268
    260    O    -3.108    2.570    7.712
    261    O    -1.076    1.655    8.896
    262    C    -0.396    0.926    9.928
    263    H    -0.756    -0.007    9.959
    264    H    -0.413    1.463    10.771
    265    C    1.086    0.751    9.619
    266    H    1.595    0.212    10.290
    267    O    1.198    0.117    8.324
    268    C    2.497    0.353    7.755
    269    H    3.057    -0.468    7.869
    270    N    2.313    0.701    6.327
    271    C    1.107    1.143    5.863
    272    H    0.241    1.280    6.343
    273    C    0.948    1.475    4.570
    274    H    0.170    1.811    4.040
    275    C    3.408    0.581    5.483
    276    O    4.489    0.188    5.919
    277    N    3.256    0.915    4.174
    278    C    2.078    1.350    3.708
    279    N    1.965    1.675    2.425
    280    H    2.773    1.587    1.826
    281    H    1.086    2.005    2.052
    282    C    3.039    1.459    8.673
    283    H    3.455    2.155    8.088
    284    O    3.964    0.937    9.634
    285    H    4.474    0.180    9.336
    286    C    1.818    2.053    9.357
    287    H    1.285    2.603    8.714
    288    O    2.139    2.780    10.552
    289    P    2.216    4.387    10.620
    290    O    2.581    4.794    11.988
    291    O    1.006    4.943    9.987
    292    O    3.454    4.695    9.651
    293    C    4.758    4.212    9.984
    294    H    4.707    3.228    10.152
    295    H    5.146    4.791    10.701
    296    C    5.708    4.360    8.804
    297    H    6.625    4.005    8.985
    298    O    5.131    3.628    7.720
    299    C    5.579    4.203    6.481
    300    H    6.137    3.525    6.002
    301    N    4.376    4.574    5.694
    302    C    3.161    4.697    6.305
    303    H    2.908    4.571    7.264
    304    C    2.065    5.036    5.605
    305    H    1.107    5.173    5.857
    306    C    4.517    4.800    4.328
    307    O    5.618    4.696    3.795
    308    N    3.408    5.145    3.610
    309    C    2.215    5.265    4.205
    310    N    1.151    5.596    3.481
    311    H    1.264    5.751    2.490
    312    H    0.243    5.691    3.913
    313    C    6.480    5.357    6.939
    314    H    6.392    6.110    6.287
    315    O    7.839    4.922    7.073
    316    H    8.114    4.253    6.442
    317    C    5.846    5.766    8.253
    318    H    4.934    6.152    8.113
    319    O    6.611    6.686    9.060
    320    P    6.510    8.295    9.088
    321    O    7.428    8.835    10.098
    322    O    5.105    8.710    9.128
    323    O    7.092    8.706    7.669
    324    C    8.461    8.434    7.370
    325    H    8.629    7.454    7.478
    326    H    9.039    9.069    7.883
    327    C    8.776    8.720    5.912
    328    H    9.743    8.510    5.768
    329    O    7.979    7.832    5.106
    330    C    7.782    8.471    3.838
    331    H    8.208    7.894    3.142
    332    N    6.319    8.599    3.624
    333    C    5.459    8.550    4.682
    334    H    5.643    8.433    5.658
    335    C    4.132    8.667    4.498
    336    H    3.350    8.658    5.121
    337    C    5.855    8.771    2.324
    338    O    6.644    8.822    1.383
    339    N    4.511    8.890    2.128
    340    C    3.660    8.843    3.163
    341    N    2.354    8.965    2.941
    342    H    2.030    9.091    1.993
    343    H    1.696    8.932    3.706
    344    C    8.553    9.797    3.929
    345    H    8.019    10.489    3.443
    346    O    9.891    9.658    3.446
    347    H    10.001    9.025    2.733
    348    C    8.579    10.141    5.411
    349    H    7.688    10.474    5.720
    350    O    9.713    10.973    5.724
    351    P    9.757    12.567    5.434
    352    O    11.108    13.050    5.773
    353    O    8.615    13.241    6.086
    354    O    9.626    12.765    3.840
    355    C    10.663    12.468    2.893
    356    H    10.918    11.505    2.981
    357    H    11.386    13.154    2.976
    358    C    10.162    12.606    1.457
    359    H    10.892    12.284    0.853
    360    O    9.000    11.792    1.259
    361    C    8.224    12.369    0.199
    362    H    8.278    11.739    -0.576
    363    N    6.843    12.519    0.711
    364    C    6.605    12.556    2.053
    365    H    7.241    12.511    2.823
    366    C    5.354    12.669    2.525
    367    H    4.972    12.712    3.448
    368    C    5.806    12.600    -0.210
    369    O    6.043    12.575    -1.416
    370    N    4.534    12.715    0.262
    371    C    4.291    12.750    1.578
    372    N    3.040    12.853    2.011
    373    H    2.292    12.903    1.334
    374    H    2.837    12.881    3.000
    375    C    8.910    13.686    -0.180
    376    H    8.199    14.386    -0.250
    377    O    9.721    13.551    -1.349
    378    H    9.394    12.924    -1.999
    379    C    9.819    14.017    1.002
    380    H    9.292    14.472    1.720
    381    O    11.050    14.559    0.491
    382    P    11.093    16.052    -0.146
    383    O    12.389    16.242    -0.845
    384    O    10.808    16.911    1.031
    385    O    9.898    16.217    -1.237
    386    C    9.984    15.809    -2.616
    387    H    10.178    14.829    -2.654
    388    H    10.602    16.428    -3.101
    389    C    8.640    15.971    -3.310
    390    H    8.718    15.527    -4.203
    391    O    7.621    15.339    -2.571
    392    C    6.384    15.931    -2.992
    393    H    5.959    15.280    -3.622
    394    N    5.571    16.153    -1.777
    395    C    6.158    16.210    -0.542
    396    H    7.120    16.113    -0.287
    397    C    4.208    16.308    -1.937
    398    O    3.662    16.261    -3.035
    399    N    3.486    16.526    -0.783
    400    H    2.468    16.648    -0.881
    401    C    3.994    16.598    0.497
    402    O    3.248    16.789    1.453
    403    C    5.427    16.425    0.574
    404    H    5.712    16.494    1.530
    405    C    6.722    17.215    -3.755
    406    H    6.249    17.967    -3.296
    407    O    6.425    17.094    -5.150
    408    H    5.673    16.535    -5.357
    409    C    8.223    17.403    -3.594
    410    H    8.408    17.962    -2.786
    411    O    8.741    17.743    -4.893
    412    P    8.848    19.309    -5.306
    413    O    9.105    19.396    -6.764
    414    O    9.858    19.882    -4.371
    415    O    7.388    19.973    -5.032
    416    C    6.281    19.873    -5.946
    417    H    6.125    18.910    -6.164
    418    H    6.427    20.507    -6.705
    419    C    4.995    20.344    -5.274
    420    H    4.252    20.348    -5.943
    421    O    4.645    19.491    -4.203
    422    C    3.945    20.260    -3.203
    423    H    3.006    19.917    -3.178
    424    N    4.668    20.099    -1.927
    425    C    4.135    20.241    -0.665
    426    N    1.412    20.823    1.409
    427    H    1.135    20.901    2.377
    428    H    0.682    20.943    0.721
    429    N    2.841    20.505    -0.372
    430    C    2.630    20.580    0.944
    431    N    3.612    20.410    1.886
    432    H    3.338    20.491    2.876
    433    C    4.939    20.139    1.611
    434    O    5.737    20.007    2.530
    435    C    5.177    20.055    0.214
    436    N    6.358    19.799    -0.477
    437    C    5.991    19.840    -1.719
    438    H    6.786    19.666    -2.299
    439    C    3.934    21.698    -3.693
    440    H    4.155    22.292    -2.919
    441    O    2.706    22.031    -4.348
    442    H    1.926    21.601    -3.990
    443    C    5.078    21.747    -4.698
    444    H    5.946    21.849    -4.212
    445    O    4.736    22.669    -5.738
    446    P    5.562    24.057    -5.752
    447    O    5.079    24.868    -6.891
    448    O    7.013    23.741    -5.615
    449    O    5.043    24.734    -4.382
    450    C    5.800    25.744    -3.718
    451    H    5.817    26.565    -4.288
    452    H    6.675    25.357    -3.427
    453    C    5.130    26.191    -2.423
    454    H    5.741    26.770    -1.883
    455    O    3.969    26.938    -2.769
    456    C    2.790    26.305    -2.241
    457    H    2.333    26.995    -1.680
    458    N    1.960    25.888    -3.394
    459    C    2.428    24.991    -4.313
    460    H    3.303    24.509    -4.357
    461    C    1.674    24.628    -5.366
    462    H    1.824    24.005    -6.134
    463    C    0.697    26.449    -3.515
    464    O    0.293    27.248    -2.674
    465    N    -0.073    26.085    -4.579
    466    C    0.378    25.208    -5.485
    467    N    -0.396    24.879    -6.516
    468    H    -1.311    25.300    -6.593
    469    H    -0.076    24.220    -7.211
    470    C    3.226    25.142    -1.344
    471    H    2.804    24.312    -1.708
    472    O    2.895    25.362    0.030
    473    H    2.101    25.882    0.177
    474    C    4.737    25.043    -1.506
    475    H    4.929    24.177    -1.968
    476    O    5.385    25.251    -0.243
    477    P    5.342    24.098    0.890
    478    O    6.520    24.274    1.771
    479    O    5.115    22.802    0.211
    480    O    4.011    24.472    1.731
    481    C    3.915    25.703    2.477
    482    H    3.969    26.474    1.842
    483    H    4.565    25.675    3.237
    484    C    2.552    25.878    3.159
    485    H    2.572    26.651    3.793
    486    O    1.568    26.126    2.154
    487    C    0.457    25.240    2.308
    488    H    -0.271    25.782    2.727
    489    N    0.064    24.745    0.974
    490    C    -1.058    24.396    -0.877
    491    N    0.198    23.824    -1.070
    492    C    0.801    24.061    0.053
    493    H    1.724    23.678    0.014
    494    N    -3.263    25.118    -1.190
    495    C    -3.231    25.622    0.043
    496    H    -4.001    26.094    0.472
    497    N    -2.212    25.592    0.897
    498    C    -1.148    24.955    0.364
    499    C    -2.187    24.494    -1.693
    500    N    -2.221    24.037    -2.942
    501    H    -3.060    24.169    -3.489
    502    H    -1.407    23.568    -3.314
    503    C    0.854    24.130    3.258
    504    H    1.113    23.336    2.707
    505    O    -0.193    23.842    4.188
    506    H    -1.082    23.964    3.848
    507    C    2.089    24.660    3.976
    508    H    2.790    23.949    3.926
    509    O    1.729    25.079    5.299
    510    P    1.316    24.006    6.435
    511    O    1.683    24.570    7.754
    512    O    1.851    22.687    6.028
    513    O    -0.295    23.952    6.328
    514    C    -1.134    24.067    7.491
    515    H    -0.946    24.939    7.943
    516    H    -1.055    23.231    8.034
    517    C    -2.619    24.142    7.120
    518    H    -3.196    24.041    7.930
    519    O    -2.855    25.434    6.535
    520    C    -3.484    25.269    5.260
    521    H    -4.471    25.346    5.404
    522    N    -3.023    26.356    4.337
    523    C    -1.807    26.965    4.531
    524    H    -1.126    26.807    5.246
    525    C    -3.843    26.728    3.271
    526    O    -4.931    26.212    3.052
    527    N    -3.354    27.721    2.448
    528    H    -3.949    28.007    1.658
    529    C    -2.146    28.372    2.575
    530    O    -1.817    29.235    1.767
    531    C    -1.357    27.935    3.699
    532    H    -0.502    28.454    3.718
    533    C    -3.154    23.835    4.814
    534    H    -2.249    23.836    4.389
    535    O    -4.150    23.315    3.924
    536    H    -4.558    23.966    3.348
    537    C    -3.082    23.069    6.141
    538    H    -2.373    22.368    6.067
    539    O    -4.370    22.537    6.498
    540    P    -4.832    21.021    6.174
    541    O    -6.138    20.786    6.826
    542    O    -3.715    20.101    6.457
    543    O    -5.078    21.035    4.581
    544    C    -6.135    21.812    3.998
    545    H    -5.959    22.781    4.169
    546    H    -7.014    21.437    4.291
    547    C    -6.144    21.681    2.475
    548    H    -6.939    22.169    2.114
    549    O    -4.937    22.271    1.924
    550    C    -4.834    21.783    0.590
    551    H    -5.207    22.496    -0.004
    552    N    -3.409    21.555    0.284
    553    C    -1.517    21.271    -0.792
    554    N    -1.201    21.233    0.566
    555    C    -2.355    21.407    1.139
    556    H    -2.231    21.397    2.131
    557    N    -1.377    21.234    -3.129
    558    C    -2.694    21.425    -3.172
    559    H    -3.221    21.497    -4.019
    560    N    -3.517    21.550    -2.140
    561    C    -2.856    21.464    -0.969
    562    C    -0.745    21.151    -1.949
    563    N    0.567    20.960    -1.930
    564    H    1.063    20.881    -2.806
    565    H    1.040    20.898    -1.040
    566    C    -5.724    20.533    0.490
    567    H    -5.145    19.775    0.188
    568    O    -6.827    20.760    -0.397
    569    H    -6.647    21.363    -1.122
    570    C    -6.195    20.261    1.924
    571    H    -5.520    19.701    2.405
    572    O    -7.513    19.681    1.920
    573    P    -7.764    18.084    1.948
    574    O    -9.211    17.828    1.815
    575    O    -7.056    17.492    3.097
    576    O    -7.081    17.536    0.595
    577    C    -7.591    17.875    -0.699
    578    H    -7.696    18.868    -0.758
    579    H    -8.391    17.307    -0.893
    580    C    -6.612    17.537    -1.824
    581    H    -7.092    17.774    -2.669
    582    O    -5.437    18.386    -1.693
    583    C    -4.335    17.682    -2.290
    584    H    -4.061    18.213    -3.092
    585    N    -3.243    17.607    -1.299
    586    C    -1.273    17.399    -0.349
    587    N    -2.191    17.554    0.687
    588    C    -3.321    17.667    0.062
    589    H    -4.054    17.780    0.733
    590    N    0.711    17.102    -1.560
    591    C    -0.013    17.147    -2.680
    592    H    0.373    17.060    -3.598
    593    N    -1.329    17.310    -2.777
    594    C    -1.902    17.429    -1.561
    595    C    0.113    17.227    -0.364
    596    N    0.850    17.202    0.744
    597    H    1.850    17.089    0.664
    598    H    0.392    17.297    1.639
    599    C    -4.859    16.309    -2.753
    600    H    -4.194    15.622    -2.460
    601    O    -5.124    16.306    -4.157
    602    H    -4.545    16.866    -4.680
    603    C    -6.163    16.092    -1.994
    604    H    -5.968    15.703    -1.093
    605    O    -7.088    15.341    -2.810
    606    P    -6.985    13.735    -3.021
    607    O    -8.032    13.328    -3.976
    608    O    -6.954    13.053    -1.714
    609    O    -5.591    13.447    -3.779
    610    C    -5.289    13.833    -5.128
    611    H    -5.424    14.819    -5.222
    612    H    -5.780    13.230    -5.757
    613    C    -3.815    13.612    -5.454
    614    H    -3.698    13.959    -6.384
    615    O    -2.994    14.386    -4.558
    616    C    -1.691    13.783    -4.569
    617    H    -1.100    14.387    -5.103