!*** FMO 5.2 (Gamess) INPUT generated by Facio 21.1.1.32 ***
 $CONTRL RUNTYP=OPTFMO NPRINT=-5 ISPHER=-1 MAXIT=50 $END
 $SYSTEM MWORDS=29 $END
 $GDDI NGROUP=1 $END
 $INTGRL NINTIC=-9000000 $END
 $SCF DIRSCF=.FALSE. NPUNCH=0 $END
!*** NumCPU : 2  MemPerNode : 512MB
 $FMOPRP
    NAODIR=210
    NGRFMO(1)=1, 1, 0, 0, 0,   0, 0, 0, 0, 0
    NPRINT=9
 $END
 $FMO
      SCFTYP(1)=RHF
      MODGRD=10
      MODMUL=0
      MAXCAO=5
      MAXBND=34
      NLAYER=1
      NFRAG=32
      ICHARG(1)=-1, -1, -1, -1, -1, -1, -1, -1, -1, -1, 
-1, -1, -1, -1, -1, -1, -1, -1, -1, -1, 
-1, -1, -1, -1, -1, -1, -1, -1, -1, -1, 
-1, 0
      FRGNAM(1)=Frag1, Frag2, Frag3, Frag4, Frag5, Frag6, Frag7, Frag8, Frag9, Frag10, Frag11, Frag12, Frag13, Frag14, Frag15, Frag16, Frag17, Frag18, Frag19, Frag20, Frag21, Frag22, Frag23, Frag24, Frag25, Frag26, Frag27, Frag28, Frag29, Frag30, Frag31, Frag32
      indat(1)=0
               1   -36   0
               37   -69   0
               70   -103   0
               104   -134   0
               135   -167   0
               168   -201   0
               202   -231   0
               232   -261   0
               262   -292   0
               293   -323   0
               324   -354   0
               355   -385   0
               386   -415   0
               416   -449   0
               450   -480   0
               481   -513   0
               514   -543   0
               544   -576   0
               577   -609   0
               610   -643   0
               644   -677   0
               678   -710   0
               711   -740   0
               741   -774   0
               775   -807   0
               808   -840   0
               841   -871   0
               872   -902   0
               903   -936   0
               937   -966   0
               967   -996   0
               997   -1024   0
 $END

 $FMOBND
   -37   36       3-21G    MINI
   -70   69       3-21G    MINI
   -104   103       3-21G    MINI
   -135   134       3-21G    MINI
   -168   167       3-21G    MINI
   -202   201       3-21G    MINI
   -232   231       3-21G    MINI
   -262   261       3-21G    MINI
   -293   292       3-21G    MINI
   -324   323       3-21G    MINI
   -355   354       3-21G    MINI
   -386   385       3-21G    MINI
   -416   415       3-21G    MINI
   -450   449       3-21G    MINI
   -481   480       3-21G    MINI
   -514   513       3-21G    MINI
   -544   543       3-21G    MINI
   -577   576       3-21G    MINI
   -610   609       3-21G    MINI
   -644   643       3-21G    MINI
   -678   677       3-21G    MINI
   -711   710       3-21G    MINI
   -741   740       3-21G    MINI
   -775   774       3-21G    MINI
   -808   807       3-21G    MINI
   -841   840       3-21G    MINI
   -872   871       3-21G    MINI
   -903   902       3-21G    MINI
   -937   936       3-21G    MINI
   -967   966       3-21G    MINI
   -997   996       3-21G    MINI
 $END
 $FMOHYB
 3-21G        9   5
   1 0  -0.070459   0.164841   0.000000   0.000000   0.502116
         0.466939   0.000000   0.000000   0.418036
   0 1  -0.070465   0.164857   0.473392   0.000000  -0.167359
         0.466967   0.394111   0.000000  -0.139327
   0 1  -0.070465   0.164857  -0.236695  -0.409969  -0.167359
         0.466967  -0.197055  -0.341311  -0.139327
   0 1  -0.070465   0.164857  -0.236695   0.409969  -0.167359
         0.466967  -0.197055   0.341311  -0.139327
   0 1   1.006716   0.074826   0.000000   0.000000   0.000000
        -0.143830   0.000000   0.000000  -0.000003
 MINI         5   5
   1 0  -0.104883   0.308874   0.000000   0.000000   0.521806
   0 1  -0.104883   0.308874   0.491961   0.000000  -0.173934
   0 1  -0.104883   0.308876  -0.245980  -0.426050  -0.173933
   0 1  -0.104883   0.308876  -0.245980   0.426050  -0.173933
   0 1   0.988209   0.063992   0.000000   0.000000   0.000000
 $END

 $DATA
 FMO calculation : XXNAMEXX
 C1 
 C.1-1    6
      N21 3
   
 O.1-1    8
      N21 3
   
 N.1-1    7
      N21 3
   
 H.1-1    1
      N21 3
   
 P.1-1   15
      N21 3
   
 $END
 $FMOXYZ
    1    H    9.581    -11.701    -3.350
    2    O    8.754    -12.066    -3.778
    3    C    9.109    -12.705    -5.011
    4    H    9.685    -13.498    -4.813
    5    H    9.462    -12.017    -5.645
    6    C    7.896    -13.294    -5.735
    7    H    8.138    -13.644    -6.640
    8    O    7.299    -14.332    -4.985
    9    C    5.951    -14.499    -5.478
    10    H    5.994    -15.209    -6.181
    11    N    5.100    -14.888    -4.333
    12    C    3.889    -15.539    -4.405
    13    N    1.382    -17.036    -6.279
    14    H    0.491    -17.506    -6.208
    15    H    1.758    -16.920    -7.209
    16    N    3.276    -15.955    -5.538
    17    C    2.111    -16.555    -5.283
    18    N    1.598    -16.726    -4.023
    19    H    0.688    -17.203    -3.942
    20    C    2.202    -16.311    -2.852
    21    O    1.652    -16.513    -1.773
    22    C    3.446    -15.669    -3.107
    23    N    4.363    -15.112    -2.219
    24    C    5.303    -14.674    -2.998
    25    H    6.017    -14.250    -2.440
    26    C    5.528    -13.182    -6.127
    27    H    4.751    -12.806    -5.622
    28    O    5.235    -13.323    -7.524
    29    H    4.836    -14.160    -7.772
    30    C    6.748    -12.309    -5.881
    31    H    6.614    -11.834    -5.011
    32    O    6.960    -11.378    -6.945
    33    P    6.361    -9.886    -6.834
    34    O    6.872    -9.143    -8.005
    35    O    6.580    -9.380    -5.464
    36    O    4.789    -10.162    -7.001
    37    C    4.330    -10.775    -8.208
    38    H    4.818    -11.638    -8.341
    39    H    4.359    -10.102    -8.947
    40    C    2.864    -11.190    -8.152
    41    H    2.534    -11.545    -9.027
    42    O    2.669    -12.197    -7.131
    43    C    1.249    -12.217    -6.865
    44    H    0.842    -12.842    -7.531
    45    N    1.041    -12.668    -5.475
    46    C    0.216    -13.635    -3.685
    47    N    1.325    -12.911    -3.257
    48    C    1.761    -12.367    -4.353
    49    H    2.569    -11.816    -4.144
    50    N    -1.683    -15.008    -3.731
    51    C    -1.757    -14.794    -5.046
    52    H    -2.462    -15.187    -5.637
    53    N    -0.939    -14.048    -5.785
    54    C    0.033    -13.494    -5.031
    55    C    -0.703    -14.442    -3.009
    56    N    -0.640    -14.667    -1.700
    57    H    -1.334    -15.263    -1.272
    58    H    0.101    -14.237    -1.164
    59    C    0.725    -10.807    -7.121
    60    H    0.484    -10.398    -6.241
    61    O    -0.372    -10.790    -8.040
    62    H    -0.948    -11.557    -7.998
    63    C    1.931    -10.082    -7.690
    64    H    2.366    -9.581    -6.942
    65    O    1.530    -9.177    -8.725
    66    P    0.752    -7.811    -8.353
    67    O    0.831    -6.938    -9.543
    68    O    1.175    -7.317    -7.029
    69    O    -0.726    -8.405    -8.181
    70    C    -1.281    -9.078    -9.308
    71    H    -0.651    -9.798    -9.600
    72    H    -1.564    -8.399    -9.986
    73    C    -2.559    -9.813    -8.948
    74    H    -2.980    -10.276    -9.728
    75    O    -2.261    -10.780    -7.938
    76    C    -3.508    -11.251    -7.383
    77    H    -3.775    -12.092    -7.854
    78    N    -3.307    -11.465    -5.933
    79    C    -4.201    -12.048    -5.065
    80    N    -7.262    -13.576    -4.474
    81    H    -7.837    -13.979    -3.747
    82    H    -7.647    -13.581    -5.408
    83    N    -5.417    -12.547    -5.392
    84    C    -6.057    -13.042    -4.334
    85    N    -5.544    -13.048    -3.062
    86    H    -6.125    -13.461    -2.319
    87    C    -4.310    -12.544    -2.699
    88    O    -3.949    -12.598    -1.528
    89    C    -3.613    -12.010    -3.819
    90    N    -2.357    -11.413    -3.892
    91    C    -2.241    -11.120    -5.152
    92    H    -1.355    -10.681    -5.304
    93    C    -4.474    -10.127    -7.781
    94    H    -4.965    -9.854    -6.954
    95    O    -5.355    -10.534    -8.832
    96    H    -5.578    -11.468    -8.835
    97    C    -3.603    -8.971    -8.244
    98    H    -3.177    -8.507    -7.467
    99    O    -4.292    -8.020    -9.072
    100    P    -4.726    -6.559    -8.519
    101    O    -5.313    -5.755    -9.608
    102    O    -3.617    -5.993    -7.728
    103    O    -5.911    -6.926    -7.503
    104    C    -7.151    -7.420    -8.010
    105    H    -6.978    -8.248    -8.543
    106    H    -7.643    -6.671    -8.454
    107    C    -8.089    -7.878    -6.902
    108    H    -8.972    -8.139    -7.291
    109    O    -7.499    -9.025    -6.269
    110    C    -8.091    -9.142    -4.965
    111    H    -8.713    -9.924    -4.994
    112    N    -7.011    -9.357    -3.975
    113    C    -5.742    -8.917    -4.216
    114    H    -5.357    -8.477    -5.027
    115    C    -4.778    -9.045    -3.288
    116    H    -3.810    -8.796    -3.265
    117    C    -7.343    -9.959    -2.769
    118    O    -8.486    -10.366    -2.575
    119    N    -6.375    -10.090    -1.822
    120    C    -5.130    -9.655    -2.048
    121    N    -4.215    -9.767    -1.093
    122    H    -4.479    -10.181    -0.210
    123    H    -3.270    -9.445    -1.244
    124    C    -8.909    -7.860    -4.751
    125    H    -8.702    -7.516    -3.835
    126    O    -10.308    -8.111    -4.922
    127    H    -10.596    -8.991    -4.668
    128    C    -8.368    -6.880    -5.782
    129    H    -7.502    -6.489    -5.471
    130    O    -9.240    -5.754    -6.052
    131    P    -9.097    -4.267    -5.400
    132    O    -9.949    -3.273    -6.072
    133    O    -7.669    -3.947    -5.276
    134    O    -9.694    -4.393    -3.921
    135    C    -11.097    -4.524    -3.676
    136    H    -11.428    -5.358    -4.118
    137    H    -11.549    -3.662    -3.904
    138    C    -11.411    -4.733    -2.198
    139    H    -12.403    -4.781    -2.077
    140    O    -10.813    -6.018    -1.783
    141    C    -10.730    -5.974    -0.346
    142    H    -11.441    -6.582    0.009
    143    N    -9.390    -6.461    0.062
    144    C    -7.710    -7.305    1.209
    145    N    -7.197    -6.973    -0.043
    146    C    -8.230    -6.484    -0.663
    147    H    -7.957    -6.211    -1.585
    148    N    -7.919    -8.062    3.415
    149    C    -9.206    -7.720    3.369
    150    H    -9.842    -7.838    4.132
    151    N    -9.857    -7.180    2.341
    152    C    -9.040    -6.997    1.285
    153    C    -7.131    -7.870    2.347
    154    N    -5.849    -8.220    2.413
    155    H    -5.495    -8.624    3.268
    156    H    -5.259    -8.074    1.606
    157    C    -11.063    -4.528    0.054
    158    H    -10.384    -4.244    0.731
    159    O    -12.390    -4.437    0.578
    160    H    -12.702    -5.225    1.029
    161    C    -10.882    -3.698    -1.208
    162    H    -9.912    -3.538    -1.392
    163    O    -11.421    -2.350    -1.155
    164    P    -10.629    -0.963    -0.802
    165    O    -11.493    0.218    -0.927
    166    O    -9.355    -0.928    -1.518
    167    O    -10.279    -1.057    0.751
    168    C    -11.290    -0.989    1.754
    169    H    -12.066    -1.554    1.473
    170    H    -11.465    -0.030    1.975
    171    C    -10.839    -1.602    3.075
    172    H    -11.617    -1.783    3.676
    173    O    -10.199    -2.835    2.761
    174    C    -9.416    -3.248    3.899
    175    H    -9.910    -3.984    4.362
    176    N    -8.099    -3.738    3.422
    177    C    -7.118    -4.329    4.189
    178    N    -5.986    -5.479    7.265
    179    H    -5.201    -5.917    7.726
    180    H    -6.782    -5.255    7.845
    181    N    -7.193    -4.586    5.517
    182    C    -6.084    -5.166    5.982
    183    N    -4.995    -5.466    5.205
    184    H    -4.191    -5.912    5.668
    185    C    -4.891    -5.217    3.848
    186    O    -3.873    -5.537    3.242
    187    C    -6.067    -4.598    3.339
    188    N    -6.369    -4.184    2.044
    189    C    -7.566    -3.693    2.164
    190    H    -7.874    -3.364    1.271
    191    C    -9.394    -2.009    4.811
    192    H    -8.457    -1.871    5.131
    193    O    -10.283    -2.181    5.920
    194    H    -10.373    -3.085    6.231
    195    C    -9.767    -0.876    3.869
    196    H    -9.002    -0.660    3.262
    197    O    -9.948    0.470    4.387
    198    P    -8.939    1.751    4.485
    199    O    -9.644    2.945    4.960
    200    O    -8.145    1.881    3.269
    201    O    -7.899    1.342    5.615
    202    C    -8.358    1.185    6.954
    203    H    -9.152    0.577    6.957
    204    H    -8.457    2.088    7.372
    205    C    -7.331    0.473    7.825
    206    H    -7.663    0.318    8.755
    207    O    -7.044    -0.770    7.228
    208    C    -5.720    -1.191    7.619
    209    H    -5.813    -2.017    8.175
    210    N    -4.934    -1.444    6.385
    211    C    -5.318    -0.900    5.189
    212    H    -6.115    -0.334    4.977
    213    C    -3.788    -2.215    6.485
    214    O    -3.419    -2.715    7.541
    215    N    -3.071    -2.387    5.319
    216    H    -2.213    -2.955    5.376
    217    C    -3.388    -1.873    4.079
    218    O    -2.668    -2.092    3.111
    219    C    -4.596    -1.085    4.060
    220    H    -4.752    -0.751    3.131
    221    C    -5.204    -0.055    8.500
    222    H    -4.224    0.069    8.344
    223    O    -5.489    -0.299    9.883
    224    H    -5.438    -1.219    10.151
    225    C    -5.954    1.124    7.899
    226    H    -5.632    1.311    6.971
    227    O    -5.799    2.429    8.490
    228    P    -4.776    3.632    8.076
    229    O    -5.029    4.807    8.924
    230    O    -4.701    3.817    6.626
    231    O    -3.379    2.991    8.492
    232    C    -3.259    2.587    9.852
    233    H    -4.048    2.023    10.095
    234    H    -3.066    3.391    10.415
    235    C    -2.066    1.673    10.096
    236    H    -1.988    1.352    11.040
    237    O    -2.149    0.560    9.239
    238    C    -0.822    0.026    9.026
    239    H    -0.765    -0.836    9.530
    240    N    -0.652    -0.158    7.566
    241    C    -1.465    0.493    6.678
    242    H    -2.230    1.114    6.851
    243    C    0.366    -0.988    7.134
    244    O    1.103    -1.586    7.910
    245    N    0.507    -1.112    5.769
    246    H    1.260    -1.726    5.428
    247    C    -0.264    -0.492    4.808
    248    O    -0.039    -0.674    3.616
    249    C    -1.306    0.353    5.343
    250    H    -1.817    0.759    4.585
    251    C    0.140    1.037    9.658
    252    H    0.914    1.195    9.045
    253    O    0.553    0.643    10.969
    254    H    0.683    -0.301    11.086
    255    C    -0.748    2.274    9.664
    256    H    -0.839    2.622    8.731
    257    O    -0.310    3.307    10.552
    258    P    0.584    4.542    10.025
    259    O    0.734    5.463    11.173
    260    O    0.087    5.029    8.723
    261    O    1.948    3.754    9.743
    262    C    2.492    2.990    10.820
    263    H    1.797    2.352    11.150
    264    H    2.909    3.612    11.482
    265    C    3.636    2.101    10.363
    266    H    4.025    1.524    11.081
    267    O    3.178    1.262    9.283
    268    C    4.293    0.782    8.510
    269    H    4.485    -0.163    8.773
    270    N    3.929    0.905    7.081
    271    C    2.927    1.741    6.680
    272    H    2.330    2.339    7.215
    273    C    2.609    1.855    5.379
    274    H    1.927    2.394    4.886
    275    C    4.649    0.151    6.165
    276    O    5.552    -0.592    6.546
    277    N    4.334    0.261    4.848
    278    C    3.353    1.078    4.442
    279    N    3.075    1.167    3.146
    280    H    3.612    0.614    2.493
    281    H    2.340    1.776    2.817
    282    C    5.434    1.679    9.003
    283    H    5.932    2.003    8.199
    284    O    6.276    1.005    9.944
    285    H    6.366    0.060    9.803
    286    C    4.746    2.860    9.668
    287    H    4.346    3.464    8.979
    288    O    5.601    3.538    10.594
    289    P    6.173    4.992    10.212
    290    O    6.915    5.526    11.373
    291    O    5.090    5.785    9.587
    292    O    7.216    4.587    9.060
    293    C    8.321    3.736    9.379
    294    H    7.978    2.912    9.829
    295    H    9.019    4.273    9.853
    296    C    9.006    3.234    8.120
    297    H    9.778    2.619    8.282
    298    O    8.021    2.550    7.345
    299    C    8.371    2.633    5.951
    300    H    8.577    1.711    5.624
    301    N    7.210    3.220    5.234
    302    C    6.246    3.903    5.920
    303    H    6.168    4.097    6.898
    304    C    5.192    4.441    5.282
    305    H    4.398    4.964    5.591
    306    C    7.132    3.063    3.853
    307    O    8.011    2.454    3.251
    308    N    6.064    3.606    3.199
    309    C    5.117    4.275    3.867
    310    N    4.084    4.788    3.206
    311    H    4.034    4.662    2.205
    312    H    3.360    5.296    3.694
    313    C    9.661    3.460    5.957
    314    H    9.682    4.036    5.140
    315    O    10.813    2.617    6.053
    316    H    10.737    1.774    5.600
    317    C    9.457    4.341    7.179
    318    H    8.699    4.979    7.040
    319    O    10.572    5.165    7.579
    320    P    10.614    6.778    7.415
    321    O    11.704    7.385    8.198
    322    O    9.255    7.312    7.578
    323    O    11.011    6.956    5.882
    324    C    12.317    6.606    5.440
    325    H    12.468    5.632    5.609
    326    H    12.975    7.255    5.822
    327    C    12.436    6.766    3.941
    328    H    13.371    6.566    3.647
    329    O    11.541    5.793    3.358
    330    C    11.157    6.276    2.059
    331    H    11.467    5.611    1.379
    332    N    9.671    6.389    2.025
    333    C    8.964    6.514    3.188
    334    H    9.285    6.514    4.135
    335    C    7.628    6.666    3.179
    336    H    6.946    6.772    3.902
    337    C    9.020    6.412    0.792
    338    O    9.663    6.307    -0.251
    339    N    7.664    6.567    0.772
    340    C    6.971    6.691    1.913
    341    N    5.650    6.843    1.863
    342    H    5.195    6.862    0.962
    343    H    5.109    6.938    2.711
    344    C    11.961    7.578    1.889
    345    H    11.426    8.221    1.342
    346    O    13.190    7.268    1.224
    347    H    13.134    6.558    0.580
    348    C    12.034    8.087    3.321
    349    H    11.129    8.344    3.661
    350    O    12.533    9.387    3.749
    351    P    11.932    10.868    4.101
    352    O    12.916    11.822    4.617
    353    O    10.681    10.806    4.827
    354    O    11.537    11.426    2.681
    355    C    12.583    11.575    1.729
    356    H    13.121    10.733    1.702
    357    H    13.065    12.433    1.906
    358    C    12.033    11.726    0.318
    359    H    12.758    11.763    -0.369
    360    O    11.169    10.618    0.026
    361    C    10.233    11.039    -0.983
    362    H    10.469    10.552    -1.824
    363    N    8.876    10.684    -0.507
    364    C    8.641    10.487    0.822
    365    H    9.264    10.550    1.602
    366    C    7.419    10.153    1.265
    367    H    7.047    9.968    2.175
    368    C    7.858    10.547    -1.444
    369    O    8.083    10.737    -2.638
    370    N    6.614    10.209    -1.003
    371    C    6.378    10.013    0.300
    372    N    5.159    9.675    0.702
    373    H    4.429    9.572    0.012
    374    H    4.962    9.523    1.681
    375    C    10.477    12.537    -1.189
    376    H    9.594    12.999    -1.265
    377    O    11.286    12.788    -2.341
    378    H    11.159    12.173    -3.067
    379    C    11.137    12.940    0.127
    380    H    10.458    12.962    0.861
    381    O    11.786    14.223    0.149
    382    P    11.107    15.629    0.589
    383    O    12.076    16.721    0.394
    384    O    10.414    15.521    1.879
    385    O    9.972    15.769    -0.521
    386    C    10.377    15.714    -1.886
    387    H    10.950    14.906    -2.023
    388    H    10.750    16.603    -2.151
    389    C    9.191    15.505    -2.808
    390    H    9.539    15.395    -3.739
    391    O    8.465    14.353    -2.451
    392    C    7.161    14.504    -3.033
    393    H    7.153    13.938    -3.858
    394    N    6.179    14.051    -2.025
    395    C    6.511    13.994    -0.699
    396    H    7.375    14.217    -0.247
    397    C    4.921    13.696    -2.471
    398    O    4.602    13.739    -3.655
    399    N    4.030    13.289    -1.500
    400    H    3.084    13.024    -1.811
    401    C    4.280    13.201    -0.148
    402    O    3.406    12.815    0.624
    403    C    5.619    13.591    0.232
    404    H    5.715    13.502    1.223
    405    C    6.999    15.972    -3.434
    406    H    6.178    16.322    -2.983
    407    O    6.976    16.135    -4.858
    408    H    6.579    15.408    -5.343
    409    C    8.219    16.667    -2.849
    410    H    8.023    16.961    -1.913
    411    O    8.691    17.617    -3.818
    412    P    8.189    19.149    -3.769
    413    O    8.615    19.842    -5.012
    414    O    8.641    19.651    -2.449
    415    O    6.573    19.069    -3.789
    416    C    5.826    18.783    -4.981
    417    H    6.177    17.942    -5.391
    418    H    5.794    19.604    -5.550
    419    C    4.370    18.480    -4.642
    420    H    3.860    18.381    -5.496
    421    O    4.259    17.281    -3.897
    422    C    3.105    17.376    -3.040
    423    H    2.449    16.692    -3.360
    424    N    3.559    17.162    -1.653
    425    C    2.791    16.704    -0.606
    426    N    -0.227    15.504    0.620
    427    H    -0.688    15.180    1.458
    428    H    -0.781    15.510    -0.225
    429    N    1.496    16.323    -0.675
    430    C    1.026    15.922    0.509
    431    N    1.773    15.901    1.659
    432    H    1.310    15.573    2.519
    433    C    3.097    16.285    1.754
    434    O    3.672    16.228    2.834
    435    C    3.609    16.712    0.501
    436    N    4.880    17.169    0.164
    437    C    4.782    17.415    -1.104
    438    H    5.661    17.755    -1.438
    439    C    2.519    18.764    -3.255
    440    H    2.283    19.143    -2.360
    441    O    1.427    18.742    -4.183
    442    H    0.888    17.948    -4.155
    443    C    3.674    19.561    -3.841
    444    H    4.280    19.862    -3.105
    445    O    3.146    20.478    -4.801
    446    P    3.162    22.032    -4.410
    447    O    2.607    22.809    -5.545
    448    O    4.518    22.325    -3.871
    449    O    2.079    22.013    -3.213
    450    C    2.087    23.029    -2.209
    451    H    1.829    23.901    -2.626
    452    H    2.952    22.986    -1.709
    453    C    1.016    22.772    -1.154
    454    H    1.126    23.385    -0.371
    455    O    -0.249    23.014    -1.758
    456    C    -1.053    21.823    -1.727
    457    H    -1.899    22.073    -1.257
    458    N    -1.296    21.417    -3.131
    459    C    -0.261    21.091    -3.961
    460    H    0.723    21.062    -3.785
    461    C    -0.488    20.737    -5.239
    462    H    0.112    20.468    -5.993
    463    C    -2.611    21.393    -3.577
    464    O    -3.527    21.685    -2.813
    465    N    -2.848    21.036    -4.871
    466    C    -1.839    20.716    -5.691
    467    N    -2.105    20.377    -6.950
    468    H    -3.066    20.369    -7.261
    469    H    -1.360    20.132    -7.586
    470    C    -0.317    20.764    -0.900
    471    H    -0.189    19.965    -1.488
    472    O    -1.009    20.444    0.311
    473    H    -1.965    20.516    0.262
    474    C    1.044    21.365    -0.576
    475    H    1.731    20.826    -1.064
    476    O    1.225    21.471    0.843
    477    P    1.507    20.154    1.735
    478    O    2.230    20.568    2.960
    479    O    2.084    19.110    0.859
    480    O    0.016    19.694    2.157
    481    C    -0.813    20.540    2.976
    482    H    -0.983    21.397    2.490
    483    H    -0.419    20.591    3.894
    484    C    -2.209    19.945    3.195
    485    H    -2.692    20.471    3.895
    486    O    -2.946    20.009    1.975
    487    C    -3.504    18.732    1.658
    488    H    -4.475    18.792    1.889
    489    N    -3.303    18.483    0.218
    490    C    -3.676    18.191    -1.923
    491    N    -2.292    18.267    -1.776
    492    C    -2.144    18.434    -0.498
    493    H    -1.168    18.496    -0.289
    494    N    -5.824    17.980    -2.829
    495    C    -6.313    18.112    -1.597
    496    H    -7.289    18.090    -1.381
    497    N    -5.624    18.290    -0.473
    498    C    -4.296    18.318    -0.715
    499    C    -4.499    18.016    -3.037
    500    N    -4.030    17.927    -4.278
    501    H    -4.683    17.834    -5.043
    502    H    -3.031    17.955    -4.427
    503    C    -2.852    17.687    2.537
    504    H    -2.130    17.246    2.004
    505    O    -3.815    16.758    3.042
    506    H    -4.551    16.577    2.453
    507    C    -2.216    18.486    3.669
    508    H    -1.272    18.169    3.762
    509    O    -3.061    18.423    4.823
    510    P    -3.186    17.041    5.647
    511    O    -3.469    17.386    7.061
    512    O    -1.999    16.219    5.300
    513    O    -4.504    16.345    5.018
    514    C    -5.537    15.783    5.851
    515    H    -5.918    16.505    6.429
    516    H    -5.183    14.962    6.299
    517    C    -6.737    15.280    5.043
    518    H    -7.362    14.739    5.606
    519    O    -7.433    16.438    4.552
    520    C    -7.590    16.328    3.133
    521    H    -8.490    15.926    2.965
    522    N    -7.529    17.694    2.522
    523    C    -6.853    18.712    3.152
    524    H    -6.366    18.704    4.026
    525    C    -8.159    17.913    1.296
    526    O    -8.769    17.039    0.692
    527    N    -8.051    19.186    0.776
    528    H    -8.512    19.361    -0.128
    529    C    -7.387    20.251    1.344
    530    O    -7.352    21.339    0.776
    531    C    -6.764    19.950    2.609
    532    H    -6.306    20.771    2.950
    533    C    -6.507    15.341    2.669
    534    H    -5.652    15.846    2.551
    535    O    -6.882    14.671    1.460
    536    H    -7.419    15.191    0.858
    537    C    -6.362    14.386    3.862
    538    H    -5.401    14.121    3.946
    539    O    -7.216    13.231    3.739
    540    P    -6.762    11.799    3.122
    541    O    -7.874    10.840    3.290
    542    O    -5.426    11.416    3.613
    543    O    -6.630    12.110    1.548
    544    C    -7.780    12.497    0.785
    545    H    -8.134    13.360    1.145
    546    H    -8.408    11.721    0.727
    547    C    -7.408    12.804    -0.663
    548    H    -8.242    12.985    -1.184
    549    O    -6.551    13.972    -0.723
    550    C    -5.951    13.956    -2.016
    551    H    -6.491    14.574    -2.587
    552    N    -4.567    14.448    -1.891
    553    C    -2.598    15.302    -2.352
    554    N    -2.593    15.033    -0.984
    555    C    -3.777    14.536    -0.780
    556    H    -3.873    14.310    0.189
    557    N    -1.976    15.968    -4.509
    558    C    -3.178    15.584    -4.933
    559    H    -3.484    15.653    -5.882
    560    N    -4.153    15.059    -4.202
    561    C    -3.792    14.947    -2.908
    562    C    -1.644    15.843    -3.216
    563    N    -0.441    16.232    -2.816
    564    H    0.201    16.615    -3.495
    565    H    -0.194    16.136    -1.841
    566    C    -6.081    12.526    -2.565
    567    H    -5.161    12.199    -2.780
    568    O    -6.944    12.493    -3.709
    569    H    -6.930    13.286    -4.250
    570    C    -6.643    11.705    -1.394
    571    H    -5.895    11.386    -0.811
    572    O    -7.477    10.623    -1.853
    573    P    -6.935    9.116    -2.112
    574    O    -8.014    8.294    -2.698
    575    O    -6.258    8.605    -0.905
    576    O    -5.827    9.304    -3.264
    577    C    -6.211    9.791    -4.552
    578    H    -6.789    10.599    -4.436
    579    H    -6.571    9.031    -5.093
    580    C    -5.017    10.294    -5.356
    581    H    -5.381    10.543    -6.253
    582    O    -4.428    11.469    -4.743
    583    C    -3.038    11.491    -5.119
    584    H    -2.921    12.293    -5.705
    585    N    -2.246    11.586    -3.878
    586    C    -0.634    11.967    -2.440
    587    N    -1.680    11.405    -1.712
    588    C    -2.589    11.203    -2.613
    589    H    -3.390    10.790    -2.180
    590    N    1.424    12.913    -3.042
    591    C    0.983    12.972    -4.300
    592    H    1.519    13.332    -5.063
    593    N    -0.204    12.578    -4.753
    594    C    -0.968    12.081    -3.758
    595    C    0.637    12.415    -2.074
    596    N    1.081    12.383    -0.820
    597    H    2.006    12.736    -0.619
    598    H    0.483    12.007    -0.098
    599    C    -2.741    10.223    -5.940
    600    H    -1.895    9.819    -5.592
    601    O    -2.719    10.501    -7.343
    602    H    -2.380    11.368    -7.579
    603    C    -3.907    9.295    -5.611
    604    H    -3.708    8.806    -4.762
    605    O    -4.295    8.593    -6.813
    606    P    -3.418    7.351    -7.373
    607    O    -3.981    6.863    -8.660
    608    O    -3.394    6.455    -6.193
    609    O    -1.913    7.888    -7.673
    610    C    -1.553    8.715    -8.793
    611    H    -2.097    9.554    -8.767
    612    H    -1.581    8.164    -9.627
    613    C    -0.105    9.185    -8.684
    614    H    0.095    9.771    -9.470
    615    O    0.082    9.944    -7.474
    616    C    1.487    9.897    -7.167
    617    H    1.865    10.787    -7.422
    618    N    1.605    9.622    -5.718
    619    C    2.700    9.873    -4.921