!*** FMO 5.2 (Gamess) INPUT generated by Facio 21.1.1.32 ***
 $CONTRL RUNTYP=OPTFMO NPRINT=-5 ISPHER=-1 MAXIT=50 $END
 $SYSTEM MWORDS=29 $END
 $GDDI NGROUP=1 $END
 $INTGRL NINTIC=-9000000 $END
 $SCF DIRSCF=.FALSE. NPUNCH=0 $END
!*** NumCPU : 2  MemPerNode : 512MB
 $FMOPRP
    NAODIR=210
    NGRFMO(1)=1, 1, 0, 0, 0,   0, 0, 0, 0, 0
    NPRINT=9
 $END
 $FMO
      SCFTYP(1)=RHF
      MODGRD=10
      MODMUL=0
      MAXCAO=5
      MAXBND=34
      NLAYER=1
      NFRAG=32
      ICHARG(1)=-1, -1, -1, -1, -1, -1, -1, -1, -1, -1, 
-1, -1, -1, -1, -1, -1, -1, -1, -1, -1, 
-1, -1, -1, -1, -1, -1, -1, -1, -1, -1, 
-1, 0
      FRGNAM(1)=Frag1, Frag2, Frag3, Frag4, Frag5, Frag6, Frag7, Frag8, Frag9, Frag10, Frag11, Frag12, Frag13, Frag14, Frag15, Frag16, Frag17, Frag18, Frag19, Frag20, Frag21, Frag22, Frag23, Frag24, Frag25, Frag26, Frag27, Frag28, Frag29, Frag30, Frag31, Frag32
      indat(1)=0
               1   -36   0
               37   -69   0
               70   -103   0
               104   -134   0
               135   -167   0
               168   -201   0
               202   -231   0
               232   -261   0
               262   -292   0
               293   -323   0
               324   -354   0
               355   -385   0
               386   -415   0
               416   -449   0
               450   -480   0
               481   -513   0
               514   -543   0
               544   -576   0
               577   -609   0
               610   -643   0
               644   -677   0
               678   -710   0
               711   -740   0
               741   -774   0
               775   -807   0
               808   -840   0
               841   -871   0
               872   -902   0
               903   -936   0
               937   -966   0
               967   -996   0
               997   -1024   0
 $END

 $FMOBND
   -37   36       3-21G    MINI
   -70   69       3-21G    MINI
   -104   103       3-21G    MINI
   -135   134       3-21G    MINI
   -168   167       3-21G    MINI
   -202   201       3-21G    MINI
   -232   231       3-21G    MINI
   -262   261       3-21G    MINI
   -293   292       3-21G    MINI
   -324   323       3-21G    MINI
   -355   354       3-21G    MINI
   -386   385       3-21G    MINI
   -416   415       3-21G    MINI
   -450   449       3-21G    MINI
   -481   480       3-21G    MINI
   -514   513       3-21G    MINI
   -544   543       3-21G    MINI
   -577   576       3-21G    MINI
   -610   609       3-21G    MINI
   -644   643       3-21G    MINI
   -678   677       3-21G    MINI
   -711   710       3-21G    MINI
   -741   740       3-21G    MINI
   -775   774       3-21G    MINI
   -808   807       3-21G    MINI
   -841   840       3-21G    MINI
   -872   871       3-21G    MINI
   -903   902       3-21G    MINI
   -937   936       3-21G    MINI
   -967   966       3-21G    MINI
   -997   996       3-21G    MINI
 $END
 $FMOHYB
 3-21G        9   5
   1 0  -0.070459   0.164841   0.000000   0.000000   0.502116
         0.466939   0.000000   0.000000   0.418036
   0 1  -0.070465   0.164857   0.473392   0.000000  -0.167359
         0.466967   0.394111   0.000000  -0.139327
   0 1  -0.070465   0.164857  -0.236695  -0.409969  -0.167359
         0.466967  -0.197055  -0.341311  -0.139327
   0 1  -0.070465   0.164857  -0.236695   0.409969  -0.167359
         0.466967  -0.197055   0.341311  -0.139327
   0 1   1.006716   0.074826   0.000000   0.000000   0.000000
        -0.143830   0.000000   0.000000  -0.000003
 MINI         5   5
   1 0  -0.104883   0.308874   0.000000   0.000000   0.521806
   0 1  -0.104883   0.308874   0.491961   0.000000  -0.173934
   0 1  -0.104883   0.308876  -0.245980  -0.426050  -0.173933
   0 1  -0.104883   0.308876  -0.245980   0.426050  -0.173933
   0 1   0.988209   0.063992   0.000000   0.000000   0.000000
 $END

 $DATA
 FMO calculation : XXNAMEXX
 C1 
 C.1-1    6
      N21 3
   
 O.1-1    8
      N21 3
   
 N.1-1    7
      N21 3
   
 H.1-1    1
      N21 3
   
 P.1-1   15
      N21 3
   
 $END
 $FMOXYZ
    1    H    7.911    -20.605    3.693
    2    O    7.352    -20.691    2.869
    3    C    8.042    -21.515    1.921
    4    H    8.123    -22.440    2.292
    5    H    8.879    -21.050    1.634
    6    C    7.236    -21.685    0.636
    7    H    7.802    -22.175    -0.027
    8    O    6.046    -22.412    0.851
    9    C    5.187    -22.143    -0.275
    10    H    5.345    -22.878    -0.935
    11    N    3.796    -22.118    0.229
    12    C    2.658    -22.315    -0.518
    13    N    1.132    -23.010    -3.557
    14    H    0.233    -23.137    -4.000
    15    H    1.944    -23.110    -4.149
    16    N    2.613    -22.589    -1.843
    17    C    1.360    -22.727    -2.283
    18    N    0.252    -22.603    -1.486
    19    H    -0.668    -22.729    -1.931
    20    C    0.269    -22.323    -0.133
    21    O    -0.786    -22.231    0.488
    22    C    1.599    -22.174    0.352
    23    N    2.056    -21.893    1.637
    24    C    3.345    -21.875    1.496
    25    H    3.767    -21.678    2.381
    26    C    5.641    -20.815    -0.889
    27    H    4.895    -20.157    -0.786
    28    O    6.064    -20.970    -2.251
    29    H    5.594    -21.644    -2.747
    30    C    6.809    -20.381    -0.013
    31    H    6.466    -19.763    0.694
    32    O    7.902    -19.965    -0.854
    33    P    8.051    -18.399    -1.256
    34    O    9.297    -18.219    -2.055
    35    O    7.866    -17.679    0.031
    36    O    6.783    -18.128    -2.226
    37    C    6.735    -18.699    -3.541
    38    H    6.843    -19.691    -3.470
    39    H    7.366    -18.200    -4.136
    40    C    5.366    -18.505    -4.181
    41    H    5.388    -18.849    -5.120
    42    O    4.344    -19.212    -3.445
    43    C    3.094    -18.642    -3.884
    44    H    2.815    -19.152    -4.697
    45    N    2.125    -18.777    -2.778
    46    C    0.275    -19.086    -1.635
    47    N    1.263    -18.786    -0.701
    48    C    2.320    -18.615    -1.435
    49    H    3.094    -18.390    -0.843
    50    N    -1.775    -19.622    -2.637
    51    C    -1.160    -19.589    -3.820
    52    H    -1.618    -19.764    -4.692
    53    N    0.125    -19.327    -4.050
    54    C    0.788    -19.083    -2.901
    55    C    -1.086    -19.374    -1.511
    56    N    -1.712    -19.414    -0.338
    57    H    -2.698    -19.631    -0.316
    58    H    -1.187    -19.226    0.504
    59    C    3.381    -17.192    -4.280
    60    H    2.985    -16.602    -3.576
    61    O    2.903    -16.896    -5.596
    62    H    2.110    -17.371    -5.855
    63    C    4.896    -17.066    -4.236
    64    H    5.148    -16.608    -3.383
    65    O    5.387    -16.504    -5.465
    66    P    5.146    -14.930    -5.759
    67    O    6.017    -14.537    -6.897
    68    O    5.244    -14.232    -4.451
    69    O    3.609    -14.909    -6.255
    70    C    3.246    -15.487    -7.515
    71    H    3.545    -16.441    -7.534
    72    H    3.555    -14.884    -8.251
    73    C    1.734    -15.554    -7.681
    74    H    1.464    -15.962    -8.553
    75    O    1.173    -16.321    -6.615
    76    C    -0.255    -16.111    -6.608
    77    H    -0.692    -16.843    -7.130
    78    N    -0.693    -16.073    -5.197
    79    C    -1.993    -16.043    -4.751
    80    N    -5.401    -16.018    -5.409
    81    H    -6.308    -15.989    -4.966
    82    H    -5.393    -16.058    -6.418
    83    N    -3.101    -16.053    -5.530
    84    C    -4.220    -16.010    -4.808
    85    N    -4.246    -15.964    -3.438
    86    H    -5.169    -15.938    -2.982
    87    C    -3.133    -15.950    -2.620
    88    O    -3.270    -15.904    -1.402
    89    C    -1.928    -15.993    -3.376
    90    N    -0.601    -15.996    -2.950
    91    C    0.066    -16.044    -4.062
    92    H    1.044    -16.050    -3.855
    93    C    -0.387    -14.795    -7.386
    94    H    -0.937    -14.177    -6.824
    95    O    -0.924    -15.002    -8.697
    96    H    -1.539    -15.736    -8.772
    97    C    1.017    -14.232    -7.510
    98    H    1.310    -13.812    -6.651
    99    O    1.133    -13.416    -8.686
    100    P    1.082    -11.803    -8.565
    101    O    1.273    -11.202    -9.907
    102    O    1.986    -11.430    -7.450
    103    O    -0.441    -11.530    -8.113
    104    C    -1.511    -11.722    -9.043
    105    H    -1.481    -12.662    -9.384
    106    H    -1.497    -10.980    -9.713
    107    C    -2.873    -11.603    -8.370
    108    H    -3.592    -11.663    -9.062
    109    O    -3.063    -12.645    -7.411
    110    C    -4.065    -12.186    -6.488
    111    H    -4.901    -12.690    -6.704
    112    N    -3.564    -12.453    -5.125
    113    C    -2.226    -12.540    -4.870
    114    H    -1.443    -12.482    -5.490
    115    C    -1.779    -12.734    -3.618
    116    H    -0.865    -12.827    -3.222
    117    C    -4.502    -12.565    -4.112
    118    O    -5.701    -12.499    -4.368
    119    N    -4.058    -12.759    -2.842
    120    C    -2.748    -12.841    -2.578
    121    N    -2.344    -12.997    -1.323
    122    H    -3.037    -13.051    -0.590
    123    H    -1.361    -13.061    -1.102
    124    C    -4.295    -10.695    -6.764
    125    H    -4.255    -10.202    -5.895
    126    O    -5.510    -10.469    -7.493
    127    H    -6.228    -11.070    -7.280
    128    C    -3.085    -10.315    -7.605
    129    H    -2.298    -10.157    -7.008
    130    O    -3.496    -9.352    -8.601
    131    P    -3.493    -7.772    -8.225
    132    O    -3.844    -6.980    -9.446
    133    O    -2.160    -7.647    -7.574
    134    O    -4.673    -7.580    -7.123
    135    C    -6.059    -7.558    -7.503
    136    H    -6.305    -8.447    -7.890
    137    H    -6.232    -6.743    -8.055
    138    C    -6.947    -7.401    -6.276
    139    H    -7.900    -7.329    -6.569
    140    O    -6.812    -8.544    -5.369
    141    C    -7.278    -8.076    -4.089
    142    H    -8.188    -8.469    -3.958
    143    N    -6.309    -8.547    -3.079
    144    C    -5.399    -9.221    -1.198
    145    N    -4.401    -9.314    -2.167
    146    C    -4.999    -8.902    -3.244
    147    H    -4.352    -8.930    -4.006
    148    N    -6.566    -9.302    0.830
    149    C    -7.638    -8.841    0.187
    150    H    -8.520    -8.668    0.626
    151    N    -7.730    -8.538    -1.106
    152    C    -6.562    -8.754    -1.742
    153    C    -5.418    -9.508    0.169
    154    N    -4.361    -9.971    0.828
    155    H    -4.444    -10.159    1.817
    156    H    -3.499    -10.124    0.325
    157    C    -7.401    -6.548    -4.173
    158    H    -6.928    -6.159    -3.382
    159    O    -8.767    -6.128    -4.296
    160    H    -9.404    -6.680    -3.836
    161    C    -6.640    -6.174    -5.440
    162    H    -5.658    -6.144    -5.254
    163    O    -7.362    -5.101    -6.089
    164    P    -7.200    -3.573    -5.536
    165    O    -8.086    -2.616    -6.277
    166    O    -5.733    -3.580    -5.725
    167    O    -7.550    -3.515    -3.943
    168    C    -8.894    -3.364    -3.454
    169    H    -9.483    -4.031    -3.910
    170    H    -9.152    -2.399    -3.503
    171    C    -8.975    -3.717    -1.973
    172    H    -9.920    -3.848    -1.674
    173    O    -8.252    -4.922    -1.762
    174    C    -7.957    -5.017    -0.357
    175    H    -8.614    -5.652    0.049
    176    N    -6.562    -5.491    -0.226
    177    C    -5.931    -5.842    0.946
    178    N    -5.976    -6.230    4.396
    179    H    -5.413    -6.514    5.185
    180    H    -6.918    -5.929    4.600
    181    N    -6.473    -5.807    2.185
    182    C    -5.612    -6.210    3.122
    183    N    -4.328    -6.611    2.858
    184    H    -3.747    -6.899    3.658
    185    C    -3.750    -6.659    1.602
    186    O    -2.593    -7.047    1.473
    187    C    -4.657    -6.231    0.593
    188    N    -4.477    -6.126    -0.784
    189    C    -5.626    -5.688    -1.200
    190    H    -5.592    -5.578    -2.193
    191    C    -8.219    -3.609    0.192
    192    H    -7.415    -3.341    0.723
    193    O    -9.438    -3.549    0.941
    194    H    -9.666    -4.355    1.409
    195    C    -8.325    -2.713    -1.032
    196    H    -7.415    -2.484    -1.378
    197    O    -9.217    -1.624    -0.721
    198    P    -8.671    -0.226    -0.114
    199    O    -9.770    0.761    -0.000
    200    O    -7.508    0.055    -0.981
    201    O    -8.125    -0.494    1.384
    202    C    -8.981    -0.611    2.534
    203    H    -9.643    -1.343    2.374
    204    H    -9.332    0.295    2.772
    205    C    -8.224    -1.059    3.783
    206    H    -8.833    -1.175    4.568
    207    O    -7.604    -2.292    3.497
    208    C    -6.427    -2.432    4.315
    209    H    -6.585    -3.187    4.952
    210    N    -5.277    -2.676    3.413
    211    C    -5.349    -2.347    2.086
    212    H    -6.107    -1.948    1.570
    213    C    -4.131    -3.228    3.956
    214    O    -4.040    -3.529    5.140
    215    N    -3.081    -3.417    3.082
    216    H    -2.217    -3.824    3.468
    217    C    -3.071    -3.114    1.737
    218    O    -2.072    -3.325    1.059
    219    C    -4.305    -2.544    1.252
    220    H    -4.214    -2.354    0.274
    221    C    -6.354    -1.127    5.100
    222    H    -5.393    -0.858    5.168
    223    O    -6.994    -1.230    6.375
    224    H    -6.931    -2.093    6.792
    225    C    -7.083    -0.134    4.216
    226    H    -6.532    0.100    3.415
    227    O    -7.460    1.015    4.990
    228    P    -6.520    2.313    5.146
    229    O    -7.184    3.344    5.962
    230    O    -6.084    2.653    3.782
    231    O    -5.214    1.863    5.968
    232    C    -5.242    1.577    7.373
    233    H    -5.929    0.872    7.548
    234    H    -5.313    2.437    7.879
    235    C    -3.950    0.956    7.903
    236    H    -4.033    0.709    8.868
    237    O    -3.666    -0.204    7.155
    238    C    -2.249    -0.469    7.210
    239    H    -2.117    -1.277    7.785
    240    N    -1.784    -0.677    5.819
    241    C    -2.533    -0.241    4.760
    242    H    -3.421    0.218    4.753
    243    C    -0.565    -1.301    5.630
    244    O    0.121    -1.705    6.564
    245    N    -0.158    -1.449    4.323
    246    H    0.749    -1.911    4.163
    247    C    -0.847    -1.038    3.200
    248    O    -0.379    -1.220    2.082
    249    C    -2.110    -0.400    3.486
    250    H    -2.544    -0.136    2.625
    251    C    -1.639    0.749    7.913
    252    H    -0.821    1.026    7.408
    253    O    -1.391    0.493    9.297
    254    H    -1.131    -0.408    9.502
    255    C    -2.709    1.819    7.749
    256    H    -2.682    2.188    6.820
    257    O    -2.601    2.751    8.840
    258    P    -1.578    4.003    8.792
    259    O    -1.645    4.754    10.069
    260    O    -1.916    4.663    7.514
    261    O    -0.083    3.407    8.665
    262    C    0.596    2.764    9.755
    263    H    0.047    1.989    10.069
    264    H    0.859    3.455    10.428
    265    C    1.918    2.138    9.324
    266    H    2.348    1.607    10.054
    267    O    1.685    1.276    8.191
    268    C    2.909    1.052    7.471
    269    H    3.261    0.146    7.705
    270    N    2.608    1.191    6.029
    271    C    1.492    1.853    5.606
    272    H    0.767    2.301    6.129
    273    C    1.229    1.982    4.294
    274    H    0.486    2.415    3.784
    275    C    3.504    0.636    5.128
    276    O    4.508    0.050    5.530
    277    N    3.246    0.763    3.800
    278    C    2.154    1.409    3.371
    279    N    1.935    1.522    2.066
    280    H    2.600    1.117    1.423
    281    H    1.118    2.005    1.720
    282    C    3.831    2.117    8.076
    283    H    4.293    2.568    7.312
    284    O    4.734    1.555    9.036
    285    H    4.994    0.647    8.864
    286    C    2.932    3.124    8.775
    287    H    2.481    3.718    8.108
    288    O    3.695    3.688    9.857
    289    P    4.590    5.017    9.613
    290    O    5.376    5.335    10.836
    291    O    3.544    5.938    9.108
    292    O    5.631    4.702    8.408
    293    C    6.837    3.939    8.586
    294    H    6.604    3.048    8.975
    295    H    7.509    4.500    9.069
    296    C    7.484    3.623    7.244
    297    H    8.281    3.023    7.317
    298    O    6.513    3.004    6.405
    299    C    6.822    3.293    5.029
    300    H    7.069    2.434    4.580
    301    N    5.619    3.923    4.437
    302    C    4.647    4.450    5.237
    303    H    4.594    4.508    6.234
    304    C    3.544    5.005    4.707
    305    H    2.733    5.434    5.106
    306    C    5.505    3.948    3.051
    307    O    6.396    3.478    2.349
    308    N    4.388    4.510    2.506
    309    C    3.429    5.027    3.284
    310    N    2.349    5.562    2.726
    311    H    2.272    5.568    1.719
    312    H    1.615    5.957    3.297
    313    C    8.060    4.186    5.110
    314    H    8.003    4.878    4.391
    315    O    9.274    3.429    5.073
    316    H    9.247    2.647    4.517
    317    C    7.890    4.860    6.460
    318    H    7.123    5.501    6.443
    319    O    9.155    5.379    6.899
    320    P    9.526    6.930    6.651
    321    O    10.807    7.254    7.324
    322    O    8.284    7.657    7.006
    323    O    9.763    7.070    5.063
    324    C    10.951    6.575    4.429
    325    H    10.990    5.582    4.541
    326    H    11.734    7.113    4.740
    327    C    10.934    6.779    2.921
    328    H    11.769    6.440    2.488
    329    O    9.801    6.043    2.400
    330    C    9.362    6.704    1.198
    331    H    9.491    6.066    0.439
    332    N    7.931    7.062    1.377
    333    C    7.395    7.158    2.630
    334    H    7.819    7.020    3.525
    335    C    6.102    7.483    2.804
    336    H    5.528    7.603    3.614
    337    C    7.159    7.297    0.244
    338    O    7.659    7.216    -0.876
    339    N    5.847    7.628    0.411
    340    C    5.315    7.723    1.638
    341    N    4.032    8.050    1.770
    342    H    3.484    8.220    0.939
    343    H    3.611    8.127    2.685
    344    C    10.322    7.891    1.023
    345    H    9.806    8.659    0.643
    346    O    11.435    7.541    0.202
    347    H    11.243    6.905    -0.491
    348    C    10.731    8.227    2.453
    349    H    9.969    8.629    2.960
    350    O    11.737    9.229    2.624
    351    P    11.622    10.789    2.845
    352    O    12.904    11.445    3.042
    353    O    10.595    11.136    3.796
    354    O    11.105    11.324    1.449
    355    C    11.884    11.160    0.269
    356    H    12.128    10.195    0.171
    357    H    12.624    11.832    0.272
    358    C    11.121    11.470    -1.013
    359    H    11.688    11.303    -1.820
    360    O    9.955    10.630    -1.078
    361    C    8.964    11.299    -1.875
    362    H    8.878    10.787    -2.729
    363    N    7.704    11.305    -1.096
    364    C    7.732    11.151    0.259
    365    H    8.508    11.037    0.879
    366    C    6.596    11.135    0.973
    367    H    6.402    11.035    1.949
    368    C    6.504    11.454    -1.780
    369    O    6.499    11.602    -3.000
    370    N    5.347    11.439    -1.063
    371    C    5.366    11.286    0.268
    372    N    4.222    11.266    0.942
    373    H    3.355    11.367    0.435
    374    H    4.217    11.152    1.945
    375    C    9.536    12.686    -2.181
    376    H    8.803    13.353    -2.052
    377    O    10.097    12.751    -3.492
    378    H    9.666    12.196    -4.145
    379    C    10.602    12.906    -1.112
    380    H    10.176    13.159    -0.243
    381    O    11.575    13.883    -1.504
    382    P    11.436    15.468    -1.322
    383    O    12.548    16.175    -1.972
    384    O    11.161    15.781    0.085
    385    O    10.131    15.848    -2.160
    386    C    10.076    15.643    -3.573
    387    H    10.346    14.702    -3.776
    388    H    10.573    16.382    -4.029
    389    C    8.661    15.752    -4.120
    390    H    8.674    15.511    -5.090
    391    O    7.795    14.873    -3.441
    392    C    6.464    15.367    -3.654
    393    H    6.061    14.794    -4.367
    394    N    5.744    15.260    -2.367
    395    C    6.430    15.165    -1.187
    396    H    7.416    15.147    -1.021
    397    C    4.363    15.265    -2.401
    398    O    3.728    15.350    -3.448
    399    N    3.729    15.174    -1.180
    400    H    2.699    15.181    -1.184
    401    C    4.339    15.074    0.052
    402    O    3.666    14.989    1.075
    403    C    5.783    15.076    -0.003
    404    H    6.144    15.005    0.927
    405    C    6.580    16.803    -4.175
    406    H    6.049    17.393    -3.567
    407    O    6.177    16.906    -5.548
    408    H    5.478    16.303    -5.812
    409    C    8.059    17.143    -4.029
    410    H    8.231    17.513    -3.116
    411    O    8.476    17.850    -5.219
    412    P    8.358    19.467    -5.342
    413    O    8.541    19.915    -6.757
    414    O    9.333    19.881    -4.305
    415    O    6.851    19.862    -4.885
    416    C    5.725    19.727    -5.767
    417    H    5.703    18.794    -6.127
    418    H    5.733    20.482    -6.423
    419    C    4.429    19.888    -4.977
    420    H    3.657    19.904    -5.612
    421    O    4.258    18.815    -4.071
    422    C    3.505    19.285    -2.936
    423    H    2.628    18.804    -2.948
    424    N    4.305    19.027    -1.723
    425    C    3.819    18.872    -0.445
    426    N    1.146    18.671    1.763
    427    H    0.909    18.543    2.736
    428    H    0.374    18.789    1.123
    429    N    2.517    18.880    -0.079
    430    C    2.362    18.701    1.235
    431    N    3.404    18.530    2.110
    432    H    3.171    18.401    3.105
    433    C    4.741    18.517    1.762
    434    O    5.594    18.358    2.625
    435    C    4.919    18.704    0.366
    436    N    6.089    18.754    -0.387
    437    C    5.659    18.944    -1.594
    438    H    6.442    18.994    -2.214
    439    C    3.259    20.769    -3.169
    440    H    3.413    21.250    -2.306
    441    O    1.958    21.010    -3.731
    442    H    1.271    20.407    -3.436
    443    C    4.351    21.161    -4.158
    444    H    5.216    21.290    -3.673
    445    O    3.793    22.134    -5.062
    446    P    4.311    23.669    -4.957
    447    O    3.620    24.487    -6.004
    448    O    5.802    23.570    -4.902
    449    O    3.691    24.025    -3.506
    450    C    4.286    25.060    -2.731
    451    H    4.134    25.937    -3.187
    452    H    5.227    24.803    -2.512
    453    C    3.586    25.186    -1.386
    454    H    4.098    25.792    -0.778
    455    O    2.298    25.741    -1.615
    456    C    1.275    24.832    -1.172
    457    H    0.715    25.342    -0.519
    458    N    0.499    24.421    -2.365
    459    C    1.096    23.761    -3.401
    460    H    2.044    23.466    -3.517
    461    C    0.390    23.403    -4.489
    462    H    0.628    22.927    -5.336
    463    C    -0.851    24.741    -2.398
    464    O    -1.369    25.329    -1.453
    465    N    -1.573    24.381    -3.497
    466    C    -0.996    23.736    -4.517
    467    N    -1.729    23.405    -5.578
    468    H    -2.709    23.649    -5.590
    469    H    -1.314    22.918    -6.360
    470    C    1.951    23.664    -0.445
    471    H    1.679    22.825    -0.916
    472    O    1.629    23.632    0.948
    473    H    0.758    23.968    1.170
    474    C    3.448    23.874    -0.630
    475    H    3.784    23.129    -1.207
    476    O    4.097    24.019    0.641
    477    P    4.312    22.742    1.609
    478    O    5.471    23.020    2.488
    479    O    4.292    21.509    0.791
    480    O    2.970    22.773    2.508
    481    C    2.692    23.890    3.374
    482    H    2.598    24.717    2.819
    483    H    3.360    23.899    4.119
    484    C    1.339    23.750    4.079
    485    H    1.255    24.447    4.791
    486    O    0.290    23.928    3.129
    487    C    -0.646    22.850    3.203
    488    H    -1.443    23.210    3.688
    489    N    -0.987    22.436    1.829
    490    C    -2.089    22.091    -0.035
    491    N    -0.760    21.770    -0.304
    492    C    -0.172    21.990    0.831
    493    H    0.801    21.779    0.740
    494    N    -4.394    22.447    -0.241
    495    C    -4.411    22.817    1.039
    496    H    -5.237    23.100    1.526
    497    N    -3.376    22.876    1.872
    498    C    -2.235    22.494    1.261
    499    C    -3.243    22.076    -0.822
    500    N    -3.236    21.752    -2.111
    501    H    -4.101    21.792    -2.631
    502    H    -2.366    21.474    -2.541
    503    C    -0.033    21.734    4.022
    504    H    0.339    21.057    3.387
    505    O    -0.986    21.173    4.932
    506    H    -1.893    21.171    4.618
    507    C    1.119    22.400    4.768
    508    H    1.929    21.829    4.632
    509    O    0.700    22.713    6.105
    510    P    0.498    21.500    7.164
    511    O    0.781    22.051    8.518
    512    O    1.274    20.348    6.626
    513    O    -1.087    21.178    7.051
    514    C    -1.895    21.017    8.232
    515    H    -1.872    21.865    8.761
    516    H    -1.632    20.170    8.694
    517    C    -3.376    20.821    7.895
    518    H    -3.898    20.537    8.700
    519    O    -3.883    22.082    7.430
    520    C    -4.508    21.899    6.155
    521    H    -5.484    21.760    6.322
    522    N    -4.309    23.132    5.328
    523    C    -3.235    23.958    5.557
    524    H    -2.511    23.883    6.243
    525    C    -5.223    23.418    4.313
    526    O    -6.191    22.710    4.065
    527    N    -4.973    24.556    3.576
    528    H    -5.641    24.780    2.825
    529    C    -3.919    25.427    3.741
    530    O    -3.799    26.406    3.010
    531    C    -3.020    25.067    4.809
    532    H    -2.288    25.747    4.862
    533    C    -3.911    20.607    5.576
    534    H    -3.039    20.829    5.140
    535    O    -4.808    19.971    4.660
    536    H    -5.359    20.570    4.151
    537    C    -3.643    19.759    6.827
    538    H    -2.809    19.228    6.680
    539    O    -4.732    18.879    7.138
    540    P    -4.850    17.341    6.697
    541    O    -6.036    16.749    7.333
    542    O    -3.575    16.631    6.834
    543    O    -5.161    17.454    5.127
    544    C    -6.358    18.091    4.666
    545    H    -6.353    19.047    4.961
    546    H    -7.145    17.527    4.918
    547    C    -6.416    18.164    3.141
    548    H    -7.301    18.534    2.857
    549    O    -5.362    19.018    2.631
    550    C    -5.244    18.713    1.243
    551    H    -5.774    19.407    0.755
    552    N    -3.819    18.788    0.875
    553    C    -1.963    18.994    -0.274
    554    N    -1.579    18.857    1.059
    555    C    -2.715    18.742    1.680
    556    H    -2.542    18.639    2.659
    557    N    -1.933    19.258    -2.601
    558    C    -3.263    19.200    -2.586
    559    H    -3.835    19.270    -3.404
    560    N    -4.044    19.045    -1.525
    561    C    -3.321    18.950    -0.392
    562    C    -1.239    19.158    -1.457
    563    N    0.085    19.217    -1.496
    564    H    0.544    19.336    -2.388
    565    H    0.604    19.141    -0.633
    566    C    -5.890    17.337    1.014
    567    H    -5.199    16.739    0.607
    568    O    -7.061    17.446    0.195
    569    H    -7.032    18.146    -0.462
    570    C    -6.222    16.830    2.425
    571    H    -5.427    16.365    2.813
    572    O    -7.395    15.999    2.431
    573    P    -7.361    14.395    2.307
    574    O    -8.740    13.875    2.230
    575    O    -6.460    13.812    3.316
    576    O    -6.696    14.168    0.862
    577    C    -7.353    14.664    -0.306
    578    H    -7.627    15.613    -0.148
    579    H    -8.059    14.013    -0.584
    580    C    -6.422    14.741    -1.512
    581    H    -6.979    15.012    -2.297
    582    O    -5.376    15.722    -1.316
    583    C    -4.243    15.299    -2.102
    584    H    -4.135    15.987    -2.820
    585    N    -3.079    15.239    -1.198
    586    C    -1.032    15.227    -0.411
    587    N    -1.872    15.057    0.687
    588    C    -3.054    15.070    0.156
    589    H    -3.736    14.948    0.877
    590    N    0.864    15.470    -1.766
    591    C    0.050    15.565    -2.819
    592    H    0.366    15.692    -3.759
    593    N    -1.279    15.511    -2.813
    594    C    -1.756    15.338    -1.562
    595    C    0.357    15.302    -0.534
    596    N    1.180    15.231    0.509
    597    H    2.175    15.305    0.353
    598    H    0.791    15.105    1.432
    599    C    -4.571    13.944    -2.752
    600    H    -3.790    13.331    -2.632
    601    O    -4.978    14.093    -4.119
    602    H    -4.531    14.792    -4.601
    603    C    -5.734    13.446    -1.887
    604    H    -5.364    13.023    -1.060
    605    O    -6.758    12.839    -2.718
    606    P    -6.485    11.463    -3.564
    607    O    -7.615    11.169    -4.510
    608    O    -6.291    10.669    -2.331
    609    O    -5.081    11.569    -4.394
    610    C    -4.965    12.272    -5.646
    611    H    -5.242    13.224    -5.512
    612    H    -5.428    11.745    -6.359
    613    C    -3.499    12.322    -6.055
    614    H    -3.423    12.799    -6.931
    615    O    -2.695    13.000    -5.083
    616    C    -1.343    12.544    -5.279
    617    H    -0.865    13.285    -5.750
    618    N    -0.798    12.255    -3.936
    619    C    0.532    12.187    -3.593