!*** FMO 5.2 (Gamess) INPUT generated by Facio 21.1.1.32 ***
 $CONTRL RUNTYP=OPTFMO NPRINT=-5 ISPHER=-1 MAXIT=50 $END
 $SYSTEM MWORDS=29 $END
 $GDDI NGROUP=1 $END
 $INTGRL NINTIC=-9000000 $END
 $SCF DIRSCF=.FALSE. NPUNCH=0 $END
!*** NumCPU : 2  MemPerNode : 512MB
 $FMOPRP
    NAODIR=210
    NGRFMO(1)=1, 1, 0, 0, 0,   0, 0, 0, 0, 0
    NPRINT=9
 $END
 $FMO
      SCFTYP(1)=RHF
      MODGRD=10
      MODMUL=0
      MAXCAO=5
      MAXBND=34
      NLAYER=1
      NFRAG=32
      ICHARG(1)=-1, -1, -1, -1, -1, -1, -1, -1, -1, -1, 
-1, -1, -1, -1, -1, -1, -1, -1, -1, -1, 
-1, -1, -1, -1, -1, -1, -1, -1, -1, -1, 
-1, 0
      FRGNAM(1)=Frag1, Frag2, Frag3, Frag4, Frag5, Frag6, Frag7, Frag8, Frag9, Frag10, Frag11, Frag12, Frag13, Frag14, Frag15, Frag16, Frag17, Frag18, Frag19, Frag20, Frag21, Frag22, Frag23, Frag24, Frag25, Frag26, Frag27, Frag28, Frag29, Frag30, Frag31, Frag32
      indat(1)=0
               1   -36   0
               37   -69   0
               70   -103   0
               104   -134   0
               135   -167   0
               168   -201   0
               202   -231   0
               232   -261   0
               262   -292   0
               293   -323   0
               324   -354   0
               355   -385   0
               386   -415   0
               416   -449   0
               450   -480   0
               481   -513   0
               514   -543   0
               544   -576   0
               577   -609   0
               610   -643   0
               644   -677   0
               678   -710   0
               711   -740   0
               741   -774   0
               775   -807   0
               808   -840   0
               841   -871   0
               872   -902   0
               903   -936   0
               937   -966   0
               967   -996   0
               997   -1024   0
 $END

 $FMOBND
   -37   36       3-21G    MINI
   -70   69       3-21G    MINI
   -104   103       3-21G    MINI
   -135   134       3-21G    MINI
   -168   167       3-21G    MINI
   -202   201       3-21G    MINI
   -232   231       3-21G    MINI
   -262   261       3-21G    MINI
   -293   292       3-21G    MINI
   -324   323       3-21G    MINI
   -355   354       3-21G    MINI
   -386   385       3-21G    MINI
   -416   415       3-21G    MINI
   -450   449       3-21G    MINI
   -481   480       3-21G    MINI
   -514   513       3-21G    MINI
   -544   543       3-21G    MINI
   -577   576       3-21G    MINI
   -610   609       3-21G    MINI
   -644   643       3-21G    MINI
   -678   677       3-21G    MINI
   -711   710       3-21G    MINI
   -741   740       3-21G    MINI
   -775   774       3-21G    MINI
   -808   807       3-21G    MINI
   -841   840       3-21G    MINI
   -872   871       3-21G    MINI
   -903   902       3-21G    MINI
   -937   936       3-21G    MINI
   -967   966       3-21G    MINI
   -997   996       3-21G    MINI
 $END
 $FMOHYB
 3-21G        9   5
   1 0  -0.070459   0.164841   0.000000   0.000000   0.502116
         0.466939   0.000000   0.000000   0.418036
   0 1  -0.070465   0.164857   0.473392   0.000000  -0.167359
         0.466967   0.394111   0.000000  -0.139327
   0 1  -0.070465   0.164857  -0.236695  -0.409969  -0.167359
         0.466967  -0.197055  -0.341311  -0.139327
   0 1  -0.070465   0.164857  -0.236695   0.409969  -0.167359
         0.466967  -0.197055   0.341311  -0.139327
   0 1   1.006716   0.074826   0.000000   0.000000   0.000000
        -0.143830   0.000000   0.000000  -0.000003
 MINI         5   5
   1 0  -0.104883   0.308874   0.000000   0.000000   0.521806
   0 1  -0.104883   0.308874   0.491961   0.000000  -0.173934
   0 1  -0.104883   0.308876  -0.245980  -0.426050  -0.173933
   0 1  -0.104883   0.308876  -0.245980   0.426050  -0.173933
   0 1   0.988209   0.063992   0.000000   0.000000   0.000000
 $END

 $DATA
 FMO calculation : XXNAMEXX
 C1 
 C.1-1    6
      N21 3
   
 O.1-1    8
      N21 3
   
 N.1-1    7
      N21 3
   
 H.1-1    1
      N21 3
   
 P.1-1   15
      N21 3
   
 $END
 $FMOXYZ
    1    H    7.510    -20.450    3.659
    2    O    7.022    -20.059    2.879
    3    C    7.812    -20.236    1.698
    4    H    7.894    -21.214    1.505
    5    H    8.654    -19.703    1.786
    6    C    7.119    -19.657    0.462
    7    H    7.713    -19.636    -0.342
    8    O    5.992    -20.467    0.181
    9    C    5.114    -19.720    -0.689
    10    H    5.318    -20.013    -1.623
    11    N    3.699    -20.029    -0.362
    12    C    2.605    -19.851    -1.184
    13    N    1.262    -18.929    -4.253
    14    H    0.394    -18.836    -4.761
    15    H    2.105    -18.687    -4.753
    16    N    2.634    -19.406    -2.463
    17    C    1.413    -19.335    -3.000
    18    N    0.263    -19.673    -2.334
    19    H    -0.626    -19.580    -2.846
    20    C    0.202    -20.129    -1.031
    21    O    -0.885    -20.402    -0.528
    22    C    1.497    -20.210    -0.445
    23    N    1.875    -20.617    0.832
    24    C    3.167    -20.488    0.812
    25    H    3.535    -20.762    1.700
    26    C    5.486    -18.242    -0.537
    27    H    4.672    -17.728    -0.265
    28    O    5.999    -17.690    -1.758
    29    H    5.624    -18.061    -2.560
    30    C    6.461    -18.287    0.638
    31    H    5.938    -18.284    1.490
    32    O    7.345    -17.147    0.879
    33    P    7.123    -15.713    1.628
    34    O    8.388    -14.928    1.526
    35    O    6.528    -16.048    2.931
    36    O    5.974    -15.013    0.757
    37    C    6.260    -14.807    -0.618
    38    H    6.562    -15.671    -1.021
    39    H    6.859    -14.012    -0.710
    40    C    4.987    -14.442    -1.350
    41    H    5.299    -14.311    -2.291
    42    O    4.011    -15.502    -1.322
    43    C    2.802    -14.875    -1.783
    44    H    2.790    -14.969    -2.778
    45    N    1.674    -15.595    -1.155
    46    C    -0.277    -16.540    -0.801
    47    N    0.426    -16.644    0.396
    48    C    1.559    -16.072    0.121
    49    H    2.142    -16.098    0.933
    50    N    -1.945    -16.687    -2.441
    51    C    -1.121    -16.057    -3.279
    52    H    -1.352    -15.833    -4.226
    53    N    0.112    -15.627    -3.021
    54    C    0.471    -15.904    -1.750
    55    C    -1.557    -16.949    -1.182
    56    N    -2.389    -17.581    -0.359
    57    H    -3.301    -17.853    -0.698
    58    H    -2.090    -17.774    0.586
    59    C    2.907    -13.386    -1.423
    60    H    2.284    -13.233    -0.656
    61    O    2.636    -12.558    -2.553
    62    H    2.018    -12.928    -3.188
    63    C    4.337    -13.135    -0.958
    64    H    4.354    -13.049    0.038
    65    O    5.051    -12.132    -1.707
    66    P    4.643    -10.574    -1.589
    67    O    5.708    -9.788    -2.242
    68    O    4.266    -10.217    -0.197
    69    O    3.354    -10.457    -2.550
    70    C    3.457    -10.627    -3.967
    71    H    3.928    -11.488    -4.158
    72    H    3.829    -9.790    -4.369
    73    C    2.083    -10.785    -4.590
    74    H    2.221    -10.920    -5.571
    75    O    1.429    -11.930    -4.051
    76    C    0.048    -11.866    -4.448
    77    H    -0.077    -12.424    -5.268
    78    N    -0.742    -12.355    -3.298
    79    C    -2.093    -12.605    -3.295
    80    N    -5.138    -12.706    -4.958
    81    H    -6.118    -12.917    -4.836
    82    H    -4.853    -12.406    -5.879
    83    N    -2.929    -12.467    -4.352
    84    C    -4.186    -12.780    -4.039
    85    N    -4.585    -13.196    -2.795
    86    H    -5.583    -13.416    -2.666
    87    C    -3.754    -13.343    -1.700
    88    O    -4.218    -13.720    -0.629
    89    C    -2.408    -13.011    -2.017
    90    N    -1.269    -13.021    -1.214
    91    C    -0.333    -12.628    -2.023
    92    H    0.536    -12.603    -1.528
    93    C    -0.114    -10.381    -4.822
    94    H    -0.875    -10.049    -4.264
    95    O    -0.246    -10.213    -6.236
    96    H    -0.654    -10.951    -6.695
    97    C    1.145    -9.612    -4.451
    98    H    1.127    -9.321    -3.494
    99    O    1.513    -8.731    -5.529
    100    P    0.867    -7.241    -5.532
    101    O    1.297    -6.530    -6.762
    102    O    1.354    -6.666    -4.246
    103    O    -0.767    -7.346    -5.558
    104    C    -1.565    -7.350    -6.761
    105    H    -1.293    -8.126    -7.330
    106    H    -1.541    -6.438    -7.170
    107    C    -3.031    -7.597    -6.433
    108    H    -3.551    -7.572    -7.287
    109    O    -3.213    -8.867    -5.816
    110    C    -4.443    -8.788    -5.078
    111    H    -5.113    -9.320    -5.595
    112    N    -4.171    -9.345    -3.740
    113    C    -2.913    -9.334    -3.209
    114    H    -2.048    -9.018    -3.598
    115    C    -2.690    -9.801    -1.969
    116    H    -1.869    -9.885    -1.405
    117    C    -5.252    -9.835    -3.029
    118    O    -6.371    -9.847    -3.535
    119    N    -5.036    -10.307    -1.773
    120    C    -3.809    -10.299    -1.238
    121    N    -3.636    -10.735    0.004
    122    H    -4.438    -11.065    0.522
    123    H    -2.719    -10.737    0.427
    124    C    -4.887    -7.317    -5.048
    125    H    -5.076    -7.067    -4.099
    126    O    -5.954    -7.054    -5.969
    127    H    -6.584    -7.771    -6.075
    128    C    -3.649    -6.563    -5.523
    129    H    -3.037    -6.404    -4.748
    130    O    -4.035    -5.652    -6.562
    131    P    -4.968    -4.360    -6.221
    132    O    -5.329    -3.489    -7.368
    133    O    -3.840    -3.780    -5.492
    134    O    -6.167    -4.483    -5.115
    135    C    -7.566    -4.348    -5.453
    136    H    -7.841    -5.127    -6.016
    137    H    -7.727    -3.429    -5.813
    138    C    -8.451    -4.436    -4.217
    139    H    -9.414    -4.355    -4.475
    140    O    -8.238    -5.737    -3.564
    141    C    -8.664    -5.561    -2.201
    142    H    -9.556    -6.006    -2.119
    143    N    -7.649    -6.193    -1.333
    144    C    -6.651    -7.188    0.351
    145    N    -5.687    -7.056    -0.648
    146    C    -6.336    -6.463    -1.605
    147    H    -5.717    -6.319    -2.377
    148    N    -7.738    -7.704    2.359
    149    C    -8.846    -7.164    1.853
    150    H    -9.715    -7.110    2.345
    151    N    -8.995    -6.618    0.648
    152    C    -7.845    -6.665    -0.055
    153    C    -6.611    -7.737    1.635
    154    N    -5.517    -8.282    2.157
    155    H    -5.557    -8.662    3.092
    156    H    -4.670    -8.304    1.607
    157    C    -8.835    -4.054    -1.979
    158    H    -8.326    -3.822    -1.150
    159    O    -10.214    -3.675    -1.966
    160    H    -10.813    -4.338    -1.616
    161    C    -8.186    -3.369    -3.165
    162    H    -7.199    -3.290    -3.022
    163    O    -8.949    -2.165    -3.360
    164    P    -8.379    -0.806    -2.685
    165    O    -9.261    0.327    -3.050
    166    O    -6.932    -0.759    -3.030
    167    O    -8.514    -1.034    -1.086
    168    C    -9.697    -0.793    -0.297
    169    H    -10.464    -1.294    -0.698
    170    H    -9.802    0.192    -0.160
    171    C    -9.603    -1.351    1.127
    172    H    -10.495    -1.443    1.571
    173    O    -9.019    -2.641    0.990
    174    C    -8.502    -3.060    2.269
    175    H    -9.142    -3.722    2.659
    176    N    -7.167    -3.673    2.075
    177    C    -6.405    -4.293    3.042
    178    N    -5.968    -5.336    6.327
    179    H    -5.325    -5.807    6.947
    180    H    -6.833    -5.012    6.736
    181    N    -6.746    -4.458    4.342
    182    C    -5.799    -5.097    5.034
    183    N    -4.619    -5.535    4.492
    184    H    -3.959    -6.016    5.119
    185    C    -4.245    -5.382    3.169
    186    O    -3.167    -5.823    2.781
    187    C    -5.245    -4.701    2.420
    188    N    -5.265    -4.346    1.072
    189    C    -6.411    -3.752    0.941
    190    H    -6.518    -3.456    -0.008
    191    C    -8.528    -1.782    3.115
    192    H    -7.648    -1.706    3.584
    193    O    -9.618    -1.789    4.045
    194    H    -9.865    -2.657    4.373
    195    C    -8.644    -0.658    2.094
    196    H    -7.769    -0.510    1.634
    197    O    -9.074    0.575    2.724
    198    P    -8.080    1.761    3.225
    199    O    -8.884    2.912    3.694
    200    O    -7.064    1.958    2.172
    201    O    -7.328    1.142    4.507
    202    C    -7.951    1.030    5.792
    203    H    -8.794    0.500    5.700
    204    H    -8.011    1.939    6.205
    205    C    -7.093    0.221    6.765
    206    H    -7.604    0.067    7.611
    207    O    -6.784    -1.024    6.183
    208    C    -5.549    -1.522    6.730
    209    H    -5.758    -2.350    7.251
    210    N    -4.620    -1.766    5.602
    211    C    -4.829    -1.175    4.386
    212    H    -5.563    -0.561    4.095
    213    C    -3.536    -2.596    5.823
    214    O    -3.325    -3.135    6.903
    215    N    -2.692    -2.782    4.748
    216    H    -1.877    -3.395    4.892
    217    C    -2.830    -2.227    3.493
    218    O    -2.009    -2.464    2.614
    219    C    -3.986    -1.376    3.349
    220    H    -4.011    -1.016    2.416
    221    C    -5.089    -0.435    7.691
    222    H    -4.096    -0.348    7.613
    223    O    -5.538    -0.667    9.031
    224    H    -5.587    -1.591    9.288
    225    C    -5.737    0.817    7.142
    226    H    -5.269    1.114    6.310
    227    O    -5.754    1.748    8.232
    228    P    -4.517    2.781    8.401
    229    O    -4.816    3.691    9.531
    230    O    -4.219    3.316    7.048
    231    O    -3.270    1.847    8.833
    232    C    -3.040    1.372    10.171
    233    H    -3.809    0.796    10.449
    234    H    -2.801    2.148    10.755
    235    C    -1.831    0.439    10.308
    236    H    -1.785    0.023    11.216
    237    O    -1.911    -0.582    9.339
    238    C    -0.589    -1.081    9.038
    239    H    -0.516    -1.994    9.439
    240    N    -0.443    -1.082    7.566
    241    C    -1.278    -0.334    6.780
    242    H    -2.041    0.257    7.042
    243    C    0.570    -1.847    7.017
    244    O    1.326    -2.528    7.702
    245    N    0.681    -1.806    5.645
    246    H    1.429    -2.370    5.218
    247    C    -0.113    -1.082    4.781
    248    O    0.087    -1.119    3.572
    249    C    -1.147    -0.313    5.435
    250    H    -1.676    0.177    4.742
    251    C    0.377    -0.141    9.761
    252    H    1.118    0.104    9.136
    253    O    0.830    -0.680    11.005
    254    H    0.957    -1.632    11.012
    255    C    -0.491    1.081    10.001
    256    H    -0.567    1.602    9.151
    257    O    0.059    1.765    11.132
    258    P    1.087    2.974    10.853
    259    O    1.431    3.600    12.152
    260    O    0.507    3.762    9.736
    261    O    2.384    2.205    10.284
    262    C    3.261    1.422    11.113
    263    H    2.747    0.656    11.499
    264    H    3.740    2.030    11.746
    265    C    4.389    0.747    10.331
    266    H    4.969    0.122    10.854
    267    O    3.795    0.025    9.228
    268    C    4.760    -0.223    8.186
    269    H    5.058    -1.176    8.239
    270    N    4.119    0.070    6.881
    271    C    3.008    0.859    6.804
    272    H    2.485    1.308    7.528
    273    C    2.444    1.142    5.617
    274    H    1.648    1.685    5.350
    275    C    4.699    -0.464    5.737
    276    O    5.704    -1.169    5.821
    277    N    4.136    -0.182    4.531
    278    C    3.046    0.592    4.446
    279    N    2.525    0.854    3.253
    280    H    2.964    0.462    2.432
    281    H    1.704    1.435    3.165
    282    C    5.919    0.687    8.610
    283    H    6.267    1.155    7.798
    284    O    6.956    -0.055    9.267
    285    H    7.075    -0.953    8.950
    286    C    5.239    1.708    9.518
    287    H    4.638    2.303    8.984
    288    O    6.125    2.554    10.281
    289    P    6.484    4.089    9.914
    290    O    7.454    4.614    10.908
    291    O    5.194    4.764    9.664
    292    O    7.203    3.904    8.493
    293    C    8.421    3.159    8.428
    294    H    8.273    2.256    8.832
    295    H    9.165    3.719    8.792
    296    C    8.794    2.892    6.979
    297    H    9.623    2.346    6.859
    298    O    7.695    2.201    6.392
    299    C    7.680    2.448    4.971
    300    H    7.832    1.578    4.501
    301    N    6.354    3.018    4.614
    302    C    5.551    3.561    5.575
    303    H    5.698    3.644    6.561
    304    C    4.357    4.095    5.264
    305    H    3.639    4.530    5.807
    306    C    5.958    3.003    3.278
    307    O    6.692    2.520    2.421
    308    N    4.747    3.543    2.953
    309    C    3.957    4.076    3.894
    310    N    2.780    4.590    3.552
    311    H    2.502    4.569    2.581
    312    H    2.172    4.996    4.249
    313    C    8.895    3.352    4.751
    314    H    8.722    3.990    4.000
    315    O    10.072    2.567    4.511
    316    H    9.931    1.776    3.986
    317    C    8.848    4.116    6.073
    318    H    7.993    4.626    6.164
    319    O    9.861    5.122    6.346
    320    P    9.804    6.728    6.095
    321    O    11.052    7.360    6.600
    322    O    8.479    7.181    6.554
    323    O    9.801    6.804    4.499
    324    C    10.960    6.308    3.839
    325    H    11.136    5.373    4.148
    326    H    11.697    6.978    3.928
    327    C    10.715    6.189    2.345
    328    H    11.517    5.821    1.875
    329    O    9.585    5.345    2.072
    330    C    9.007    5.778    0.825
    331    H    9.123    5.028    0.174
    332    N    7.586    6.095    1.101
    333    C    7.167    6.365    2.372
    334    H    7.682    6.408    3.228
    335    C    5.874    6.629    2.626
    336    H    5.371    6.845    3.463
    337    C    6.699    6.085    0.032
    338    O    7.098    5.851    -1.106
    339    N    5.386    6.353    0.282
    340    C    4.965    6.618    1.527
    341    N    3.677    6.877    1.739
    342    H    3.042    6.868    0.954
    343    H    3.338    7.079    2.669
    344    C    9.835    6.976    0.357
    345    H    9.231    7.660    -0.053
    346    O    10.919    6.597    -0.496
    347    H    10.728    5.872    -1.096
    348    C    10.339    7.497    1.688
    349    H    9.585    7.912    2.197
    350    O    11.495    8.301    1.459
    351    P    11.287    9.886    1.307
    352    O    12.625    10.519    1.287
    353    O    10.261    10.282    2.303
    354    O    10.625    9.990    -0.158
    355    C    11.361    9.644    -1.338
    356    H    11.640    8.686    -1.278
    357    H    12.072    10.331    -1.491
    358    C    10.506    9.704    -2.604
    359    H    10.992    9.438    -3.436
    360    O    9.345    8.875    -2.456
    361    C    8.279    9.413    -3.263
    362    H    8.153    8.785    -4.031
    363    N    7.085    9.502    -2.393
    364    C    7.218    9.531    -1.037
    365    H    8.041    9.522    -0.468
    366    C    6.138    9.580    -0.242
    367    H    6.019    9.606    0.751
    368    C    5.834    9.526    -2.997
    369    O    5.735    9.510    -4.222
    370    N    4.734    9.576    -2.197
    371    C    4.855    9.602    -0.864
    372    N    3.765    9.641    -0.107
    373    H    2.860    9.650    -0.555
    374    H    3.837    9.661    0.900
    375    C    8.767    10.760    -3.797
    376    H    8.041    11.440    -3.692
    377    O    9.246    10.677    -5.142
    378    H    8.769    10.063    -5.705
    379    C    9.885    11.072    -2.813
    380    H    9.482    11.382    -1.952
    381    O    10.826    12.008    -3.339
    382    P    10.742    13.519    -2.803
    383    O    11.904    14.283    -3.315
    384    O    10.458    13.431    -1.354
    385    O    9.407    13.995    -3.555
    386    C    9.390    13.987    -4.985
    387    H    9.620    13.069    -5.308
    388    H    9.937    14.753    -5.321
    389    C    7.997    14.245    -5.538
    390    H    7.937    14.242    -6.536
    391    O    7.108    13.278    -5.021
    392    C    5.778    13.825    -5.109
    393    H    5.345    13.394    -5.901
    394    N    5.042    13.449    -3.877
    395    C    5.714    13.122    -2.729
    396    H    6.699    13.057    -2.571
    397    C    3.659    13.469    -3.907
    398    O    3.024    13.751    -4.919
    399    N    3.016    13.163    -2.723
    400    H    1.986    13.183    -2.728
    401    C    3.619    12.831    -1.528
    402    O    2.941    12.568    -0.539
    403    C    5.063    12.825    -1.581
    404    H    5.421    12.580    -0.680
    405    C    5.919    15.329    -5.374
    406    H    5.351    15.838    -4.727
    407    O    5.503    15.648    -6.713
    408    H    4.781    15.113    -7.051
    409    C    7.394    15.535    -5.012
    410    H    7.492    15.558    -4.017
    411    O    8.093    16.758    -5.385
    412    P    8.564    18.007    -4.454
    413    O    9.154    19.075    -5.313
    414    O    9.313    17.402    -3.339
    415    O    7.148    18.485    -3.878
    416    C    6.201    19.017    -4.801
    417    H    6.088    18.374    -5.558
    418    H    6.454    19.959    -5.020
    419    C    4.829    19.109    -4.138
    420    H    4.160    19.565    -4.725
    421    O    4.387    17.784    -3.875
    422    C    3.485    17.801    -2.746
    423    H    2.585    17.522    -3.082
    424    N    3.988    16.878    -1.704
    425    C    3.249    16.277    -0.706
    426    N    0.191    15.643    0.819
    427    H    -0.243    15.156    1.590
    428    H    -0.425    16.164    0.211
    429    N    1.909    16.366    -0.540
    430    C    1.483    15.672    0.519
    431    N    2.310    14.953    1.343
    432    H    1.876    14.454    2.132
    433    C    3.679    14.845    1.198
    434    O    4.326    14.177    1.994
    435    C    4.145    15.578    0.073
    436    N    5.437    15.728    -0.421
    437    C    5.272    16.494    -1.453
    438    H    6.161    16.660    -1.881
    439    C    3.416    19.252    -2.291
    440    H    3.376    19.287    -1.292
    441    O    2.288    19.931    -2.868
    442    H    1.504    19.389    -2.983
    443    C    4.783    19.752    -2.751
    444    H    5.502    19.352    -2.183
    445    O    5.033    21.169    -2.570
    446    P    5.784    21.886    -1.325
    447    O    5.749    23.347    -1.570
    448    O    7.075    21.179    -1.256
    449    O    4.880    21.490    -0.051
    450    C    5.450    21.681    1.241
    451    H    5.602    22.658    1.388
    452    H    6.230    21.064    1.347
    453    C    4.464    21.265    2.329
    454    H    4.958    21.233    3.198
    455    O    3.426    22.235    2.421
    456    C    2.161    21.664    2.044
    457    H    1.528    21.866    2.792
    458    N    1.738    22.301    0.774
    459    C    2.502    22.193    -0.354
    460    H    3.366    21.713    -0.504
    461    C    2.126    22.787    -1.501
    462    H    2.531    22.832    -2.414
    463    C    0.550    23.021    0.770
    464    O    -0.126    23.101    1.792
    465    N    0.163    23.625    -0.389
    466    C    0.908    23.526    -1.497
    467    N    0.504    24.133    -2.610
    468    H    -0.359    24.657    -2.594
    469    H    1.050    24.072    -3.458
    470    C    2.342    20.145    1.940
    471    H    2.100    19.881    1.007
    472    O    1.585    19.441    2.930
    473    H    0.763    19.864    3.188
    474    C    3.827    19.891    2.157
    475    H    4.180    19.471    1.321
    476    O    4.006    19.085    3.335
    477    P    3.583    17.519    3.336
    478    O    4.358    16.831    4.394
    479    O    3.652    17.019    1.941
    480    O    2.025    17.527    3.789
    481    C    1.561    17.874    5.116
    482    H    1.752    18.841    5.285
    483    H    1.914    17.205    5.770
    484    C    0.035    17.782    5.316
    485    H    -0.215    17.916    6.275
    486    O    -0.521    18.845    4.537
    487    C    -1.562    18.347    3.694
    488    H    -2.423    18.611    4.129
    489    N    -1.446    18.954    2.353
    490    C    -1.845    20.145    0.552
    491    N    -0.569    19.610    0.389
    492    C    -0.402    18.921    1.476
    493    H    0.498    18.486    1.450
    494    N    -3.846    21.310    0.206
    495    C    -4.268    20.854    1.385
    496    H    -5.165    21.064    1.774
    497    N    -3.604    20.068    2.227
    498    C    -2.386    19.747    1.740
    499    C    -2.630    20.978    -0.250
    500    N    -2.207    21.477    -1.408
    501    H    -2.813    22.099    -1.924
    502    H    -1.290    21.222    -1.745
    503    C    -1.465    16.835    3.669
    504    H    -0.966    16.584    2.840
    505    O    -2.752    16.231    3.790
    506    H    -3.472    16.729    3.396
    507    C    -0.632    16.455    4.882
    508    H    0.077    15.818    4.580
    509    O    -1.498    15.858    5.873
    510    P    -2.369    14.494    5.682
    511    O    -2.555    13.888    7.019
    512    O    -1.747    13.683    4.615
    513    O    -3.823    14.970    5.162
    514    C    -5.026    14.456    5.759
    515    H    -5.020    14.667    6.737
    516    H    -5.143    13.501    5.486
    517    C    -6.259    15.178    5.207
    518    H    -7.064    14.696    5.553
    519    O    -6.284    16.530    5.683
    520    C    -6.373    17.431    4.570
    521    H    -7.339    17.660    4.453
    522    N    -5.579    18.662    4.878
    523    C    -4.523    18.606    5.756
    524    H    -4.173    17.829    6.280
    525    C    -5.913    19.858    4.242
    526    O    -6.839    19.956    3.446
    527    N    -5.130    20.949    4.552
    528    H    -5.368    21.840    4.093
    529    C    -4.057    20.970    5.416
    530    O    -3.427    22.007    5.601
    531    C    -3.772    19.698    6.033
    532    H    -2.984    19.800    6.640
    533    C    -5.895    16.637    3.345
    534    H    -4.895    16.626    3.328
    535    O    -6.493    17.136    2.141
    536    H    -6.610    18.088    2.111
    537    C    -6.403    15.235    3.691
    538    H    -5.784    14.565    3.280
    539    O    -7.788    15.204    3.305
    540    P    -8.160    14.493    1.904
    541    O    -9.636    14.396    1.823
    542    O    -7.324    13.269    1.792
    543    O    -7.672    15.559    0.780
    544    C    -8.381    16.774    0.455
    545    H    -8.325    17.402    1.232
    546    H    -9.289    16.538    0.108
    547    C    -7.730    17.549    -0.699
    548    H    -8.266    18.360    -0.932
    549    O    -6.388    17.959    -0.332
    550    C    -5.713    18.282    -1.548
    551    H    -5.789    19.273    -1.657
    552    N    -4.306    17.864    -1.429
    553    C    -2.140    17.707    -1.726
    554    N    -2.450    16.846    -0.674
    555    C    -3.736    16.987    -0.551
    556    H    -4.058    16.400    0.192
    557    N    -0.990    18.919    -3.367
    558    C    -2.154    19.457    -3.730
    559    H    -2.256    20.123    -4.469
    560    N    -3.345    19.216    -3.198
    561    C    -3.263    18.325    -2.190
    562    C    -0.940    18.033    -2.361
    563    N    0.229    17.511    -2.018
    564    H    1.058    17.792    -2.522
    565    H    0.264    16.844    -1.260
    566    C    -6.462    17.595    -2.694
    567    H    -5.821    16.995    -3.172
    568    O    -7.089    18.549    -3.564
    569    H    -6.611    19.374    -3.673
    570    C    -7.503    16.738    -1.972
    571    H    -7.092    15.859    -1.729
    572    O    -8.618    16.659    -2.872
    573    P    -8.795    15.345    -3.796
    574    O    -10.015    15.511    -4.623
    575    O    -8.641    14.177    -2.894
    576    O    -7.513    15.366    -4.782
    577    C    -7.388    16.175    -5.956
    578    H    -7.346    17.137    -5.686
    579    H    -8.090    15.903    -6.615
    580    C    -6.073    15.928    -6.680
    581    H    -6.119    16.475    -7.516
    582    O    -5.062    16.485    -5.807
    583    C    -3.801    15.847    -6.088
    584    H    -3.169    16.567    -6.375
    585    N    -3.238    15.219    -4.866
    586    C    -1.904    14.219    -3.414
    587    N    -3.183    14.167    -2.867
    588    C    -3.905    14.765    -3.764
    589    H    -4.857    14.778    -3.459
    590    N    0.403    13.968    -3.744
    591    C    0.262    14.603    -4.910
    592    H    1.017    14.790    -5.538
    593    N    -0.863    15.084    -5.430
    594    C    -1.924    14.856    -4.625
    595    C    -0.665    13.756    -2.959
    596    N    -0.507    13.141    -1.790
    597    H    0.418    12.844    -1.514
    598    H    -1.316    12.985    -1.205
    599    C    -4.047    14.897    -7.270
    600    H    -3.496    14.071    -7.152
    601    O    -3.681    15.561    -8.478
    602    H    -2.933    16.158    -8.402
    603    C    -5.531    14.545    -7.054
    604    H    -5.624    13.935    -6.267
    605    O    -6.328    13.564    -7.776
    606    P    -6.501    11.930    -7.872
    607    O    -7.374    11.559    -9.012
    608    O    -6.869    11.543    -6.510
    609    O    -5.055    11.325    -8.166
    610    C    -4.427    11.572    -9.407
    611    H    -4.361    12.560    -9.548
    612    H    -4.878    11.027    -10.114
    613    C    -3.009    11.050    -9.287
    614    H    -2.611    11.309    -10.167
    615    O    -2.365    11.798    -8.245
    616    C    -1.147    11.110    -7.907
    617    H    -0.396    11.696    -8.212
    618    N    -1.047    10.929    -6.435
    619    C    0.088    10.631    -5.702
    620    N    3.507    10.017    -5.542