!*** FMO 5.2 (Gamess) INPUT generated by Facio 21.1.1.32 ***
 $CONTRL RUNTYP=OPTFMO NPRINT=-5 ISPHER=-1 MAXIT=50 $END
 $SYSTEM MWORDS=29 $END
 $GDDI NGROUP=1 $END
 $INTGRL NINTIC=-9000000 $END
 $SCF DIRSCF=.FALSE. NPUNCH=0 $END
!*** NumCPU : 2  MemPerNode : 512MB
 $FMOPRP
    NAODIR=210
    NGRFMO(1)=1, 1, 0, 0, 0,   0, 0, 0, 0, 0
    NPRINT=9
 $END
 $FMO
      SCFTYP(1)=RHF
      MODGRD=10
      MODMUL=0
      MAXCAO=5
      MAXBND=34
      NLAYER=1
      NFRAG=32
      ICHARG(1)=-1, -1, -1, -1, -1, -1, -1, -1, -1, -1, 
-1, -1, -1, -1, -1, -1, -1, -1, -1, -1, 
-1, -1, -1, -1, -1, -1, -1, -1, -1, -1, 
-1, 0
      FRGNAM(1)=Frag1, Frag2, Frag3, Frag4, Frag5, Frag6, Frag7, Frag8, Frag9, Frag10, Frag11, Frag12, Frag13, Frag14, Frag15, Frag16, Frag17, Frag18, Frag19, Frag20, Frag21, Frag22, Frag23, Frag24, Frag25, Frag26, Frag27, Frag28, Frag29, Frag30, Frag31, Frag32
      indat(1)=0
               1   -36   0
               37   -69   0
               70   -103   0
               104   -134   0
               135   -167   0
               168   -201   0
               202   -231   0
               232   -261   0
               262   -292   0
               293   -323   0
               324   -354   0
               355   -385   0
               386   -415   0
               416   -449   0
               450   -480   0
               481   -513   0
               514   -543   0
               544   -576   0
               577   -609   0
               610   -643   0
               644   -677   0
               678   -710   0
               711   -740   0
               741   -774   0
               775   -807   0
               808   -840   0
               841   -871   0
               872   -902   0
               903   -936   0
               937   -966   0
               967   -996   0
               997   -1024   0
 $END

 $FMOBND
   -37   36       3-21G    MINI
   -70   69       3-21G    MINI
   -104   103       3-21G    MINI
   -135   134       3-21G    MINI
   -168   167       3-21G    MINI
   -202   201       3-21G    MINI
   -232   231       3-21G    MINI
   -262   261       3-21G    MINI
   -293   292       3-21G    MINI
   -324   323       3-21G    MINI
   -355   354       3-21G    MINI
   -386   385       3-21G    MINI
   -416   415       3-21G    MINI
   -450   449       3-21G    MINI
   -481   480       3-21G    MINI
   -514   513       3-21G    MINI
   -544   543       3-21G    MINI
   -577   576       3-21G    MINI
   -610   609       3-21G    MINI
   -644   643       3-21G    MINI
   -678   677       3-21G    MINI
   -711   710       3-21G    MINI
   -741   740       3-21G    MINI
   -775   774       3-21G    MINI
   -808   807       3-21G    MINI
   -841   840       3-21G    MINI
   -872   871       3-21G    MINI
   -903   902       3-21G    MINI
   -937   936       3-21G    MINI
   -967   966       3-21G    MINI
   -997   996       3-21G    MINI
 $END
 $FMOHYB
 3-21G        9   5
   1 0  -0.070459   0.164841   0.000000   0.000000   0.502116
         0.466939   0.000000   0.000000   0.418036
   0 1  -0.070465   0.164857   0.473392   0.000000  -0.167359
         0.466967   0.394111   0.000000  -0.139327
   0 1  -0.070465   0.164857  -0.236695  -0.409969  -0.167359
         0.466967  -0.197055  -0.341311  -0.139327
   0 1  -0.070465   0.164857  -0.236695   0.409969  -0.167359
         0.466967  -0.197055   0.341311  -0.139327
   0 1   1.006716   0.074826   0.000000   0.000000   0.000000
        -0.143830   0.000000   0.000000  -0.000003
 MINI         5   5
   1 0  -0.104883   0.308874   0.000000   0.000000   0.521806
   0 1  -0.104883   0.308874   0.491961   0.000000  -0.173934
   0 1  -0.104883   0.308876  -0.245980  -0.426050  -0.173933
   0 1  -0.104883   0.308876  -0.245980   0.426050  -0.173933
   0 1   0.988209   0.063992   0.000000   0.000000   0.000000
 $END

 $DATA
 FMO calculation : XXNAMEXX
 C1 
 C.1-1    6
      N21 3
   
 O.1-1    8
      N21 3
   
 N.1-1    7
      N21 3
   
 H.1-1    1
      N21 3
   
 P.1-1   15
      N21 3
   
 $END
 $FMOXYZ
    1    H    9.066    -20.878    -1.725
    2    O    8.235    -20.933    -2.279
    3    C    8.505    -21.717    -3.447
    4    H    8.709    -22.656    -3.169
    5    H    9.177    -21.239    -4.012
    6    C    7.276    -21.845    -4.345
    7    H    7.530    -22.306    -5.195
    8    O    6.245    -22.578    -3.714
    9    C    5.023    -22.270    -4.415
    10    H    4.907    -22.979    -5.110
    11    N    3.929    -22.272    -3.420
    12    C    2.589    -22.445    -3.685
    13    N    0.016    -23.030    -5.939
    14    H    -0.985    -23.143    -6.012
    15    H    0.542    -23.105    -6.798
    16    N    2.041    -22.669    -4.902
    17    C    0.714    -22.794    -4.837
    18    N    -0.007    -22.706    -3.674
    19    H    -1.029    -22.819    -3.740
    20    C    0.526    -22.478    -2.421
    21    O    -0.213    -22.414    -1.442
    22    C    1.942    -22.342    -2.473
    23    N    2.856    -22.109    -1.448
    24    C    3.995    -22.080    -2.068
    25    H    4.724    -21.916    -1.403
    26    C    5.223    -20.920    -5.109
    27    H    4.576    -20.268    -4.713
    28    O    5.094    -21.021    -6.533
    29    H    4.462    -21.677    -6.837
    30    C    6.636    -20.518    -4.714
    31    H    6.585    -19.943    -3.898
    32    O    7.327    -19.929    -5.827
    33    P    7.341    -18.316    -5.995
    34    O    8.212    -18.003    -7.150
    35    O    7.601    -17.669    -4.684
    36    O    5.819    -18.005    -6.418
    37    C    5.301    -18.540    -7.640
    38    H    5.437    -19.531    -7.645
    39    H    5.667    -18.013    -8.407
    40    C    3.792    -18.368    -7.753
    41    H    3.486    -18.688    -8.650
    42    O    3.113    -19.126    -6.726
    43    C    1.778    -18.585    -6.672
    44    H    1.238    -19.084    -7.349
    45    N    1.265    -18.777    -5.300
    46    C    -0.053    -19.171    -3.588
    47    N    1.196    -18.864    -3.053
    48    C    1.920    -18.643    -4.108
    49    H    2.849    -18.410    -3.822
    50    N    -2.314    -19.743    -3.816
    51    C    -2.159    -19.662    -5.139
    52    H    -2.893    -19.829    -5.797
    53    N    -1.045    -19.357    -5.800
    54    C    -0.022    -19.121    -4.952
    55    C    -1.275    -19.502    -2.999
    56    N    -1.444    -19.590    -1.683
    57    H    -2.354    -19.837    -1.322
    58    H    -0.658    -19.407    -1.075
    59    C    1.875    -17.119    -7.095
    60    H    1.741    -16.561    -6.276
    61    O    0.956    -16.806    -8.145
    62    H    0.134    -17.301    -8.125
    63    C    3.302    -16.941    -7.588
    64    H    3.831    -16.496    -6.865
    65    O    3.310    -16.275    -8.860
    66    P    2.939    -14.708    -8.966
    67    O    3.337    -14.231    -10.309
    68    O    3.446    -14.020    -7.757
    69    O    1.330    -14.730    -8.900
    70    C    0.571    -15.305    -9.969
    71    H    0.883    -16.242    -10.123
    72    H    0.576    -14.676    -10.746
    73    C    -0.901    -15.451    -9.609
    74    H    -1.440    -15.863    -10.343
    75    O    -1.027    -16.252    -8.433
    76    C    -2.373    -16.113    -7.929
    77    H    -2.931    -16.862    -8.287
    78    N    -2.298    -16.111    -6.454
    79    C    -3.365    -16.151    -5.587
    80    N    -6.788    -16.290    -5.032
    81    H    -7.487    -16.310    -4.304
    82    H    -7.127    -16.319    -5.983
    83    N    -4.672    -16.209    -5.937
    84    C    -5.474    -16.229    -4.874
    85    N    -5.029    -16.198    -3.577
    86    H    -5.739    -16.223    -2.831
    87    C    -3.703    -16.136    -3.193
    88    O    -3.413    -16.109    -2.000
    89    C    -2.832    -16.112    -4.317
    90    N    -1.441    -16.052    -4.374
    91    C    -1.196    -16.055    -5.649
    92    H    -0.207    -16.014    -5.791
    93    C    -2.824    -14.799    -8.579
    94    H    -3.176    -14.213    -7.849
    95    O    -3.770    -15.019    -9.631
    96    H    -4.343    -15.780    -9.508
    97    C    -1.569    -14.171    -9.154
    98    H    -1.018    -13.755    -8.431
    99    O    -1.876    -13.307    -10.251
    100    P    -1.913    -11.710    -10.061
    101    O    -2.208    -11.081    -11.366
    102    O    -0.701    -11.327    -9.305
    103    O    -3.191    -11.518    -9.105
    104    C    -4.502    -11.770    -9.618
    105    H    -4.543    -12.709    -9.959
    106    H    -4.754    -11.032    -10.244
    107    C    -5.571    -11.720    -8.534
    108    H    -6.483    -11.819    -8.932
    109    O    -5.363    -12.767    -7.580
    110    C    -6.013    -12.366    -6.361
    111    H    -6.845    -12.916    -6.287
    112    N    -5.070    -12.609    -5.251
    113    C    -3.722    -12.624    -5.463
    114    H    -3.199    -12.524    -6.310
    115    C    -2.868    -12.794    -4.439
    116    H    -1.871    -12.837    -4.377
    117    C    -5.602    -12.772    -3.982
    118    O    -6.819    -12.771    -3.817
    119    N    -4.746    -12.941    -2.940
    120    C    -3.422    -12.953    -3.135
    121    N    -2.609    -13.087    -2.093
    122    H    -3.009    -13.178    -1.170
    123    H    -1.607    -13.098    -2.219
    124    C    -6.402    -10.892    -6.516
    125    H    -6.103    -10.395    -5.702
    126    O    -7.801    -10.734    -6.784
    127    H    -8.371    -11.373    -6.350
    128    C    -5.559    -10.453    -7.701
    129    H    -4.624    -10.273    -7.396
    130    O    -6.196    -9.383    -8.409
    131    P    -5.892    -7.852    -8.040
    132    O    -6.549    -6.983    -9.040
    133    O    -4.435    -7.741    -7.805
    134    O    -6.653    -7.670    -6.637
    135    C    -8.082    -7.732    -6.585
    136    H    -8.381    -8.632    -6.904
    137    H    -8.460    -6.925    -7.039
    138    C    -8.603    -7.643    -5.156
    139    H    -9.602    -7.611    -5.147
    140    O    -8.154    -8.796    -4.365
    141    C    -8.249    -8.386    -2.986
    142    H    -9.064    -8.829    -2.612
    143    N    -7.013    -8.835    -2.312
    144    C    -5.574    -9.505    -0.795
    145    N    -4.893    -9.524    -2.010
    146    C    -5.791    -9.119    -2.857
    147    H    -5.389    -9.097    -3.772
    148    N    -6.105    -9.693    1.478
    149    C    -7.335    -9.272    1.185
    150    H    -8.060    -9.153    1.863
    151    N    -7.807    -8.945    -0.015
    152    C    -6.862    -9.086    -0.966
    153    C    -5.188    -9.825    0.509
    154    N    -3.966    -10.248    0.822
    155    H    -3.754    -10.462    1.786
    156    H    -3.279    -10.346    0.088
    157    C    -8.459    -6.867    -2.977
    158    H    -7.803    -6.468    -2.336
    159    O    -9.816    -6.517    -2.684
    160    H    -10.266    -7.111    -2.079
    161    C    -8.094    -6.438    -4.390
    162    H    -7.100    -6.388    -4.485
    163    O    -8.796    -5.242    -4.764
    164    P    -8.121    -3.795    -4.505
    165    O    -9.037    -2.756    -5.025
    166    O    -6.713    -3.834    -4.967
    167    O    -8.124    -3.704    -2.899
    168    C    -9.368    -3.710    -2.192
    169    H    -9.967    -4.403    -2.593
    170    H    -9.712    -2.773    -2.130
    171    C    -9.203    -4.147    -0.743
    172    H    -10.078    -4.345    -0.302
    173    O    -8.392    -5.309    -0.702
    174    C    -7.878    -5.446    0.637
    175    H    -8.431    -6.136    1.104
    176    N    -6.459    -5.844    0.527
    177    C    -5.636    -6.210    1.567
    178    N    -5.123    -6.753    4.958
    179    H    -4.430    -7.039    5.635
    180    H    -6.036    -6.517    5.320
    181    N    -5.979    -6.261    2.875
    182    C    -4.963    -6.655    3.646
    183    N    -3.718    -6.972    3.167
    184    H    -3.007    -7.264    3.852
    185    C    -3.342    -6.931    1.836
    186    O    -2.201    -7.247    1.511
    187    C    -4.416    -6.511    1.003
    188    N    -4.458    -6.334    -0.378
    189    C    -5.678    -5.944    -0.589
    190    H    -5.805    -5.789    -1.569
    191    C    -8.121    -4.082    1.294
    192    H    -7.264    -3.785    1.715
    193    O    -9.211    -4.121    2.222
    194    H    -9.317    -4.954    2.688
    195    C    -8.443    -3.164    0.126
    196    H    -7.602    -2.897    -0.344
    197    O    -9.287    -2.078    0.544
    198    P    -8.637    -0.633    0.885
    199    O    -9.744    0.329    1.082
    200    O    -7.563    -0.326    -0.092
    201    O    -7.946    -0.900    2.315
    202    C    -8.753    -1.192    3.462
    203    H    -9.362    -1.955    3.246
    204    H    -9.165    -0.344    3.795
    205    C    -7.913    -1.693    4.631
    206    H    -8.462    -1.893    5.443
    207    O    -7.237    -2.861    4.237
    208    C    -6.014    -2.980    4.989
    209    H    -6.101    -3.778    5.586
    210    N    -4.905    -3.103    4.016
    211    C    -5.065    -2.700    2.717
    212    H    -5.869    -2.313    2.266
    213    C    -3.705    -3.624    4.464
    214    O    -3.535    -3.991    5.621
    215    N    -2.695    -3.705    3.528
    216    H    -1.792    -4.088    3.843
    217    C    -2.773    -3.322    2.206
    218    O    -1.802    -3.439    1.466
    219    C    -4.058    -2.791    1.820
    220    H    -4.029    -2.539    0.853
    221    C    -5.963    -1.721    5.848
    222    H    -5.019    -1.393    5.882
    223    O    -6.532    -1.930    7.146
    224    H    -6.388    -2.804    7.516
    225    C    -6.795    -0.745    5.039
    226    H    -6.297    -0.458    4.221
    227    O    -7.269    0.328    5.860
    228    P    -6.480    1.737    5.879
    229    O    -7.249    2.684    6.715
    230    O    -6.125    2.096    4.487
    231    O    -5.127    1.355    6.663
    232    C    -5.192    0.944    8.033
    233    H    -5.826    0.175    8.112
    234    H    -5.355    1.747    8.606
    235    C    -3.867    0.387    8.543
    236    H    -3.919    0.085    9.495
    237    O    -3.492    -0.704    7.735
    238    C    -2.059    -0.865    7.788
    239    H    -1.869    -1.687    8.325
    240    N    -1.577    -0.972    6.392
    241    C    -2.352    -0.543    5.349
    242    H    -3.271    -0.150    5.359
    243    C    -0.315    -1.496    6.181
    244    O    0.396    -1.892    7.099
    245    N    0.106    -1.553    4.871
    246    H    1.044    -1.940    4.694
    247    C    -0.608    -1.141    3.765
    248    O    -0.125    -1.235    2.641
    249    C    -1.916    -0.611    4.071
    250    H    -2.365    -0.341    3.219
    251    C    -1.543    0.360    8.552
    252    H    -0.745    0.725    8.072
    253    O    -1.281    0.058    9.924
    254    H    -0.946    -0.827    10.087
    255    C    -2.698    1.342    8.412
    256    H    -2.699    1.734    7.492
    257    O    -2.713    2.288    9.487
    258    P    -2.026    3.731    9.318
    259    O    -2.252    4.499    10.562
    260    O    -2.443    4.283    8.012
    261    O    -0.469    3.347    9.234
    262    C    0.176    2.718    10.349
    263    H    -0.328    1.889    10.591
    264    H    0.328    3.400    11.064
    265    C    1.570    2.225    9.992
    266    H    2.026    1.736    10.735
    267    O    1.478    1.355    8.844
    268    C    2.752    1.257    8.183
    269    H    3.181    0.389    8.433
    270    N    2.509    1.367    6.727
    271    C    1.354    1.915    6.248
    272    H    0.563    2.286    6.734
    273    C    1.144    2.021    4.925
    274    H    0.387    2.380    4.379
    275    C    3.499    0.907    5.871
    276    O    4.535    0.423    6.323
    277    N    3.294    1.011    4.531
    278    C    2.165    1.546    4.049
    279    N    2.000    1.640    2.734
    280    H    2.733    1.305    2.125
    281    H    1.157    2.040    2.347
    282    C    3.534    2.405    8.832
    283    H    3.991    2.904    8.096
    284    O    4.440    1.932    9.833
    285    H    4.802    1.058    9.671
    286    C    2.492    3.309    9.471
    287    H    2.010    3.838    8.773
    288    O    3.072    4.073    10.534
    289    P    3.488    5.607    10.286
    290    O    4.069    6.135    11.538
    291    O    2.351    6.306    9.642
    292    O    4.666    5.463    9.200
    293    C    5.892    4.801    9.534
    294    H    5.682    3.904    9.924
    295    H    6.462    5.423    10.070
    296    C    6.711    4.500    8.289
    297    H    7.556    3.997    8.469
    298    O    5.910    3.751    7.381
    299    C    6.339    4.020    6.033
    300    H    6.724    3.177    5.658
    301    N    5.148    4.489    5.285
    302    C    4.042    4.935    5.950
    303    H    3.872    5.024    6.931
    304    C    2.953    5.343    5.279
    305    H    2.062    5.695    5.567
    306    C    5.186    4.448    3.896
    307    O    6.195    4.054    3.317
    308    N    4.083    4.860    3.208
    309    C    2.995    5.296    3.853
    310    N    1.931    5.686    3.157
    311    H    1.966    5.645    2.148
    312    H    1.101    6.018    3.627
    313    C    7.459    5.048    6.198
    314    H    7.413    5.704    5.445
    315    O    8.742    4.430    6.330
    316    H    8.864    3.634    5.808
    317    C    7.049    5.742    7.485
    318    H    6.216    6.277    7.346
    319    O    8.139    6.473    8.060
    320    P    8.228    8.070    7.842
    321    O    9.334    8.586    8.680
    322    O    6.874    8.669    7.955
    323    O    8.685    8.152    6.305
    324    C    9.969    7.649    5.927
    325    H    10.025    6.681    6.173
    326    H    10.676    8.263    6.278
    327    C    10.167    7.668    4.419
    328    H    11.075    7.346    4.150
    329    O    9.172    6.838    3.795
    330    C    8.908    7.369    2.483
    331    H    9.198    6.678    1.821
    332    N    7.454    7.650    2.410
    333    C    6.721    7.812    3.550
    334    H    7.003    7.784    4.509
    335    C    5.400    8.052    3.489
    336    H    4.698    8.196    4.186
    337    C    6.864    7.728    1.154
    338    O    7.542    7.590    0.138
    339    N    5.525    7.973    1.084
    340    C    4.797    8.133    2.198
    341    N    3.492    8.372    2.098
    342    H    3.075    8.428    1.180
    343    H    2.926    8.496    2.925
    344    C    9.804    8.603    2.341
    345    H    9.310    9.314    1.840
    346    O    11.069    8.287    1.754
    347    H    11.043    7.608    1.076
    348    C    9.945    9.028    3.793
    349    H    9.080    9.403    4.127
    350    O    11.085    9.879    3.976
    351    P    10.892    11.487    3.973
    352    O    12.196    12.102    4.307
    353    O    9.680    11.856    4.751
    354    O    10.587    11.766    2.417
    355    C    11.568    11.444    1.425
    356    H    11.797    10.473    1.497
    357    H    12.315    12.107    1.478
    358    C    11.012    11.604    0.014
    359    H    11.684    11.376    -0.691
    360    O    9.858    10.769    -0.153
    361    C    9.005    11.362    -1.148
    362    H    9.053    10.778    -1.959
    363    N    7.644    11.423    -0.570
    364    C    7.467    11.383    0.781
    365    H    8.139    11.332    1.519
    366    C    6.235    11.411    1.313
    367    H    5.895    11.390    2.253
    368    C    6.563    11.497    -1.438
    369    O    6.743    11.543    -2.653
    370    N    5.310    11.527    -0.906
    371    C    5.126    11.486    0.420
    372    N    3.893    11.506    0.912
    373    H    3.113    11.552    0.272
    374    H    3.735    11.476    1.909
    375    C    9.613    12.726    -1.480
    376    H    8.878    13.404    -1.512
    377    O    10.376    12.695    -2.689
    378    H    10.040    12.103    -3.365
    379    C    10.490    13.002    -0.266
    380    H    9.919    13.296    0.500
    381    O    11.562    13.893    -0.589
    382    P    11.388    15.472    -0.311
    383    O    12.631    16.151    -0.742
    384    O    10.864    15.685    1.060
    385    O    10.225    15.836    -1.358
    386    C    10.438    15.613    -2.756
    387    H    10.724    14.665    -2.895
    388    H    11.026    16.337    -3.115
    389    C    9.150    15.740    -3.555
    390    H    9.305    15.520    -4.518
    391    O    8.163    14.876    -3.040
    392    C    6.892    15.394    -3.469
    393    H    6.611    14.840    -4.253
    394    N    5.957    15.270    -2.330
    395    C    6.425    15.141    -1.050
    396    H    7.367    15.107    -0.715
    397    C    4.603    15.295    -2.604
    398    O    4.161    15.410    -3.743
    399    N    3.764    15.188    -1.514
    400    H    2.750    15.210    -1.696
    401    C    4.150    15.054    -0.197
    402    O    3.308    14.958    0.691
    403    C    5.581    15.036    0.000
    404    H    5.774    14.939    0.976
    405    C    7.112    16.836    -3.932
    406    H    6.490    17.429    -3.420
    407    O    6.955    16.974    -5.350
    408    H    6.298    16.395    -5.743
    409    C    8.542    17.128    -3.500
    410    H    8.542    17.446    -2.552
    411    O    9.182    18.005    -4.438
    412    P    9.370    19.565    -4.073
    413    O    9.916    20.246    -5.270
    414    O    10.070    19.687    -2.772
    415    O    7.847    20.047    -3.872
    416    C    6.940    20.073    -4.980
    417    H    6.959    19.184    -5.437
    418    H    7.122    20.887    -5.531
    419    C    5.494    20.237    -4.520
    420    H    4.885    20.371    -5.302
    421    O    5.079    19.087    -3.803
    422    C    4.095    19.475    -2.822
    423    H    3.230    19.052    -3.093
    424    N    4.568    19.024    -1.498
    425    C    3.786    18.759    -0.396
    426    N    0.657    18.494    1.088
    427    H    0.190    18.275    1.956
    428    H    0.065    18.733    0.305
    429    N    2.435    18.813    -0.345
    430    C    1.964    18.501    0.865
    431    N    2.759    18.164    1.930
    432    H    2.290    17.941    2.820
    433    C    4.139    18.100    1.903
    434    O    4.755    17.790    2.915
    435    C    4.653    18.429    0.621
    436    N    5.970    18.483    0.174
    437    C    5.848    18.835    -1.067
    438    H    6.757    18.900    -1.478
    439    C    3.960    20.987    -2.926
    440    H    3.916    21.366    -2.002
    441    O    2.840    21.370    -3.735
    442    H    2.081    20.785    -3.679
    443    C    5.277    21.402    -3.569
    444    H    6.002    21.399    -2.880
    445    O    5.141    22.645    -4.266
    446    P    5.789    23.974    -3.620
    447    O    5.540    25.101    -4.543
    448    O    7.172    23.674    -3.182
    449    O    4.879    24.164    -2.305
    450    C    5.301    24.981    -1.214
    451    H    5.335    25.934    -1.515
    452    H    6.127    24.586    -0.812
    453    C    4.280    24.972    -0.081
    454    H    4.663    25.402    0.736
    455    O    3.142    25.714    -0.505
    456    C    1.974    24.874    -0.533
    457    H    1.293    25.327    0.042
    458    N    1.532    24.774    -1.943
    459    C    2.345    24.236    -2.901
    460    H    3.265    23.852    -2.825
    461    C    1.944    24.161    -4.182
    462    H    2.374    23.813    -5.015
    463    C    0.269    25.257    -2.260
    464    O    -0.448    25.731    -1.384
    465    N    -0.143    25.184    -3.557
    466    C    0.648    24.660    -4.502
    467    N    0.216    24.610    -5.760
    468    H    -0.703    24.970    -5.975
    469    H    0.795    24.219    -6.489
    470    C    2.338    23.524    0.095
    471    H    2.153    22.819    -0.590
    472    O    1.640    23.291    1.322
    473    H    0.767    23.686    1.373
    474    C    3.838    23.581    0.355
    475    H    4.268    22.902    -0.240
    476    O    4.106    23.431    1.758
    477    P    3.917    22.001    2.492
    478    O    4.778    21.984    3.697
    479    O    4.056    20.934    1.476
    480    O    2.373    22.039    2.976
    481    C    1.914    22.996    3.952
    482    H    2.030    23.918    3.583
    483    H    2.335    22.788    4.835
    484    C    0.407    22.889    4.223
    485    H    0.159    23.454    5.010
    486    O    -0.299    23.357    3.074
    487    C    -1.279    22.400    2.664
    488    H    -2.160    22.758    2.974
    489    N    -1.231    22.282    1.194
    490    C    -1.761    22.406    -0.931
    491    N    -0.433    21.986    -0.885
    492    C    -0.189    21.930    0.388
    493    H    0.754    21.627    0.526
    494    N    -3.880    23.058    -1.683
    495    C    -4.247    23.194    -0.409
    496    H    -5.160    23.481    -0.120
    497    N    -3.498    22.982    0.670
    498    C    -2.253    22.585    0.329
    499    C    -2.635    22.665    -1.989
    500    N    -2.272    22.579    -3.265
    501    H    -2.944    22.812    -3.982
    502    H    -1.333    22.282    -3.488
    503    C    -1.002    21.092    3.374
    504    H    -0.497    20.504    2.742
    505    O    -2.210    20.493    3.850
    506    H    -2.984    20.653    3.305
    507    C    -0.091    21.469    4.537
    508    H    0.687    20.841    4.523
    509    O    -0.859    21.497    5.748
    510    P    -1.460    20.139    6.390
    511    O    -1.552    20.332    7.855
    512    O    -0.686    18.998    5.847
    513    O    -2.961    20.060    5.798
    514    C    -4.092    19.805    6.650
    515    H    -4.141    20.519    7.348
    516    H    -4.062    18.853    6.954
    517    C    -5.415    19.922    5.890
    518    H    -6.170    19.573    6.445
    519    O    -5.651    21.308    5.598
    520    C    -5.881    21.468    4.193
    521    H    -6.871    21.449    4.053
    522    N    -5.323    22.786    3.754
    523    C    -4.292    23.371    4.449
    524    H    -3.819    23.052    5.270
    525    C    -5.858    23.401    2.622
    526    O    -6.771    22.916    1.966
    527    N    -5.289    24.603    2.260
    528    H    -5.676    25.069    1.427
    529    C    -4.253    25.248    2.900
    530    O    -3.824    26.315    2.471
    531    C    -3.755    24.553    4.061
    532    H    -3.010    25.085    4.464
    533    C    -5.256    20.237    3.519
    534    H    -4.276    20.398    3.401
    535    O    -5.904    19.929    2.278
    536    H    -6.216    20.691    1.784
    537    C    -5.458    19.147    4.579
    538    H    -4.676    18.525    4.543
    539    O    -6.745    18.534    4.405
    540    P    -6.916    17.145    3.601
    541    O    -8.321    16.705    3.752
    542    O    -5.817    16.236    3.994
    543    O    -6.688    17.582    2.062
    544    C    -7.619    18.446    1.389
    545    H    -7.623    19.337    1.843
    546    H    -8.492    17.968    1.287
    547    C    -7.172    18.743    -0.042
    548    H    -7.873    19.276    -0.517
    549    O    -5.927    19.481    -0.059
    550    C    -5.402    19.345    -1.379
    551    H    -5.680    20.166    -1.877
    552    N    -3.936    19.254    -1.279
    553    C    -1.798    19.336    -1.758
    554    N    -1.880    18.972    -0.414
    555    C    -3.161    18.944    -0.197
    556    H    -3.324    18.691    0.757
    557    N    -0.994    19.895    -3.886
    558    C    -2.257    20.030    -4.285
    559    H    -2.525    20.289    -5.213
    560    N    -3.349    19.853    -3.554
    561    C    -3.043    19.506    -2.288
    562    C    -0.719    19.547    -2.619
    563    N    0.545    19.417    -2.244
    564    H    1.276    19.583    -2.921
    565    H    0.748    19.155    -1.290
    566    C    -6.064    18.120    -2.026
    567    H    -5.344    17.480    -2.296
    568    O    -6.901    18.499    -3.128
    569    H    -6.593    19.259    -3.628
    570    C    -6.872    17.507    -0.876
    571    H    -6.284    16.894    -0.349
    572    O    -8.069    16.908    -1.390
    573    P    -8.109    15.323    -1.687
    574    O    -9.433    15.006    -2.269
    575    O    -7.647    14.601    -0.480
    576    O    -6.996    15.141    -2.844
    577    C    -7.177    15.770    -4.118
    578    H    -7.386    16.738    -3.977
    579    H    -7.817    15.227    -4.661
    580    C    -5.902    15.788    -4.959
    581    H    -6.111    16.163    -5.862
    582    O    -4.883    16.609    -4.331
    583    C    -3.596    16.089    -4.725
    584    H    -3.179    16.788    -5.306
    585    N    -2.815    15.848    -3.498
    586    C    -1.164    15.547    -2.083
    587    N    -2.338    15.432    -1.342
    588    C    -3.264    15.615    -2.230
    589    H    -4.158    15.545    -1.787
    590    N    1.092    15.615    -2.711
    591    C    0.695    15.858    -3.962
    592    H    1.321    15.987    -4.731
    593    N    -0.556    15.969    -4.398
    594    C    -1.442    15.799    -3.395
    595    C    0.185    15.454    -1.734
    596    N    0.595    15.234    -0.488
    597    H    1.586    15.192    -0.299
    598    H    -0.094    15.114    0.240
    599    C    -3.827    14.819    -5.559
    600    H    -3.199    14.107    -5.244
    601    O    -3.719    15.080    -6.961
    602    H    -3.062    15.737    -7.201
    603    C    -5.249    14.436    -5.166
    604    H    -5.221    13.951    -4.292
    605    O    -5.898    13.730    -6.238
    606    P    -5.775    12.117    -6.329
    607    O    -6.597    11.667    -7.475
    608    O    -5.989    11.518    -4.990
    609    O    -4.224    11.925    -6.723
    610    C    -3.693    12.550    -7.898
    611    H    -3.896    13.529    -7.866
    612    H    -3.990    12.036    -8.703
    613    C    -2.172    12.475    -7.936
    614    H    -1.818    12.882    -8.778
    615    O    -1.597    13.158    -6.807
    616    C    -0.283    12.603    -6.601
    617    H    0.366    13.273    -6.961