!*** FMO 5.2 (Gamess) INPUT generated by Facio 21.1.1.32 ***
 $CONTRL RUNTYP=OPTFMO NPRINT=-5 ISPHER=-1 MAXIT=50 $END
 $SYSTEM MWORDS=29 $END
 $GDDI NGROUP=1 $END
 $INTGRL NINTIC=-9000000 $END
 $SCF DIRSCF=.FALSE. NPUNCH=0 $END
!*** NumCPU : 2  MemPerNode : 512MB
 $FMOPRP
    NAODIR=210
    NGRFMO(1)=1, 1, 0, 0, 0,   0, 0, 0, 0, 0
    NPRINT=9
 $END
 $FMO
      SCFTYP(1)=RHF
      MODGRD=10
      MODMUL=0
      MAXCAO=5
      MAXBND=34
      NLAYER=1
      NFRAG=32
      ICHARG(1)=-1, -1, -1, -1, -1, -1, -1, -1, -1, -1, 
-1, -1, -1, -1, -1, -1, -1, -1, -1, -1, 
-1, -1, -1, -1, -1, -1, -1, -1, -1, -1, 
-1, 0
      FRGNAM(1)=Frag1, Frag2, Frag3, Frag4, Frag5, Frag6, Frag7, Frag8, Frag9, Frag10, Frag11, Frag12, Frag13, Frag14, Frag15, Frag16, Frag17, Frag18, Frag19, Frag20, Frag21, Frag22, Frag23, Frag24, Frag25, Frag26, Frag27, Frag28, Frag29, Frag30, Frag31, Frag32
      indat(1)=0
               1   -36   0
               37   -69   0
               70   -103   0
               104   -134   0
               135   -167   0
               168   -201   0
               202   -231   0
               232   -261   0
               262   -292   0
               293   -323   0
               324   -354   0
               355   -385   0
               386   -415   0
               416   -449   0
               450   -480   0
               481   -513   0
               514   -543   0
               544   -576   0
               577   -609   0
               610   -643   0
               644   -677   0
               678   -710   0
               711   -740   0
               741   -774   0
               775   -807   0
               808   -840   0
               841   -871   0
               872   -902   0
               903   -936   0
               937   -966   0
               967   -996   0
               997   -1024   0
 $END

 $FMOBND
   -37   36       3-21G    MINI
   -70   69       3-21G    MINI
   -104   103       3-21G    MINI
   -135   134       3-21G    MINI
   -168   167       3-21G    MINI
   -202   201       3-21G    MINI
   -232   231       3-21G    MINI
   -262   261       3-21G    MINI
   -293   292       3-21G    MINI
   -324   323       3-21G    MINI
   -355   354       3-21G    MINI
   -386   385       3-21G    MINI
   -416   415       3-21G    MINI
   -450   449       3-21G    MINI
   -481   480       3-21G    MINI
   -514   513       3-21G    MINI
   -544   543       3-21G    MINI
   -577   576       3-21G    MINI
   -610   609       3-21G    MINI
   -644   643       3-21G    MINI
   -678   677       3-21G    MINI
   -711   710       3-21G    MINI
   -741   740       3-21G    MINI
   -775   774       3-21G    MINI
   -808   807       3-21G    MINI
   -841   840       3-21G    MINI
   -872   871       3-21G    MINI
   -903   902       3-21G    MINI
   -937   936       3-21G    MINI
   -967   966       3-21G    MINI
   -997   996       3-21G    MINI
 $END
 $FMOHYB
 3-21G        9   5
   1 0  -0.070459   0.164841   0.000000   0.000000   0.502116
         0.466939   0.000000   0.000000   0.418036
   0 1  -0.070465   0.164857   0.473392   0.000000  -0.167359
         0.466967   0.394111   0.000000  -0.139327
   0 1  -0.070465   0.164857  -0.236695  -0.409969  -0.167359
         0.466967  -0.197055  -0.341311  -0.139327
   0 1  -0.070465   0.164857  -0.236695   0.409969  -0.167359
         0.466967  -0.197055   0.341311  -0.139327
   0 1   1.006716   0.074826   0.000000   0.000000   0.000000
        -0.143830   0.000000   0.000000  -0.000003
 MINI         5   5
   1 0  -0.104883   0.308874   0.000000   0.000000   0.521806
   0 1  -0.104883   0.308874   0.491961   0.000000  -0.173934
   0 1  -0.104883   0.308876  -0.245980  -0.426050  -0.173933
   0 1  -0.104883   0.308876  -0.245980   0.426050  -0.173933
   0 1   0.988209   0.063992   0.000000   0.000000   0.000000
 $END

 $DATA
 FMO calculation : XXNAMEXX
 C1 
 C.1-1    6
      N21 3
   
 O.1-1    8
      N21 3
   
 N.1-1    7
      N21 3
   
 H.1-1    1
      N21 3
   
 P.1-1   15
      N21 3
   
 $END
 $FMOXYZ
    1    H    6.955    -22.132    -6.187
    2    O    6.057    -21.840    -6.517
    3    C    5.905    -22.251    -7.881
    4    H    5.898    -23.250    -7.921
    5    H    6.573    -21.764    -8.444
    6    C    4.551    -21.838    -8.454
    7    H    4.523    -22.039    -9.433
    8    O    3.515    -22.557    -7.805
    9    C    2.288    -21.843    -8.060
    10    H    1.867    -22.269    -8.860
    11    N    1.423    -21.972    -6.863
    12    C    0.054    -21.816    -6.819
    13    N    -2.957    -21.205    -8.434
    14    H    -3.951    -21.111    -8.282
    15    H    -2.634    -21.100    -9.385
    16    N    -0.748    -21.549    -7.877
    17    C    -2.030    -21.452    -7.519
    18    N    -2.479    -21.604    -6.233
    19    H    -3.492    -21.509    -6.070
    20    C    -1.683    -21.875    -5.137
    21    O    -2.190    -21.989    -4.024
    22    C    -0.312    -21.982    -5.502
    23    N    0.805    -22.245    -4.713
    24    C    1.782    -22.226    -5.566
    25    H    2.639    -22.409    -5.084
    26    C    2.680    -20.403    -8.410
    27    H    2.278    -19.805    -7.716
    28    O    2.251    -20.042    -9.724
    29    H    1.444    -20.471    -10.019
    30    C    4.196    -20.360    -8.283
    31    H    4.440    -20.072    -7.357
    32    O    4.857    -19.418    -9.158
    33    P    5.232    -17.857    -8.878
    34    O    5.930    -17.297    -10.043
    35    O    5.846    -17.598    -7.574
    36    O    3.804    -17.154    -8.839
    37    C    2.957    -17.249    -9.977
    38    H    2.884    -18.208    -10.249
    39    H    3.260    -16.589    -10.664
    40    C    1.521    -16.842    -9.690
    41    H    1.013    -16.889    -10.550
    42    O    0.923    -17.756    -8.740
    43    C    -0.258    -17.083    -8.263
    44    H    -1.000    -17.323    -8.889
    45    N    -0.527    -17.549    -6.887
    46    C    -1.544    -18.185    -5.046
    47    N    -0.183    -18.187    -4.756
    48    C    0.356    -17.804    -5.874
    49    H    1.349    -17.772    -5.762
    50    N    -3.873    -18.384    -4.872
    51    C    -3.961    -17.995    -6.145
    52    H    -4.825    -17.896    -6.639
    53    N    -2.957    -17.680    -6.960
    54    C    -1.766    -17.799    -6.337
    55    C    -2.672    -18.493    -4.281
    56    N    -2.600    -18.885    -3.012
    57    H    -3.454    -19.094    -2.515
    58    H    -1.693    -18.964    -2.575
    59    C    0.018    -15.580    -8.370
    60    H    0.151    -15.241    -7.439
    61    O    -1.016    -14.903    -9.085
    62    H    -1.891    -15.286    -8.991
    63    C    1.321    -15.436    -9.139
    64    H    2.057    -15.232    -8.493
    65    O    1.200    -14.484    -10.219
    66    P    0.915    -12.895    -10.047
    67    O    1.035    -12.225    -11.360
    68    O    1.716    -12.373    -8.921
    69    O    -0.637    -12.808    -9.638
    70    C    -1.665    -13.155    -10.570
    71    H    -1.475    -14.064    -10.941
    72    H    -1.787    -12.401    -11.216
    73    C    -3.023    -13.298    -9.895
    74    H    -3.739    -13.565    -10.540
    75    O    -2.960    -14.262    -8.847
    76    C    -4.151    -14.132    -8.041
    77    H    -4.833    -14.785    -8.370
    78    N    -3.751    -14.354    -6.637
    79    C    -4.600    -14.474    -5.564
    80    N    -7.817    -14.528    -4.261
    81    H    -8.339    -14.626    -3.402
    82    H    -8.357    -14.392    -5.103
    83    N    -5.952    -14.413    -5.608
    84    C    -6.500    -14.558    -4.402
    85    N    -5.778    -14.750    -3.252
    86    H    -6.305    -14.856    -2.373
    87    C    -4.400    -14.813    -3.178
    88    O    -3.854    -14.986    -2.093
    89    C    -3.800    -14.658    -4.459
    90    N    -2.455    -14.659    -4.825
    91    C    -2.498    -14.477    -6.109
    92    H    -1.564    -14.463    -6.467
    93    C    -4.620    -12.710    -8.374
    94    H    -4.746    -12.226    -7.508
    95    O    -5.786    -12.710    -9.208
    96    H    -6.386    -13.445    -9.065
    97    C    -3.469    -12.074    -9.133
    98    H    -2.742    -11.800    -8.504
    99    O    -3.982    -11.166    -10.099
    100    P    -4.075    -9.612    -9.751
    101    O    -4.678    -8.958    -10.947
    102    O    -2.721    -9.246    -9.242
    103    O    -5.141    -9.626    -8.531
    104    C    -6.516    -9.931    -8.807
    105    H    -6.571    -10.840    -9.221
    106    H    -6.926    -9.165    -9.302
    107    C    -7.322    -10.040    -7.519
    108    H    -8.294    -10.159    -7.721
    109    O    -6.877    -11.133    -6.715
    110    C    -7.272    -10.849    -5.360
    111    H    -8.052    -11.443    -5.163
    112    N    -6.104    -11.115    -4.500
    113    C    -4.834    -11.044    -4.993
    114    H    -4.508    -10.855    -5.919
    115    C    -3.775    -11.244    -4.189
    116    H    -2.787    -11.240    -4.341
    117    C    -6.348    -11.397    -3.167
    118    O    -7.501    -11.471    -2.750
    119    N    -5.283    -11.598    -2.346
    120    C    -4.032    -11.527    -2.815
    121    N    -3.011    -11.695    -1.982
    122    H    -3.201    -11.874    -1.006
    123    H    -2.059    -11.645    -2.316
    124    C    -7.731    -9.387    -5.306
    125    H    -7.276    -8.930    -4.542
    126    O    -9.162    -9.275    -5.268
    127    H    -9.609    -9.962    -4.768
    128    C    -7.173    -8.844    -6.609
    129    H    -6.200    -8.644    -6.491
    130    O    -8.074    -7.878    -7.134
    131    P    -7.816    -6.360    -6.753
    132    O    -8.772    -5.575    -7.586
    133    O    -6.336    -6.190    -6.851
    134    O    -8.278    -6.362    -5.201
    135    C    -9.665    -6.562    -4.878
    136    H    -9.938    -7.479    -5.168
    137    H    -10.194    -5.786    -5.220
    138    C    -9.882    -6.548    -3.371
    139    H    -10.849    -6.591    -3.121
    140    O    -9.176    -7.674    -2.747
    141    C    -8.989    -7.313    -1.360
    142    H    -9.663    -7.834    -0.837
    143    N    -7.607    -7.688    -0.988
    144    C    -5.825    -8.283    0.152
    145    N    -5.426    -8.216    -1.182
    146    C    -6.515    -7.861    -1.796
    147    H    -6.326    -7.783    -2.775
    148    N    -5.830    -8.571    2.475
    149    C    -7.122    -8.242    2.474
    150    H    -7.688    -8.200    3.297
    151    N    -7.867    -7.922    1.419
    152    C    -7.146    -7.962    0.281
    153    C    -5.141    -8.605    1.327
    154    N    -3.853    -8.937    1.349
    155    H    -3.419    -9.157    2.234
    156    H    -3.339    -8.961    0.480
    157    C    -9.305    -5.816    -1.232
    158    H    -8.568    -5.373    -0.722
    159    O    -10.587    -5.591    -0.642
    160    H    -10.842    -6.229    0.029
    161    C    -9.251    -5.356    -2.680
    162    H    -8.297    -5.279    -2.970
    163    O    -9.804    -4.069    -2.993
    164    P    -8.884    -2.753    -3.207
    165    O    -9.757    -1.674    -3.684
    166    O    -7.585    -2.942    -3.858
    167    O    -8.564    -2.549    -1.665
    168    C    -9.692    -2.550    -0.804
    169    H    -10.329    -3.260    -1.103
    170    H    -10.038    -1.616    -0.720
    171    C    -9.354    -2.942    0.621
    172    H    -10.150    -3.117    1.200
    173    O    -8.543    -4.106    0.587
    174    C    -7.849    -4.207    1.849
    175    H    -8.331    -4.884    2.404
    176    N    -6.459    -4.633    1.563
    177    C    -5.506    -4.976    2.496
    178    N    -4.555    -5.424    5.805
    179    H    -3.780    -5.695    6.394
    180    H    -5.412    -5.171    6.276
    181    N    -5.675    -4.986    3.839
    182    C    -4.568    -5.365    4.481
    183    N    -3.397    -5.704    3.853
    184    H    -2.603    -5.980    4.448
    185    C    -3.198    -5.704    2.484
    186    O    -2.111    -6.037    2.022
    187    C    -4.371    -5.301    1.787
    188    N    -4.594    -5.164    0.418
    189    C    -5.829    -4.772    0.358
    190    H    -6.084    -4.644    -0.601
    191    C    -8.002    -2.824    2.502
    192    H    -7.106    -2.514    2.820
    193    O    -8.964    -2.845    3.559
    194    H    -8.994    -3.661    4.064
    195    C    -8.430    -1.970    1.320
    196    H    -7.642    -1.789    0.731
    197    O    -8.873    -0.617    1.506
    198    P    -8.029    0.722    1.156
    199    O    -8.932    1.875    1.190
    200    O    -7.046    0.669    0.084
    201    O    -7.158    0.681    2.478
    202    C    -7.898    0.584    3.682
    203    H    -8.560    -0.161    3.598
    204    H    -8.241    1.491    3.927
    205    C    -7.029    0.182    4.856
    206    H    -7.520    0.144    5.726
    207    O    -6.494    -1.091    4.575
    208    C    -5.239    -1.233    5.271
    209    H    -5.353    -1.942    5.967
    210    N    -4.206    -1.597    4.268
    211    C    -4.405    -1.342    2.936
    212    H    -5.198    -0.941    2.478
    213    C    -3.029    -2.169    4.719
    214    O    -2.824    -2.408    5.903
    215    N    -2.086    -2.453    3.753
    216    H    -1.202    -2.875    4.071
    217    C    -2.208    -2.228    2.398
    218    O    -1.296    -2.521    1.633
    219    C    -3.463    -1.632    2.011
    220    H    -3.469    -1.501    1.020
    221    C    -5.036    0.118    5.964
    222    H    -4.065    0.354    5.938
    223    O    -5.541    0.089    7.301
    224    H    -5.441    -0.752    7.754
    225    C    -5.797    1.055    5.044
    226    H    -5.328    1.149    4.166
    227    O    -5.938    2.458    5.346
    228    P    -5.156    3.742    4.722
    229    O    -5.742    5.000    5.198
    230    O    -4.743    3.715    3.329
    231    O    -3.813    3.496    5.524
    232    C    -3.984    3.339    6.921
    233    H    -4.725    2.689    7.087
    234    H    -4.049    4.243    7.345
    235    C    -2.788    2.705    7.607
    236    H    -2.910    2.589    8.593
    237    O    -2.539    1.448    7.025
    238    C    -1.147    1.115    7.209
    239    H    -1.103    0.388    7.894
    240    N    -0.623    0.687    5.891
    241    C    -1.280    1.015    4.737
    242    H    -2.133    1.522    4.612
    243    C    0.560    -0.029    5.867
    244    O    1.164    -0.338    6.889
    245    N    1.027    -0.383    4.621
    246    H    1.907    -0.917    4.583
    247    C    0.431    -0.092    3.411
    248    O    0.946    -0.456    2.360
    249    C    -0.800    0.654    3.525
    250    H    -1.167    0.819    2.609
    251    C    -0.495    2.379    7.780
    252    H    0.370    2.542    7.306
    253    O    -0.344    2.306    9.199
    254    H    -0.142    1.432    9.541
    255    C    -1.493    3.451    7.370
    256    H    -1.401    3.642    6.393
    257    O    -1.447    4.618    8.198
    258    P    -0.663    5.940    7.710
    259    O    -0.907    6.985    8.726
    260    O    -0.882    6.234    6.275
    261    O    0.822    5.368    7.874
    262    C    1.202    4.857    9.155
    263    H    0.533    4.172    9.444
    264    H    1.383    5.624    9.771
    265    C    2.519    4.104    9.079
    266    H    2.796    3.709    9.955
    267    O    2.421    3.051    8.100
    268    C    3.730    2.655    7.657
    269    H    3.982    1.804    8.117
    270    N    3.673    2.523    6.185
    271    C    2.682    3.123    5.464
    272    H    1.912    3.687    5.763
    273    C    2.640    3.000    4.126
    274    H    2.017    3.347    3.425
    275    C    4.665    1.775    5.570
    276    O    5.553    1.249    6.239
    277    N    4.630    1.646    4.218
    278    C    3.663    2.229    3.497
    279    N    3.661    2.089    2.176
    280    H    4.392    1.544    1.742
    281    H    2.942    2.520    1.613
    282    C    4.609    3.791    8.193
    283    H    5.209    4.078    7.446
    284    O    5.309    3.408    9.383
    285    H    5.548    2.479    9.432
    286    C    3.660    4.929    8.530
    287    H    3.357    5.389    7.696
    288    O    4.211    5.664    9.618
    289    P    4.886    7.069    9.297
    290    O    5.355    7.674    10.575
    291    O    3.875    7.739    8.428
    292    O    6.158    6.601    8.409
    293    C    7.256    5.894    9.012
    294    H    6.902    5.090    9.490
    295    H    7.813    6.541    9.532
    296    C    8.177    5.347    7.933
    297    H    8.946    4.817    8.290
    298    O    7.412    4.523    7.059
    299    C    8.006    4.542    5.748
    300    H    8.352    3.625    5.551
    301    N    6.951    4.971    4.799
    302    C    5.824    5.596    5.250
    303    H    5.557    5.852    6.179
    304    C    4.855    5.970    4.398
    305    H    3.973    6.425    4.520
    306    C    7.136    4.708    3.446
    307    O    8.162    4.155    3.059
    308    N    6.156    5.085    2.575
    309    C    5.048    5.696    3.011
    310    N    4.106    6.047    2.141
    311    H    4.246    5.844    1.162
    312    H    3.263    6.509    2.452
    313    C    9.189    5.500    5.895
    314    H    9.279    6.030    5.052
    315    O    10.389    4.817    6.268
    316    H    10.489    3.939    5.893
    317    C    8.727    6.421    7.010
    318    H    7.974    7.002    6.701
    319    O    9.840    7.125    7.581
    320    P    10.024    8.693    7.266
    321    O    11.043    9.306    8.150
    322    O    8.641    9.223    7.249
    323    O    10.604    8.723    5.766
    324    C    11.960    8.353    5.489
    325    H    12.097    7.398    5.752
    326    H    12.572    9.040    5.882
    327    C    12.271    8.381    4.003
    328    H    13.224    8.150    3.809
    329    O    11.411    7.409    3.363
    330    C    11.177    7.846    2.010
    331    H    11.571    7.160    1.398
    332    N    9.707    7.964    1.824
    333    C    8.882    8.106    2.903
    334    H    9.099    8.145    3.878
    335    C    7.552    8.220    2.746
    336    H    6.793    8.329    3.388
    337    C    9.197    7.933    0.529
    338    O    9.953    7.814    -0.433
    339    N    7.849    8.048    0.360
    340    C    7.035    8.188    1.416
    341    N    5.723    8.301    1.220
    342    H    5.367    8.279    0.275
    343    H    5.092    8.407    2.002
    344    C    11.972    9.154    1.873
    345    H    11.461    9.777    1.281
    346    O    13.284    8.906    1.368
    347    H    13.348    8.179    0.745
    348    C    11.961    9.700    3.296
    349    H    11.043    10.001    3.556
    350    O    12.678    10.918    3.574
    351    P    12.083    12.425    3.775
    352    O    13.059    13.397    4.270
    353    O    10.810    12.414    4.481
    354    O    11.738    12.924    2.306
    355    C    12.760    13.113    1.334
    356    H    13.294    12.271    1.255
    357    H    13.250    13.961    1.537
    358    C    12.227    13.334    -0.073
    359    H    12.965    13.418    -0.742
    360    O    11.396    12.211    -0.429
    361    C    10.435    12.643    -1.409
    362    H    10.676    12.203    -2.274
    363    N    9.093    12.219    -0.938
    364    C    8.879    11.958    0.384
    365    H    9.507    12.008    1.161
    366    C    7.672    11.565    0.822
    367    H    7.316    11.328    1.726
    368    C    8.069    12.090    -1.871
    369    O    8.276    12.339    -3.057
    370    N    6.842    11.692    -1.434
    371    C    6.627    11.433    -0.138
    372    N    5.423    11.038    0.260
    373    H    4.689    10.940    -0.427
    374    H    5.242    10.838    1.233
    375    C    10.632    14.157    -1.548
    376    H    9.731    14.589    -1.593
    377    O    11.411    14.477    -2.699
    378    H    11.296    13.883    -3.444
    379    C    11.303    14.543    -0.234
    380    H    10.632    14.541    0.508
    381    O    11.748    15.893    -0.037
    382    P    10.975    17.132    0.684
    383    O    11.779    18.357    0.670
    384    O    10.339    16.820    1.949
    385    O    9.769    17.392    -0.310
    386    C    10.067    17.649    -1.673
    387    H    10.713    16.960    -2.000
    388    H    10.316    18.612    -1.776
    389    C    8.877    17.489    -2.599
    390    H    9.154    17.575    -3.556
    391    O    8.268    16.231    -2.409
    392    C    6.923    16.339    -2.905
    393    H    6.922    15.917    -3.812
    394    N    6.040    15.619    -1.962
    395    C    6.441    15.369    -0.678
    396    H    7.302    15.598    -0.224
    397    C    4.798    15.219    -2.419
    398    O    4.416    15.431    -3.566
    399    N    3.999    14.564    -1.505
    400    H    3.068    14.262    -1.825
    401    C    4.325    14.272    -0.197
    402    O    3.531    13.674    0.524
    403    C    5.639    14.724    0.199
    404    H    5.794    14.477    1.156
    405    C    6.600    17.827    -3.048
    406    H    5.762    18.019    -2.538
    407    O    6.490    18.225    -4.418
    408    H    6.134    17.556    -5.007
    409    C    7.771    18.500    -2.348
    410    H    7.588    18.545    -1.366
    411    O    8.027    19.825    -2.835
    412    P    7.510    21.139    -2.047
    413    O    7.796    22.303    -2.900
    414    O    7.976    21.150    -0.651
    415    O    5.921    20.950    -1.996
    416    C    5.149    20.942    -3.196
    417    H    5.554    20.292    -3.839
    418    H    5.015    21.884    -3.503
    419    C    3.733    20.417    -2.980
    420    H    3.192    20.509    -3.816
    421    O    3.770    19.050    -2.602
    422    C    2.636    18.763    -1.758
    423    H    2.050    18.128    -2.262
    424    N    3.142    18.198    -0.491
    425    C    2.449    17.377    0.372
    426    N    -0.402    15.564    1.176
    427    H    -0.808    14.966    1.881
    428    H    -0.972    15.755    0.364
    429    N    1.198    16.898    0.187
    430    C    0.799    16.126    1.201
    431    N    1.571    15.852    2.301
    432    H    1.164    15.244    3.026
    433    C    2.851    16.327    2.513
    434    O    3.453    16.022    3.534
    435    C    3.288    17.149    1.441
    436    N    4.497    17.815    1.261
    437    C    4.344    18.404    0.117
    438    H    5.176    18.915    -0.100
    439    C    1.896    20.079    -1.573
    440    H    1.620    20.156    -0.615
    441    O    0.790    20.205    -2.476
    442    H    0.338    19.383    -2.681
    443    C    2.974    21.115    -1.863
    444    H    3.574    21.204    -1.068
    445    O    2.393    22.355    -2.277
    446    P    2.320    23.577    -1.229
    447    O    1.710    24.727    -1.924
    448    O    3.644    23.723    -0.588
    449    O    1.292    23.032    -0.117
    450    C    1.212    23.624    1.180
    451    H    0.867    24.558    1.091
    452    H    2.082    23.489    1.654
    453    C    0.184    22.920    2.062
    454    H    0.266    23.228    3.010
    455    O    -1.114    23.250    1.578
    456    C    -1.807    22.067    1.143
    457    H    -2.670    22.050    1.648
    458    N    -2.020    22.188    -0.318
    459    C    -0.964    22.285    -1.179
    460    H    0.019    22.280    -0.997
    461    C    -1.164    22.411    -2.503
    462    H    -0.547    22.496    -3.285
    463    C    -3.329    22.213    -0.779
    464    O    -4.264    22.119    0.012
    465    N    -3.540    22.340    -2.120
    466    C    -2.511    22.437    -2.970
    467    N    -2.751    22.566    -4.273
    468    H    -3.709    22.588    -4.593
    469    H    -1.990    22.641    -4.933
    470    C    -0.970    20.846    1.543
    471    H    -0.769    20.337    0.706
    472    O    -1.622    20.041    2.529
    473    H    -2.581    20.039    2.481
    474    C    0.330    21.405    2.107
    475    H    1.064    21.130    1.486
    476    O    0.496    20.994    3.473
    477    P    0.855    19.461    3.844
    478    O    1.514    19.455    5.170
    479    O    1.533    18.840    2.685
    480    O    -0.602    18.775    4.002
    481    C    -1.519    19.190    5.034
    482    H    -1.764    20.148    4.886
    483    H    -1.143    18.935    5.925
    484    C    -2.859    18.445    4.965
    485    H    -3.398    18.646    5.783
    486    O    -3.575    18.894    3.814
    487    C    -4.014    17.780    3.033
    488    H    -4.991    17.679    3.222
    489    N    -3.769    18.081    1.610
    490    C    -4.079    18.548    -0.511
    491    N    -2.710    18.672    -0.281
    492    C    -2.598    18.380    0.978
    493    H    -1.635    18.436    1.241
    494    N    -6.184    18.513    -1.532
    495    C    -6.704    18.157    -0.358
    496    H    -7.678    17.985    -0.209
    497    N    -6.052    17.972    0.786
    498    C    -4.728    18.186    0.633
    499    C    -4.865    18.723    -1.651
    500    N    -4.370    19.122    -2.819
    501    H    -5.000    19.260    -3.596
    502    H    -3.376    19.278    -2.902
    503    C    -3.288    16.540    3.512
    504    H    -2.519    16.380    2.893
    505    O    -4.175    15.422    3.604
    506    H    -4.883    15.412    2.955
    507    C    -2.749    16.914    4.888
    508    H    -1.783    16.655    4.912
    509    O    -3.596    16.347    5.898
    510    P    -3.679    14.748    6.128
    511    O    -4.015    14.512    7.552
    512    O    -2.445    14.162    5.553
    513    O    -4.939    14.266    5.236
    514    C    -5.942    13.381    5.769
    515    H    -6.365    13.811    6.567
    516    H    -5.545    12.470    5.883
    517    C    -7.100    13.172    4.791
    518    H    -7.695    12.429    5.098
    519    O    -7.865    14.385    4.720
    520    C    -7.983    14.799    3.353
    521    H    -8.849    14.436    3.009
    522    N    -7.988    16.294    3.296
    523    C    -7.385    17.031    4.287
    524    H    -6.916    16.719    5.113
    525    C    -8.602    16.925    2.214
    526    O    -9.146    16.312    1.304
    527    N    -8.558    18.303    2.211
    528    H    -9.010    18.782    1.419
    529    C    -7.969    19.108    3.162
    530    O    -7.986    20.329    3.041
    531    C    -7.357    18.384    4.249
    532    H    -6.956    19.038    4.890
    533    C    -6.824    14.123    2.603
    534    H    -5.999    14.675    2.720
    535    O    -7.139    13.916    1.220
    536    H    -7.687    14.597    0.823
    537    C    -6.661    12.810    3.379
    538    H    -5.690    12.573    3.391
    539    O    -7.536    11.814    2.832
    540    P    -6.986    10.724    1.776
    541    O    -8.075    9.745    1.554
    542    O    -5.650    10.258    2.215
    543    O    -6.800    11.601    0.431
    544    C    -7.937    12.179    -0.233
    545    H    -8.365    12.846    0.376
    546    H    -8.508    11.444    -0.599
    547    C    -7.516    12.989    -1.459
    548    H    -8.320    13.312    -1.957
    549    O    -6.705    14.127    -1.085
    550    C    -6.037    14.551    -2.274
    551    H    -6.585    15.298    -2.651
    552    N    -4.691    15.014    -1.898
    553    C    -2.755    16.042    -1.911
    554    N    -2.814    15.343    -0.706
    555    C    -3.976    14.763    -0.762
    556    H    -4.114    14.230    0.073
    557    N    -2.048    17.397    -3.686
    558    C    -3.199    17.127    -4.299
    559    H    -3.453    17.490    -5.195
    560    N    -4.182    16.357    -3.851
    561    C    -3.891    15.844    -2.640
    562    C    -1.785    16.870    -2.480
    563    N    -0.633    17.151    -1.889
    564    H    0.024    17.757    -2.360
    565    H    -0.438    16.753    -0.981
    566    C    -6.042    13.378    -3.264
    567    H    -5.096    13.159    -3.502
    568    O    -6.841    13.668    -4.418
    569    H    -6.833    14.587    -4.696
    570    C    -6.625    12.232    -2.429
    571    H    -5.887    11.792    -1.917
    572    O    -7.385    11.346    -3.257
    573    P    -6.709    9.970    -3.751
    574    O    -7.706    9.276    -4.596
    575    O    -6.097    9.268    -2.599
    576    O    -5.522    10.526    -4.693
    577    C    -5.853    11.315    -5.840
    578    H    -6.470    12.051    -5.562
    579    H    -6.150    10.709    -6.578
    580    C    -4.647    12.046    -6.426
    581    H    -4.918    12.503    -7.273
    582    O    -4.146    13.039    -5.492
    583    C    -2.732    13.195    -5.734
    584    H    -2.613    14.118    -6.101
    585    N    -2.034    13.015    -4.446
    586    C    -0.548    13.091    -2.833
    587    N    -1.615    12.340    -2.345
    588    C    -2.446    12.331    -3.339
    589    H    -3.255    11.802    -3.082
    590    N    1.498    14.216    -3.027
    591    C    1.146    14.560    -4.267
    592    H    1.717    15.108    -4.878
    593    N    0.015    14.250    -4.894
    594    C    -0.793    13.506    -4.110
    595    C    0.670    13.477    -2.270
    596    N    1.025    13.160    -1.028
    597    H    1.915    13.483    -0.676
    598    H    0.396    12.604    -0.466
    599    C    -2.313    12.174    -6.803
    600    H    -1.468    11.727    -6.509
    601    O    -2.207    12.775    -8.096
    602    H    -1.883    13.679    -8.097
    603    C    -3.455    11.166    -6.744
    604    H    -3.295    10.545    -5.977
    605    O    -3.636    10.508    -8.008
    606    P    -2.919    9.087    -8.281
    607    O    -3.376    8.548    -9.580
    608    O    -3.034    8.259    -7.062
    609    O    -1.384    9.541    -8.445
    610    C    -1.014    10.494    -9.448
    611    H    -1.572    11.316    -9.337
    612    H    -1.015    10.044    -10.341
    613    C    0.419    10.976    -9.264
    614    H    0.668    11.607    -9.999
    615    O    0.539    11.659    -7.998
    616    C    1.930    11.616    -7.628
    617    H    2.303    12.526    -7.808
    618    N    1.995    11.262    -6.192