!*** FMO 5.2 (Gamess) INPUT generated by Facio 21.1.1.32 ***
 $CONTRL RUNTYP=OPTFMO NPRINT=-5 ISPHER=-1 MAXIT=50 $END
 $SYSTEM MWORDS=29 $END
 $GDDI NGROUP=1 $END
 $INTGRL NINTIC=-9000000 $END
 $SCF DIRSCF=.FALSE. NPUNCH=0 $END
!*** NumCPU : 2  MemPerNode : 512MB
 $FMOPRP
    NAODIR=210
    NGRFMO(1)=1, 1, 0, 0, 0,   0, 0, 0, 0, 0
    NPRINT=9
 $END
 $FMO
      SCFTYP(1)=RHF
      MODGRD=10
      MODMUL=0
      MAXCAO=5
      MAXBND=34
      NLAYER=1
      NFRAG=32
      ICHARG(1)=-1, -1, -1, -1, -1, -1, -1, -1, -1, -1, 
-1, -1, -1, -1, -1, -1, -1, -1, -1, -1, 
-1, -1, -1, -1, -1, -1, -1, -1, -1, -1, 
-1, 0
      FRGNAM(1)=Frag1, Frag2, Frag3, Frag4, Frag5, Frag6, Frag7, Frag8, Frag9, Frag10, Frag11, Frag12, Frag13, Frag14, Frag15, Frag16, Frag17, Frag18, Frag19, Frag20, Frag21, Frag22, Frag23, Frag24, Frag25, Frag26, Frag27, Frag28, Frag29, Frag30, Frag31, Frag32
      indat(1)=0
               1   -36   0
               37   -69   0
               70   -103   0
               104   -134   0
               135   -167   0
               168   -201   0
               202   -231   0
               232   -261   0
               262   -292   0
               293   -323   0
               324   -354   0
               355   -385   0
               386   -415   0
               416   -449   0
               450   -480   0
               481   -513   0
               514   -543   0
               544   -576   0
               577   -609   0
               610   -643   0
               644   -677   0
               678   -710   0
               711   -740   0
               741   -774   0
               775   -807   0
               808   -840   0
               841   -871   0
               872   -902   0
               903   -936   0
               937   -966   0
               967   -996   0
               997   -1024   0
 $END

 $FMOBND
   -37   36       3-21G    MINI
   -70   69       3-21G    MINI
   -104   103       3-21G    MINI
   -135   134       3-21G    MINI
   -168   167       3-21G    MINI
   -202   201       3-21G    MINI
   -232   231       3-21G    MINI
   -262   261       3-21G    MINI
   -293   292       3-21G    MINI
   -324   323       3-21G    MINI
   -355   354       3-21G    MINI
   -386   385       3-21G    MINI
   -416   415       3-21G    MINI
   -450   449       3-21G    MINI
   -481   480       3-21G    MINI
   -514   513       3-21G    MINI
   -544   543       3-21G    MINI
   -577   576       3-21G    MINI
   -610   609       3-21G    MINI
   -644   643       3-21G    MINI
   -678   677       3-21G    MINI
   -711   710       3-21G    MINI
   -741   740       3-21G    MINI
   -775   774       3-21G    MINI
   -808   807       3-21G    MINI
   -841   840       3-21G    MINI
   -872   871       3-21G    MINI
   -903   902       3-21G    MINI
   -937   936       3-21G    MINI
   -967   966       3-21G    MINI
   -997   996       3-21G    MINI
 $END
 $FMOHYB
 3-21G        9   5
   1 0  -0.070459   0.164841   0.000000   0.000000   0.502116
         0.466939   0.000000   0.000000   0.418036
   0 1  -0.070465   0.164857   0.473392   0.000000  -0.167359
         0.466967   0.394111   0.000000  -0.139327
   0 1  -0.070465   0.164857  -0.236695  -0.409969  -0.167359
         0.466967  -0.197055  -0.341311  -0.139327
   0 1  -0.070465   0.164857  -0.236695   0.409969  -0.167359
         0.466967  -0.197055   0.341311  -0.139327
   0 1   1.006716   0.074826   0.000000   0.000000   0.000000
        -0.143830   0.000000   0.000000  -0.000003
 MINI         5   5
   1 0  -0.104883   0.308874   0.000000   0.000000   0.521806
   0 1  -0.104883   0.308874   0.491961   0.000000  -0.173934
   0 1  -0.104883   0.308876  -0.245980  -0.426050  -0.173933
   0 1  -0.104883   0.308876  -0.245980   0.426050  -0.173933
   0 1   0.988209   0.063992   0.000000   0.000000   0.000000
 $END

 $DATA
 FMO calculation : XXNAMEXX
 C1 
 C.1-1    6
      N21 3
   
 O.1-1    8
      N21 3
   
 N.1-1    7
      N21 3
   
 H.1-1    1
      N21 3
   
 P.1-1   15
      N21 3
   
 $END
 $FMOXYZ
    1    H    6.016    -29.469    -5.798
    2    O    5.058    -29.210    -5.918
    3    C    4.408    -30.192    -6.735
    4    H    4.394    -31.064    -6.246
    5    H    4.812    -30.173    -7.650
    6    C    2.932    -29.872    -6.971
    7    H    2.522    -30.510    -7.623
    8    O    2.198    -29.914    -5.763
    9    C    0.978    -29.172    -5.975
    10    H    0.289    -29.838    -6.261
    11    N    0.625    -28.511    -4.700
    12    C    -0.625    -28.068    -4.331
    13    N    -4.008    -27.692    -5.010
    14    H    -4.872    -27.329    -4.635
    15    H    -4.060    -28.130    -5.919
    16    N    -1.757    -28.182    -5.064
    17    C    -2.812    -27.656    -4.438
    18    N    -2.754    -27.070    -3.200
    19    H    -3.631    -26.696    -2.811
    20    C    -1.613    -26.940    -2.432
    21    O    -1.672    -26.393    -1.334
    22    C    -0.478    -27.497    -3.086
    23    N    0.847    -27.576    -2.664
    24    C    1.436    -28.178    -3.651
    25    H    2.407    -28.282    -3.436
    26    C    1.227    -28.191    -7.120
    27    H    1.136    -27.259    -6.770
    28    O    0.371    -28.428    -8.244
    29    H    -0.510    -28.741    -8.024
    30    C    2.685    -28.452    -7.459
    31    H    3.244    -27.821    -6.921
    32    O    2.949    -28.236    -8.839
    33    P    3.459    -26.798    -9.334
    34    O    3.750    -26.965    -10.765
    35    O    4.492    -26.260    -8.436
    36    O    2.171    -25.860    -9.170
    37    C    0.973    -26.171    -9.885
    38    H    0.689    -27.102    -9.655
    39    H    1.102    -25.946    -10.851
    40    C    -0.233    -25.326    -9.485
    41    H    -1.039    -25.524    -10.043
    42    O    -0.548    -25.581    -8.092
    43    C    -1.397    -24.490    -7.670
    44    H    -2.335    -24.750    -7.901
    45    N    -1.224    -24.280    -6.218
    46    C    -1.608    -23.843    -4.100
    47    N    -0.242    -24.094    -4.202
    48    C    -0.083    -24.341    -5.467
    49    H    0.882    -24.534    -5.642
    50    N    -3.735    -23.327    -3.263
    51    C    -4.211    -23.463    -4.502
    52    H    -5.173    -23.340    -4.746
    53    N    -3.523    -23.775    -5.597
    54    C    -2.214    -23.952    -5.318
    55    C    -2.427    -23.511    -3.019
    56    N    -1.968    -23.376    -1.778
    57    H    -2.615    -23.137    -1.040
    58    H    -0.983    -23.516    -1.602
    59    C    -1.002    -23.274    -8.497
    60    H    -0.548    -22.621    -7.891
    61    O    -2.111    -22.689    -9.180
    62    H    -2.951    -22.753    -8.719
    63    C    0.009    -23.817    -9.481
    64    H    0.921    -23.635    -9.114
    65    O    0.033    -23.038    -10.674
    66    P    0.554    -21.536    -10.797
    67    O    0.730    -21.285    -12.226
    68    O    1.596    -21.082    -9.892
    69    O    -0.759    -20.845    -10.233
    70    C    -1.954    -21.296    -10.855
    71    H    -1.979    -22.295    -10.826
    72    H    -2.046    -20.851    -11.746
    73    C    -3.193    -20.875    -10.104
    74    H    -4.053    -21.162    -10.526
    75    O    -3.130    -21.397    -8.773
    76    C    -4.132    -20.730    -7.972
    77    H    -4.961    -21.290    -7.964
    78    N    -3.576    -20.542    -6.614
    79    C    -4.260    -20.083    -5.512
    80    N    -7.201    -18.956    -4.051
    81    H    -7.596    -18.626    -3.182
    82    H    -7.829    -19.010    -4.840
    83    N    -5.571    -19.742    -5.476
    84    C    -5.947    -19.326    -4.267
    85    N    -5.106    -19.255    -3.186
    86    H    -5.505    -18.923    -2.296
    87    C    -3.767    -19.593    -3.195
    88    O    -3.103    -19.488    -2.168
    89    C    -3.348    -20.038    -4.480
    90    N    -2.097    -20.468    -4.918
    91    C    -2.300    -20.746    -6.169
    92    H    -1.444    -21.068    -6.574
    93    C    -4.400    -19.451    -8.780
    94    H    -4.337    -18.670    -8.159
    95    O    -5.658    -19.502    -9.457
    96    H    -6.347    -19.985    -8.995
    97    C    -3.240    -19.401    -9.757
    98    H    -2.395    -19.151    -9.285
    99    O    -3.230    -18.437    -10.806
    100    P    -2.454    -17.044    -10.853
    101    O    -2.715    -16.510    -12.191
    102    O    -1.083    -16.999    -10.361
    103    O    -3.294    -16.275    -9.747
    104    C    -4.699    -16.296    -9.948
    105    H    -5.005    -17.246    -10.011
    106    H    -4.930    -15.679    -10.700
    107    C    -5.472    -15.741    -8.770
    108    H    -6.449    -15.671    -8.973
    109    O    -5.290    -16.612    -7.642
    110    C    -5.575    -15.838    -6.463
    111    H    -6.464    -16.146    -6.124
    112    N    -4.499    -16.083    -5.480
    113    C    -3.252    -16.469    -5.884
    114    H    -2.905    -16.674    -6.799
    115    C    -2.259    -16.629    -4.993
    116    H    -1.299    -16.898    -5.076
    117    C    -4.781    -15.854    -4.142
    118    O    -5.913    -15.524    -3.797
    119    N    -3.781    -16.011    -3.233
    120    C    -2.555    -16.383    -3.620
    121    N    -1.590    -16.495    -2.714
    122    H    -1.803    -16.296    -1.747
    123    H    -0.658    -16.774    -2.985
    124    C    -5.690    -14.372    -6.909
    125    H    -5.163    -13.803    -6.277
    126    O    -7.054    -13.952    -6.982
    127    H    -7.636    -14.350    -6.330
    128    C    -4.996    -14.384    -8.261
    129    H    -4.004    -14.413    -8.136
    130    O    -5.144    -13.225    -9.097
    131    P    -4.318    -11.856    -9.173
    132    O    -4.776    -11.092    -10.337
    133    O    -2.883    -11.885    -8.943
    134    O    -4.915    -11.197    -7.861
    135    C    -6.336    -11.189    -7.790
    136    H    -6.672    -12.127    -7.879
    137    H    -6.690    -10.502    -8.425
    138    C    -6.834    -10.739    -6.434
    139    H    -7.829    -10.643    -6.443
    140    O    -6.457    -11.737    -5.416
    141    C    -6.527    -11.041    -4.159
    142    H    -7.362    -11.350    -3.704
    143    N    -5.322    -11.405    -3.383
    144    C    -3.922    -11.804    -1.736
    145    N    -3.240    -12.122    -2.909
    146    C    -4.115    -11.864    -3.835
    147    H    -3.712    -12.062    -4.728
    148    N    -4.466    -11.467    0.516
    149    C    -5.671    -11.057    0.123
    150    H    -6.390    -10.757    0.750
    151    N    -6.123    -10.974    -1.126
    152    C    -5.185    -11.366    -2.011
    153    C    -3.555    -11.853    -0.389
    154    N    -2.359    -12.261    0.024
    155    H    -2.160    -12.272    1.014
    156    H    -1.677    -12.551    -0.662
    157    C    -6.660    -9.544    -4.489
    158    H    -5.996    -9.055    -3.923
    159    O    -7.996    -9.081    -4.282
    160    H    -8.476    -9.529    -3.582
    161    C    -6.258    -9.410    -5.953
    162    H    -5.263    -9.432    -6.052
    163    O    -6.764    -8.242    -6.628
    164    P    -6.081    -6.780    -6.736
    165    O    -6.908    -5.888    -7.564
    166    O    -4.641    -6.789    -7.012
    167    O    -6.263    -6.290    -5.230
    168    C    -7.582    -6.272    -4.688
    169    H    -8.075    -7.083    -5.004
    170    H    -7.993    -5.377    -4.861
    171    C    -7.591    -6.399    -3.174
    172    H    -8.513    -6.573    -2.829
    173    O    -6.751    -7.488    -2.818
    174    C    -6.420    -7.344    -1.427
    175    H    -6.993    -7.979    -0.909
    176    N    -4.981    -7.654    -1.273
    177    C    -4.293    -7.762    -0.085
    178    N    -4.237    -7.644    3.385
    179    H    -3.633    -7.749    4.187
    180    H    -5.203    -7.418    3.575
    181    N    -4.815    -7.603    1.154
    182    C    -3.899    -7.772    2.110
    183    N    -2.584    -8.071    1.865
    184    H    -1.962    -8.177    2.679
    185    C    -2.026    -8.241    0.610
    186    O    -0.836    -8.521    0.501
    187    C    -2.992    -8.063    -0.419
    188    N    -2.848    -8.142    -1.803
    189    C    -4.045    -7.893    -2.239
    190    H    -4.041    -7.928    -3.238
    191    C    -6.831    -5.903    -1.082
    192    H    -6.057    -5.482    -0.609
    193    O    -8.029    -5.874    -0.303
    194    H    -8.156    -6.631    0.273
    195    C    -7.043    -5.195    -2.416
    196    H    -6.170    -4.925    -2.821
    197    O    -7.988    -4.105    -2.339
    198    P    -7.652    -2.535    -2.121
    199    O    -8.863    -1.706    -2.276
    200    O    -6.460    -2.132    -2.887
    201    O    -7.279    -2.466    -0.563
    202    C    -8.267    -2.732    0.437
    203    H    -8.721    -3.597    0.224
    204    H    -8.838    -1.920    0.555
    205    C    -7.637    -2.958    1.806
    206    H    -8.333    -3.133    2.502
    207    O    -6.788    -4.078    1.714
    208    C    -5.747    -3.955    2.699
    209    H    -5.870    -4.687    3.369
    210    N    -4.447    -4.039    1.992
    211    C    -4.368    -3.802    0.646
    212    H    -5.094    -3.576    -0.004
    213    C    -3.321    -4.343    2.736
    214    O    -3.364    -4.558    3.941
    215    N    -2.132    -4.386    2.038
    216    H    -1.282    -4.608    2.576
    217    C    -1.965    -4.161    0.688
    218    O    -0.852    -4.224    0.179
    219    C    -3.189    -3.852    -0.012
    220    H    -2.982    -3.702    -0.979
    221    C    -6.025    -2.612    3.374
    222    H    -5.145    -2.173    3.558
    223    O    -6.823    -2.768    4.551
    224    H    -6.677    -3.584    5.035
    225    C    -6.769    -1.808    2.319
    226    H    -6.152    -1.515    1.588
    227    O    -7.531    -0.722    2.887
    228    P    -7.010    0.804    3.061
    229    O    -8.058    1.665    3.648
    230    O    -6.378    1.257    1.808
    231    O    -5.868    0.677    4.182
    232    C    -6.204    0.297    5.520
    233    H    -6.745    -0.544    5.494
    234    H    -6.590    1.088    5.996
    235    C    -4.976    -0.073    6.342
    236    H    -5.245    -0.357    7.262
    237    O    -4.307    -1.138    5.712
    238    C    -2.923    -1.120    6.113
    239    H    -2.776    -1.902    6.719
    240    N    -2.109    -1.191    4.878
    241    C    -2.654    -0.878    3.662
    242    H    -3.587    -0.601    3.434
    243    C    -0.782    -1.559    4.999
    244    O    -0.274    -1.850    6.077
    245    N    -0.054    -1.587    3.830
    246    H    0.937    -1.860    3.900
    247    C    -0.521    -1.285    2.568
    248    O    0.227    -1.338    1.598
    249    C    -1.916    -0.914    2.530
    250    H    -2.174    -0.715    1.585
    251    C    -2.752    0.175    6.919
    252    H    -1.909    0.620    6.616
    253    O    -2.798    -0.071    8.327
    254    H    -2.427    -0.912    8.604
    255    C    -3.944    1.029    6.495
    256    H    -3.773    1.441    5.600
    257    O    -4.399    1.837    7.599
    258    P    -3.720    3.255    8.011
    259    O    -4.318    3.801    9.261
    260    O    -3.868    3.991    6.734
    261    O    -2.154    2.962    8.298
    262    C    -1.706    2.321    9.503
    263    H    -2.158    1.433    9.587
    264    H    -1.791    2.964    10.265
    265    C    -0.220    2.001    9.422
    266    H    0.098    1.489    10.220
    267    O    0.026    1.220    8.234
    268    C    1.414    1.294    7.870
    269    H    1.868    0.449    8.150
    270    N    1.478    1.516    6.408
    271    C    0.402    2.002    5.724
    272    H    -0.510    2.256    6.047
    273    C    0.470    2.210    4.398
    274    H    -0.185    2.549    3.723
    275    C    2.672    1.225    5.764
    276    O    3.632    0.794    6.401
    277    N    2.750    1.433    4.424
    278    C    1.701    1.909    3.741
    279    N    1.812    2.108    2.432
    280    H    2.689    1.895    1.979
    281    H    1.034    2.466    1.897
    282    C    1.910    2.445    8.755
    283    H    2.454    3.043    8.166
    284    O    2.625    1.962    9.898
    285    H    3.092    1.134    9.764
    286    C    0.684    3.208    9.239
    287    H    0.312    3.786    8.513
    288    O    0.976    3.751    10.540
    289    P    1.671    5.202    10.747
    290    O    2.021    5.453    12.170
    291    O    0.650    6.040    10.076
    292    O    3.042    5.220    9.884
    293    C    4.261    4.605    10.337
    294    H    4.080    3.646    10.556
    295    H    4.671    5.178    11.046
    296    C    5.286    4.570    9.212
    297    H    6.127    4.090    9.460
    298    O    4.692    3.917    8.092
    299    C    5.295    4.415    6.885
    300    H    5.796    3.664    6.455
    301    N    4.201    4.932    6.028
    302    C    2.976    5.209    6.563
    303    H    2.651    5.132    7.506
    304    C    1.974    5.663    5.791
    305    H    1.026    5.919    5.980
    306    C    4.454    5.113    4.673
    307    O    5.566    4.868    4.214
    308    N    3.441    5.572    3.883
    309    C    2.236    5.845    4.400
    310    N    1.266    6.285    3.606
    311    H    1.458    6.406    2.622
    312    H    0.351    6.496    3.978
    313    C    6.296    5.461    7.383
    314    H    6.314    6.217    6.728
    315    O    7.586    4.892    7.622
    316    H    7.833    4.183    7.024
    317    C    5.671    5.946    8.681
    318    H    4.839    6.472    8.506
    319    O    6.647    6.612    9.504
    320    P    6.916    8.204    9.480
    321    O    7.940    8.575    10.480
    322    O    5.588    8.852    9.545
    323    O    7.556    8.522    8.040
    324    C    8.897    8.143    7.710
    325    H    8.977    7.148    7.766
    326    H    9.533    8.695    8.249
    327    C    9.256    8.465    6.265
    328    H    10.199    8.202    6.060
    329    O    8.360    7.699    5.424
    330    C    8.201    8.416    4.189
    331    H    8.568    7.842    3.457
    332    N    6.753    8.683    4.002
    333    C    5.903    8.660    5.071
    334    H    6.088    8.482    6.037
    335    C    4.590    8.901    4.914
    336    H    3.818    8.931    5.549
    337    C    6.288    8.957    2.719
    338    O    7.067    8.985    1.769
    339    N    4.958    9.204    2.551
    340    C    4.119    9.182    3.596
    341    N    2.826    9.429    3.402
    342    H    2.502    9.629    2.466
    343    H    2.177    9.417    4.176
    344    C    9.087    9.664    4.339
    345    H    8.631    10.424    3.876
    346    O    10.398    9.434    3.824
    347    H    10.440    8.833    3.076
    348    C    9.096    9.931    5.840
    349    H    8.208    10.266    6.154
    350    O    10.036    10.919    6.291
    351    P    9.929    12.535    6.393
    352    O    11.174    13.145    6.864
    353    O    8.723    13.010    7.053
    354    O    9.802    13.001    4.882
    355    C    10.837    12.702    3.945
    356    H    11.033    11.722    3.978
    357    H    11.597    13.337    4.085
    358    C    10.411    12.946    2.506
    359    H    11.149    12.691    1.881
    360    O    9.249    12.160    2.202
    361    C    8.531    12.820    1.149
    362    H    8.622    12.251    0.332
    363    N    7.126    12.946    1.597
    364    C    6.818    12.890    2.924
    365    H    7.413    12.785    3.721
    366    C    5.544    12.980    3.338
    367    H    5.115    12.961    4.241
    368    C    6.138    13.101    0.632
    369    O    6.436    13.160    -0.559
    370    N    4.844    13.194    1.045
    371    C    4.532    13.137    2.346
    372    N    3.261    13.221    2.720
    373    H    2.550    13.327    2.011
    374    H    3.007    13.180    3.697
    375    C    9.246    14.154    0.910
    376    H    8.548    14.865    0.823
    377    O    10.114    14.098    -0.223
    378    H    9.818    13.523    -0.932
    379    C    10.040    14.390    2.193
    380    H    9.438    14.735    2.913
    381    O    11.247    15.135    1.945
    382    P    11.327    16.734    1.712
    383    O    12.665    17.120    1.204
    384    O    10.838    17.357    2.961
    385    O    10.280    17.034    0.528
    386    C    10.503    16.535    -0.795
    387    H    10.672    15.551    -0.747
    388    H    11.187    17.107    -1.248
    389    C    9.251    16.676    -1.644
    390    H    9.424    16.253    -2.533
    391    O    8.153    16.039    -1.041
    392    C    6.977    16.620    -1.628
    393    H    6.650    15.964    -2.308
    394    N    6.010    16.843    -0.531
    395    C    6.427    16.909    0.769
    396    H    7.348    16.823    1.150
    397    C    4.679    16.983    -0.873
    398    O    4.284    16.927    -2.033
    399    N    3.808    17.196    0.175
    400    H    2.811    17.307    -0.057
    401    C    4.141    17.276    1.510
    402    O    3.272    17.461    2.359
    403    C    5.552    17.119    1.777
    404    H    5.707    17.193    2.762
    405    C    7.395    17.909    -2.340
    406    H    6.843    18.657    -1.971
    407    O    7.300    17.785    -3.767
    408    H    6.589    17.220    -4.078
    409    C    8.852    18.112    -1.923
    410    H    8.888    18.632    -1.069
    411    O    9.617    18.425    -3.092
    412    P    9.880    19.959    -3.574
    413    O    10.422    19.990    -4.964
    414    O    10.703    20.417    -2.420
    415    O    8.400    20.622    -3.558
    416    C    7.470    20.390    -4.631
    417    H    7.370    19.404    -4.768
    418    H    7.735    20.948    -5.418
    419    C    6.093    20.891    -4.213
    420    H    5.472    20.860    -4.996
    421    O    5.564    20.091    -3.174
    422    C    4.693    20.904    -2.361
    423    H    3.766    20.550    -2.484
    424    N    5.178    20.831    -0.968
    425    C    4.426    21.038    0.167
    426    N    1.375    21.700    1.686
    427    H    0.930    21.831    2.583
    428    H    0.779    21.767    0.873
    429    N    3.100    21.299    0.210
    430    C    2.657    21.449    1.461
    431    N    3.457    21.351    2.571
    432    H    3.012    21.486    3.490
    433    C    4.813    21.085    2.553
    434    O    5.435    21.021    3.605
    435    C    5.296    20.922    1.228
    436    N    6.582    20.644    0.774
    437    C    6.442    20.605    -0.513
    438    H    7.329    20.408    -0.931
    439    C    4.765    22.311    -2.930
    440    H    4.827    22.954    -2.167
    441    O    3.668    22.585    -3.815
    442    H    2.840    22.163    -3.576
    443    C    6.085    22.317    -3.694
    444    H    6.845    22.435    -3.054
    445    O    5.925    23.124    -4.860
    446    P    6.822    24.457    -5.029
    447    O    6.553    25.052    -6.363
    448    O    8.209    24.142    -4.575
    449    O    6.010    25.264    -3.896
    450    C    6.607    26.374    -3.241
    451    H    6.724    27.117    -3.900
    452    H    7.414    26.061    -2.740
    453    C    5.666    26.928    -2.178
    454    H    6.132    27.604    -1.608
    455    O    4.580    27.557    -2.847
    456    C    3.337    26.933    -2.482
    457    H    2.756    27.663    -2.123
    458    N    2.769    26.324    -3.707
    459    C    3.441    25.346    -4.385
    460    H    4.322    24.914    -4.191
    461    C    2.927    24.808    -5.505
    462    H    3.248    24.101    -6.135
    463    C    1.539    26.791    -4.150
    464    O    0.949    27.667    -3.523
    465    N    1.013    26.250    -5.285
    466    C    1.665    25.292    -5.955
    467    N    1.125    24.790    -7.063
    468    H    0.232    25.144    -7.375
    469    H    1.598    24.067    -7.585
    470    C    3.614    25.921    -1.365
    471    H    3.295    25.029    -1.686
    472    O    3.006    26.297    -0.127
    473    H    2.186    26.789    -0.211
    474    C    5.128    25.881    -1.214
    475    H    5.432    24.976    -1.513
    476    O    5.517    26.221    0.123
    477    P    5.298    25.194    1.352
    478    O    6.291    25.515    2.399
    479    O    5.182    23.804    0.867
    480    O    3.844    25.663    1.863
    481    C    3.650    27.016    2.313
    482    H    3.851    27.642    1.559
    483    H    4.141    27.146    3.174
    484    C    2.187    27.291    2.660
    485    H    2.121    28.169    3.134
    486    O    1.409    27.349    1.467
    487    C    0.267    26.496    1.570
    488    H    -0.513    27.100    1.735
    489    N    0.126    25.758    0.301
    490    C    -0.629    25.059    -1.635
    491    N    0.625    24.474    -1.472
    492    C    1.008    24.921    -0.317
    493    H    1.910    24.545    -0.105
    494    N    -2.713    25.688    -2.496
    495    C    -2.905    26.412    -1.394
    496    H    -3.731    26.947    -1.217
    497    N    -2.070    26.552    -0.368
    498    C    -0.940    25.838    -0.559
    499    C    -1.578    24.992    -2.657
    500    N    -1.383    24.311    -3.783
    501    H    -2.097    24.332    -4.498
    502    H    -0.526    23.789    -3.897
    503    C    0.448    25.586    2.767
    504    H    0.780    24.703    2.434
    505    O    -0.765    25.467    3.518
    506    H    -1.570    25.514    2.997
    507    C    1.549    26.254    3.586
    508    H    2.226    25.550    3.802
    509    O    0.959    27.058    4.613
    510    P    0.254    26.307    5.860
    511    O    0.379    27.219    7.030
    512    O    0.857    24.944    5.849
    513    O    -1.303    26.230    5.408
    514    C    -2.350    26.557    6.343
    515    H    -2.252    27.513    6.620
    516    H    -2.374    25.861    7.061
    517    C    -3.739    26.489    5.704
    518    H    -4.465    26.543    6.389
    519    O    -3.853    27.610    4.813
    520    C    -4.234    27.144    3.514
    521    H    -5.230    27.211    3.457
    522    N    -3.612    28.023    2.473
    523    C    -2.453    28.711    2.744
    524    H    -1.915    28.741    3.587
    525    C    -4.220    28.120    1.221
    526    O    -5.248    27.522    0.929
    527    N    -3.589    28.930    0.301
    528    H    -4.028    29.012    -0.627
    529    C    -2.427    29.644    0.496
    530    O    -1.954    30.324    -0.410
    531    C    -1.858    29.496    1.813
    532    H    -1.023    30.043    1.870
    533    C    -3.828    25.663    3.463
    534    H    -2.860    25.610    3.218
    535    O    -4.637    24.920    2.547
    536    H    -4.935    25.412    1.778
    537    C    -4.001    25.203    4.918
    538    H    -3.284    24.539    5.131
    539    O    -5.280    24.605    5.171
    540    P    -5.604    23.021    5.161
    541    O    -6.990    22.813    5.614
    542    O    -4.555    22.216    5.796
    543    O    -5.563    22.685    3.592
    544    C    -6.484    23.315    2.694
    545    H    -6.324    24.302    2.703
    546    H    -7.408    22.988    2.893
    547    C    -6.237    22.902    1.246
    548    H    -6.954    23.283    0.662
    549    O    -4.948    23.422    0.814
    550    C    -4.608    22.703    -0.368
    551    H    -4.864    23.284    -1.141
    552    N    -3.152    22.468    -0.378
    553    C    -1.099    22.050    -1.038
    554    N    -1.026    22.269    0.338
    555    C    -2.262    22.510    0.660
    556    H    -2.314    22.685    1.643
    557    N    -0.550    21.594    -3.268
    558    C    -1.839    21.734    -3.573
    559    H    -2.208    21.634    -4.497
    560    N    -2.831    22.020    -2.740
    561    C    -2.385    22.168    -1.477
    562    C    -0.136    21.745    -2.002
    563    N    1.152    21.599    -1.721
    564    H    1.794    21.377    -2.468
    565    H    1.461    21.713    -0.766
    566    C    -5.476    21.430    -0.388
    567    H    -4.855    20.649    -0.456
    568    O    -6.397    21.463    -1.482
    569    H    -6.089    21.939    -2.257
    570    C    -6.186    21.389    0.978
    571    H    -5.600    20.957    1.663
    572    O    -7.388    20.607    1.038
    573    P    -7.616    19.043    1.405
    574    O    -9.013    18.648    1.199
    575    O    -7.035    18.613    2.663
    576    O    -6.790    18.290    0.270
    577    C    -7.114    18.521    -1.100
    578    H    -7.201    19.505    -1.252
    579    H    -7.885    17.937    -1.355
    580    C    -6.013    18.105    -2.068
    581    H    -6.392    18.269    -2.979
    582    O    -4.859    18.977    -1.870
    583    C    -3.699    18.235    -2.279
    584    H    -3.334    18.701    -3.085
    585    N    -2.728    18.244    -1.168
    586    C    -0.880    18.131    0.014
    587    N    -1.911    18.361    0.923
    588    C    -2.961    18.413    0.168
    589    H    -3.766    18.573    0.740
    590    N    1.229    17.754    -0.934
    591    C    0.637    17.703    -2.130
    592    H    1.125    17.546    -2.988
    593    N    -0.659    17.846    -2.389
    594    C    -1.365    18.058    -1.259
    595    C    0.498    17.970    0.172
    596    N    1.104    18.040    1.354
    597    H    2.107    17.929    1.397
    598    H    0.547    18.203    2.181
    599    C    -4.171    16.822    -2.686
    600    H    -3.541    16.169    -2.265
    601    O    -4.275    16.702    -4.103
    602    H    -3.644    17.226    -4.602
    603    C    -5.553    16.646    -2.070
    604    H    -5.468    16.330    -1.125
    605    O    -6.402    15.763    -2.867
    606    P    -6.277    14.180    -3.180
    607    O    -7.227    13.698    -4.202
    608    O    -6.345    13.478    -1.894
    609    O    -4.843    13.859    -3.831
    610    C    -4.433    14.322    -5.122
    611    H    -4.595    15.307    -5.181
    612    H    -4.841    13.737    -5.823
    613    C    -2.928    14.172    -5.332
    614    H    -2.728    14.539    -6.241
    615    O    -2.202    14.932    -4.350
    616    C    -0.885    14.357    -4.281