!*** FMO 5.2 (Gamess) INPUT generated by Facio 21.1.1.32 ***
 $CONTRL RUNTYP=OPTFMO NPRINT=-5 ISPHER=-1 MAXIT=50 $END
 $SYSTEM MWORDS=29 $END
 $GDDI NGROUP=1 $END
 $INTGRL NINTIC=-9000000 $END
 $SCF DIRSCF=.FALSE. NPUNCH=0 $END
!*** NumCPU : 2  MemPerNode : 512MB
 $FMOPRP
    NAODIR=210
    NGRFMO(1)=1, 1, 0, 0, 0,   0, 0, 0, 0, 0
    NPRINT=9
 $END
 $FMO
      SCFTYP(1)=RHF
      MODGRD=10
      MODMUL=0
      MAXCAO=5
      MAXBND=34
      NLAYER=1
      NFRAG=32
      ICHARG(1)=-1, -1, -1, -1, -1, -1, -1, -1, -1, -1, 
-1, -1, -1, -1, -1, -1, -1, -1, -1, -1, 
-1, -1, -1, -1, -1, -1, -1, -1, -1, -1, 
-1, 0
      FRGNAM(1)=Frag1, Frag2, Frag3, Frag4, Frag5, Frag6, Frag7, Frag8, Frag9, Frag10, Frag11, Frag12, Frag13, Frag14, Frag15, Frag16, Frag17, Frag18, Frag19, Frag20, Frag21, Frag22, Frag23, Frag24, Frag25, Frag26, Frag27, Frag28, Frag29, Frag30, Frag31, Frag32
      indat(1)=0
               1   -36   0
               37   -69   0
               70   -103   0
               104   -134   0
               135   -167   0
               168   -201   0
               202   -231   0
               232   -261   0
               262   -292   0
               293   -323   0
               324   -354   0
               355   -385   0
               386   -415   0
               416   -449   0
               450   -480   0
               481   -513   0
               514   -543   0
               544   -576   0
               577   -609   0
               610   -643   0
               644   -677   0
               678   -710   0
               711   -740   0
               741   -774   0
               775   -807   0
               808   -840   0
               841   -871   0
               872   -902   0
               903   -936   0
               937   -966   0
               967   -996   0
               997   -1024   0
 $END

 $FMOBND
   -37   36       3-21G    MINI
   -70   69       3-21G    MINI
   -104   103       3-21G    MINI
   -135   134       3-21G    MINI
   -168   167       3-21G    MINI
   -202   201       3-21G    MINI
   -232   231       3-21G    MINI
   -262   261       3-21G    MINI
   -293   292       3-21G    MINI
   -324   323       3-21G    MINI
   -355   354       3-21G    MINI
   -386   385       3-21G    MINI
   -416   415       3-21G    MINI
   -450   449       3-21G    MINI
   -481   480       3-21G    MINI
   -514   513       3-21G    MINI
   -544   543       3-21G    MINI
   -577   576       3-21G    MINI
   -610   609       3-21G    MINI
   -644   643       3-21G    MINI
   -678   677       3-21G    MINI
   -711   710       3-21G    MINI
   -741   740       3-21G    MINI
   -775   774       3-21G    MINI
   -808   807       3-21G    MINI
   -841   840       3-21G    MINI
   -872   871       3-21G    MINI
   -903   902       3-21G    MINI
   -937   936       3-21G    MINI
   -967   966       3-21G    MINI
   -997   996       3-21G    MINI
 $END
 $FMOHYB
 3-21G        9   5
   1 0  -0.070459   0.164841   0.000000   0.000000   0.502116
         0.466939   0.000000   0.000000   0.418036
   0 1  -0.070465   0.164857   0.473392   0.000000  -0.167359
         0.466967   0.394111   0.000000  -0.139327
   0 1  -0.070465   0.164857  -0.236695  -0.409969  -0.167359
         0.466967  -0.197055  -0.341311  -0.139327
   0 1  -0.070465   0.164857  -0.236695   0.409969  -0.167359
         0.466967  -0.197055   0.341311  -0.139327
   0 1   1.006716   0.074826   0.000000   0.000000   0.000000
        -0.143830   0.000000   0.000000  -0.000003
 MINI         5   5
   1 0  -0.104883   0.308874   0.000000   0.000000   0.521806
   0 1  -0.104883   0.308874   0.491961   0.000000  -0.173934
   0 1  -0.104883   0.308876  -0.245980  -0.426050  -0.173933
   0 1  -0.104883   0.308876  -0.245980   0.426050  -0.173933
   0 1   0.988209   0.063992   0.000000   0.000000   0.000000
 $END

 $DATA
 FMO calculation : XXNAMEXX
 C1 
 C.1-1    6
      N21 3
   
 O.1-1    8
      N21 3
   
 N.1-1    7
      N21 3
   
 H.1-1    1
      N21 3
   
 P.1-1   15
      N21 3
   
 $END
 $FMOXYZ
    1    H    9.381    -21.871    -0.569
    2    O    8.542    -22.203    -1.001
    3    C    8.856    -23.337    -1.818
    4    H    9.174    -24.082    -1.232
    5    H    9.450    -23.044    -2.567
    6    C    7.614    -23.896    -2.509
    7    H    7.884    -24.611    -3.154
    8    O    6.699    -24.435    -1.585
    9    C    5.427    -24.521    -2.260
    10    H    5.369    -25.446    -2.636
    11    N    4.373    -24.251    -1.257
    12    C    3.053    -24.630    -1.341
    13    N    0.485    -26.240    -3.032
    14    H    -0.499    -26.461    -2.986
    15    H    0.986    -26.581    -3.840
    16    N    2.492    -25.339    -2.349
    17    C    1.190    -25.550    -2.147
    18    N    0.503    -25.101    -1.048
    19    H    -0.502    -25.322    -0.994
    20    C    1.051    -24.376    -0.007
    21    O    0.343    -24.019    0.931
    22    C    2.440    -24.142    -0.208
    23    N    3.357    -23.464    0.591
    24    C    4.464    -23.564    -0.078
    25    H    5.192    -23.098    0.425
    26    C    5.446    -23.517    -3.411
    27    H    4.736    -22.833    -3.243
    28    O    5.288    -24.148    -4.688
    29    H    4.728    -24.928    -4.688
    30    C    6.812    -22.856    -3.276
    31    H    6.714    -22.038    -2.710
    32    O    7.467    -22.849    -4.554
    33    P    7.230    -21.780    -5.759
    34    O    7.995    -22.048    -7.002
    35    O    7.626    -20.766    -4.785
    36    O    5.651    -21.759    -6.038
    37    C    5.054    -22.705    -6.926
    38    H    5.239    -23.629    -6.590
    39    H    5.322    -22.485    -7.864
    40    C    3.537    -22.583    -6.915
    41    H    3.148    -23.206    -7.594
    42    O    3.005    -22.915    -5.612
    43    C    1.662    -22.389    -5.600
    44    H    1.071    -23.098    -5.986
    45    N    1.310    -22.072    -4.201
    46    C    0.204    -21.819    -2.321
    47    N    1.489    -21.342    -2.081
    48    C    2.085    -21.518    -3.221
    49    H    3.030    -21.199    -3.147
    50    N    -2.044    -22.432    -2.064
    51    C    -2.037    -22.835    -3.336
    52    H    -2.831    -23.228    -3.800
    53    N    -1.015    -22.790    -4.188
    54    C    0.083    -22.265    -3.606
    55    C    -0.933    -21.914    -1.515
    56    N    -0.954    -21.520    -0.244
    57    H    -1.809    -21.619    0.285
    58    H    -0.115    -21.131    0.162
    59    C    1.654    -21.175    -6.529
    60    H    1.591    -20.358    -5.956
    61    O    0.613    -21.261    -7.507
    62    H    -0.182    -21.711    -7.214
    63    C    3.009    -21.194    -7.216
    64    H    3.596    -20.519    -6.769
    65    O    2.851    -20.982    -8.623
    66    P    2.558    -19.473    -9.101
    67    O    2.799    -19.410    -10.557
    68    O    3.220    -18.484    -8.215
    69    O    0.972    -19.361    -8.856
    70    C    0.074    -20.178    -9.614
    71    H    0.341    -21.136    -9.513
    72    H    -0.000    -19.808    -10.540
    73    C    -1.349    -20.127    -9.075
    74    H    -1.979    -20.708    -9.590
    75    O    -1.348    -20.541    -7.703
    76    C    -2.619    -20.184    -7.118
    77    H    -3.233    -20.972    -7.173
    78    N    -2.367    -19.755    -5.727
    79    C    -3.322    -19.477    -4.778
    80    N    -6.655    -19.252    -3.837
    81    H    -7.262    -19.018    -3.064
    82    H    -7.106    -19.540    -4.693
    83    N    -4.662    -19.561    -4.949
    84    C    -5.330    -19.222    -3.848
    85    N    -4.730    -18.839    -2.676
    86    H    -5.345    -18.605    -1.883
    87    C    -3.367    -18.742    -2.474
    88    O    -2.935    -18.384    -1.383
    89    C    -2.638    -19.098    -3.643
    90    N    -1.264    -19.138    -3.866
    91    C    -1.175    -19.528    -5.100
    92    H    -0.210    -19.586    -5.354
    93    C    -3.118    -19.093    -8.080
    94    H    -3.362    -18.300    -7.522
    95    O    -4.188    -19.560    -8.906
    96    H    -4.755    -20.219    -8.500
    97    C    -1.936    -18.732    -8.961
    98    H    -1.292    -18.147    -8.469
    99    O    -2.247    -17.978    -10.145
    100    P    -1.926    -16.396    -10.187
    101    O    -2.247    -15.948    -11.552
    102    O    -0.656    -15.830    -9.639
    103    O    -3.058    -15.756    -9.239
    104    C    -4.427    -16.020    -9.561
    105    H    -4.557    -17.008    -9.643
    106    H    -4.696    -15.446    -10.334
    107    C    -5.410    -15.623    -8.465
    108    H    -6.353    -15.763    -8.765
    109    O    -5.171    -16.414    -7.287
    110    C    -5.703    -15.679    -6.170
    111    H    -6.551    -16.137    -5.903
    112    N    -4.687    -15.695    -5.098
    113    C    -3.362    -15.851    -5.386
    114    H    -2.904    -16.003    -6.262
    115    C    -2.439    -15.811    -4.410
    116    H    -1.443    -15.900    -4.403
    117    C    -5.125    -15.499    -3.798
    118    O    -6.324    -15.377    -3.561
    119    N    -4.197    -15.455    -2.805
    120    C    -2.895    -15.601    -3.076
    121    N    -2.010    -15.520    -2.089
    122    H    -2.340    -15.349    -1.150
    123    H    -1.022    -15.627    -2.272
    124    C    -6.035    -14.266    -6.677
    125    H    -5.647    -13.605    -6.035
    126    O    -7.442    -14.095    -6.879
    127    H    -8.001    -14.575    -6.264
    128    C    -5.284    -14.175    -7.996
    129    H    -4.320    -13.971    -7.824
    130    O    -5.684    -13.062    -8.839
    131    P    -4.979    -11.608    -8.791
    132    O    -5.476    -10.815    -9.930
    133    O    -3.533    -11.320    -8.505
    134    O    -5.706    -11.000    -7.499
    135    C    -7.138    -11.069    -7.478
    136    H    -7.420    -12.018    -7.618
    137    H    -7.507    -10.374    -8.096
    138    C    -7.735    -10.708    -6.127
    139    H    -8.734    -10.695    -6.175
    140    O    -7.318    -11.671    -5.101
    141    C    -7.493    -10.997    -3.839
    142    H    -8.322    -11.374    -3.426
    143    N    -6.290    -11.273    -3.026
    144    C    -4.928    -11.595    -1.334
    145    N    -4.181    -11.842    -2.485
    146    C    -5.037    -11.634    -3.440
    147    H    -4.587    -11.787    -4.320
    148    N    -5.579    -11.336    0.900
    149    C    -6.796    -11.009    0.466
    150    H    -7.558    -10.772    1.069
    151    N    -7.206    -10.940    -0.798
    152    C    -6.209    -11.247    -1.652
    153    C    -4.609    -11.639    0.025
    154    N    -3.402    -11.963    0.478
    155    H    -3.240    -11.974    1.475
    156    H    -2.675    -12.190    -0.185
    157    C    -7.720    -9.511    -4.147
    158    H    -7.107    -8.979    -3.564
    159    O    -9.095    -9.140    -3.999
    160    H    -9.571    -9.613    -3.313
    161    C    -7.281    -9.360    -5.596
    162    H    -6.284    -9.308    -5.649
    163    O    -7.995    -8.295    -6.247
    164    P    -7.511    -6.753    -6.228
    165    O    -8.463    -5.927    -7.008
    166    O    -6.069    -6.723    -6.556
    167    O    -7.696    -6.390    -4.674
    168    C    -9.002    -6.408    -4.090
    169    H    -9.490    -7.220    -4.409
    170    H    -9.434    -5.517    -4.230
    171    C    -8.947    -6.569    -2.576
    172    H    -9.843    -6.775    -2.183
    173    O    -8.051    -7.618    -2.257
    174    C    -7.669    -7.470    -0.877
    175    H    -8.205    -8.124    -0.343
    176    N    -6.216    -7.731    -0.789
    177    C    -5.477    -7.826    0.367
    178    N    -5.274    -7.725    3.832
    179    H    -4.634    -7.817    4.608
    180    H    -6.237    -7.526    4.064
    181    N    -5.949    -7.688    1.628
    182    C    -4.987    -7.837    2.543
    183    N    -3.677    -8.099    2.239
    184    H    -3.018    -8.194    3.025
    185    C    -3.169    -8.246    0.960
    186    O    -1.978    -8.492    0.798
    187    C    -4.183    -8.089    -0.025
    188    N    -4.097    -8.157    -1.414
    189    C    -5.318    -7.938    -1.796
    190    H    -5.357    -7.966    -2.795
    191    C    -8.096    -6.047    -0.498
    192    H    -7.318    -5.597    -0.059
    193    O    -9.270    -6.040    0.321
    194    H    -9.354    -6.789    0.915
    195    C    -8.366    -5.375    -1.838
    196    H    -7.505    -5.111    -2.273
    197    O    -9.408    -4.391    -1.695
    198    P    -9.184    -2.821    -1.365
    199    O    -10.464    -2.072    -1.408
    200    O    -8.086    -2.505    -2.293
    201    O    -8.633    -2.812    0.147
    202    C    -9.509    -3.059    1.253
    203    H    -9.975    -3.932    1.111
    204    H    -10.072    -2.248    1.410
    205    C    -8.726    -3.244    2.550
    206    H    -9.322    -3.409    3.336
    207    O    -7.856    -4.344    2.394
    208    C    -6.711    -4.164    3.249
    209    H    -6.743    -4.872    3.955
    210    N    -5.502    -4.249    2.396
    211    C    -5.586    -4.064    1.043
    212    H    -6.388    -3.874    0.476
    213    C    -4.292    -4.508    3.013
    214    O    -4.190    -4.676    4.223
    215    N    -3.192    -4.562    2.183
    216    H    -2.281    -4.751    2.624
    217    C    -3.189    -4.387    0.815
    218    O    -2.143    -4.455    0.181
    219    C    -4.492    -4.123    0.252
    220    H    -4.402    -4.009    -0.737
    221    C    -6.929    -2.800    3.902
    222    H    -6.046    -2.335    3.960
    223    O    -7.587    -2.912    5.169
    224    H    -7.365    -3.698    5.673
    225    C    -7.809    -2.069    2.901
    226    H    -7.284    -1.812    2.089
    227    O    -8.468    -0.916    3.484
    228    P    -7.945    0.620    3.425
    229    O    -8.886    1.571    4.076
    230    O    -7.487    0.965    2.059
    231    O    -6.632    0.593    4.358
    232    C    -6.766    0.311    5.757
    233    H    -7.288    -0.535    5.870
    234    H    -7.096    1.131    6.224
    235    C    -5.433    0.012    6.440
    236    H    -5.544    -0.203    7.410
    237    O    -4.837    -1.090    5.791
    238    C    -3.409    -1.034    5.986
    239    H    -3.164    -1.765    6.623
    240    N    -2.775    -1.200    4.658
    241    C    -3.491    -0.988    3.511
    242    H    -4.452    -0.735    3.397
    243    C    -1.438    -1.550    4.617
    244    O    -0.777    -1.750    5.632
    245    N    -0.881    -1.667    3.363
    246    H    0.114    -1.927    3.313
    247    C    -1.527    -1.469    2.160
    248    O    -0.923    -1.596    1.101
    249    C    -2.920    -1.110    2.292
    250    H    -3.313    -0.988    1.380
    251    C    -3.148    0.322    6.657
    252    H    -2.360    0.746    6.210
    253    O    -2.987    0.189    8.072
    254    H    -2.565    -0.625    8.357
    255    C    -4.400    1.129    6.326
    256    H    -4.366    1.446    5.378
    257    O    -4.634    2.185    7.298
    258    P    -3.989    3.674    7.377
    259    O    -4.366    4.449    8.597
    260    O    -4.283    4.278    6.062
    261    O    -2.397    3.455    7.465
    262    C    -1.810    2.869    8.636
    263    H    -2.270    2.003    8.833
    264    H    -1.775    3.556    9.361
    265    C    -0.354    2.480    8.414
    266    H    0.061    2.020    9.199
    267    O    -0.274    1.613    7.265
    268    C    1.062    1.609    6.732
    269    H    1.523    0.770    7.021
    270    N    0.955    1.716    5.259
    271    C    -0.182    2.187    4.670
    272    H    -1.041    2.498    5.077
    273    C    -0.269    2.291    3.333
    274    H    -0.992    2.601    2.715
    275    C    2.054    1.333    4.503
    276    O    3.072    0.917    5.054
    277    N    1.975    1.435    3.151
    278    C    0.864    1.896    2.561
    279    N    0.821    1.991    1.237
    280    H    1.630    1.712    0.701
    281    H    -0.006    2.336    0.771
    282    C    1.696    2.801    7.456
    283    H    2.193    3.332    6.769
    284    O    2.529    2.384    8.542
    285    H    2.960    1.535    8.419
    286    C    0.539    3.636    7.986
    287    H    0.092    4.135    7.244
    288    O    0.952    4.352    9.167
    289    P    1.833    5.708    9.260
    290    O    2.345    6.040    10.617
    291    O    0.792    6.527    8.627
    292    O    3.084    5.549    8.260
    293    C    4.250    4.801    8.625
    294    H    3.971    3.889    8.925
    295    H    4.807    5.350    9.249
    296    C    5.131    4.566    7.409
    297    H    5.942    4.011    7.594
    298    O    4.366    3.941    6.393
    299    C    4.902    4.303    5.105
    300    H    5.267    3.474    4.681
    301    N    3.791    4.900    4.326
    302    C    2.664    5.346    4.954
    303    H    2.429    5.359    5.926
    304    C    1.646    5.870    4.251
    305    H    0.755    6.244    4.510
    306    C    3.925    4.976    2.944
    307    O    4.952    4.579    2.400
    308    N    2.895    5.506    2.224
    309    C    1.786    5.945    2.833
    310    N    0.795    6.451    2.107
    311    H    0.898    6.495    1.103
    312    H    -0.049    6.787    2.549
    313    C    6.057    5.246    5.428
    314    H    6.107    5.963    4.732
    315    O    7.296    4.553    5.597
    316    H    7.422    3.800    5.015
    317    C    5.562    5.854    6.730
    318    H    4.755    6.422    6.568
    319    O    6.674    6.290    7.517
    320    P    7.441    7.713    7.386
    321    O    8.586    7.778    8.322
    322    O    6.173    8.418    7.594
    323    O    7.923    7.796    5.862
    324    C    9.126    7.150    5.448
    325    H    9.022    6.162    5.564
    326    H    9.904    7.594    5.893
    327    C    9.359    7.348    3.960
    328    H    10.211    6.926    3.650
    329    O    8.261    6.783    3.222
    330    C    8.118    7.526    1.997
    331    H    8.313    6.896    1.245
    332    N    6.729    8.043    1.961
    333    C    6.001    8.161    3.110
    334    H    6.251    7.956    4.056
    335    C    4.737    8.615    3.080
    336    H    4.048    8.772    3.788
    337    C    6.191    8.388    0.726
    338    O    6.864    8.286    -0.297
    339    N    4.909    8.851    0.687
    340    C    4.188    8.969    1.811
    341    N    2.940    9.426    1.742
    342    H    2.561    9.675    0.840
    343    H    2.379    9.523    2.577
    344    C    9.201    8.609    2.034
    345    H    8.838    9.452    1.637
    346    O    10.415    8.179    1.411
    347    H    10.299    7.614    0.644
    348    C    9.370    8.801    3.532
    349    H    8.566    9.259    3.913
    350    O    10.624    9.415    3.844
    351    P    10.709    10.985    4.194
    352    O    12.089    11.299    4.624
    353    O    9.559    11.404    5.034
    354    O    10.490    11.567    2.715
    355    C    11.424    11.248    1.678
    356    H    11.480    10.254    1.585
    357    H    12.272    11.753    1.837
    358    C    10.938    11.734    0.316
    359    H    11.578    11.515    -0.421
    360    O    9.661    11.142    0.019
    361    C    8.942    12.027    -0.857
    362    H    8.910    11.587    -1.754
    363    N    7.597    12.219    -0.268
    364    C    7.385    11.985    1.058
    365    H    8.023    11.699    1.773
    366    C    6.164    12.131    1.595
    367    H    5.804    12.011    2.520
    368    C    6.563    12.618    -1.105
    369    O    6.775    12.835    -2.296
    370    N    5.321    12.769    -0.568
    371    C    5.104    12.539    0.734
    372    N    3.881    12.684    1.230
    373    H    3.134    12.967    0.612
    374    H    3.698    12.515    2.209
    375    C    9.778    13.307    -0.958
    376    H    9.165    14.092    -0.869
    377    O    10.549    13.350    -2.161
    378    H    10.134    12.940    -2.923
    379    C    10.671    13.232    0.276
    380    H    10.148    13.491    1.088
    381    O    11.848    14.050    0.188
    382    P    11.925    15.488    0.907
    383    O    13.265    16.065    0.661
    384    O    11.384    15.618    2.289
    385    O    10.895    16.262    -0.047
    386    C    11.124    16.217    -1.460
    387    H    11.256    15.266    -1.738
    388    H    11.837    16.877    -1.695
    389    C    9.915    16.674    -2.259
    390    H    10.078    16.577    -3.241
    391    O    8.778    15.923    -1.907
    392    C    7.630    16.706    -2.278
    393    H    7.299    16.330    -3.143
    394    N    6.634    16.574    -1.193
    395    C    7.013    16.179    0.061
    396    H    7.919    15.937    0.407
    397    C    5.317    16.867    -1.490
    398    O    4.955    17.223    -2.608
    399    N    4.421    16.742    -0.450
    400    H    3.434    16.960    -0.650
    401    C    4.716    16.352    0.839
    402    O    3.827    16.268    1.683
    403    C    6.114    16.063    1.063
    404    H    6.241    15.791    2.017
    405    C    8.104    18.142    -2.508
    406    H    7.564    18.749    -1.925
    407    O    8.040    18.514    -3.891
    408    H    7.316    18.120    -4.384
    409    C    9.538    18.118    -2.003
    410    H    9.542    18.286    -1.017
    411    O    10.361    18.989    -2.782
    412    P    10.834    20.395    -2.157
    413    O    11.559    21.104    -3.232
    414    O    11.463    20.205    -0.827
    415    O    9.403    21.095    -1.947
    416    C    8.582    21.413    -3.076
    417    H    8.480    20.597    -3.645
    418    H    8.931    22.245    -3.508
    419    C    7.159    21.767    -2.652
    420    H    6.628    22.104    -3.429
    421    O    6.514    20.627    -2.112
    422    C    5.552    21.055    -1.125
    423    H    4.646    20.827    -1.482
    424    N    5.864    20.365    0.143
    425    C    4.983    20.105    1.171
    426    N    1.772    20.207    2.489
    427    H    1.224    19.966    3.302
    428    H    1.276    20.643    1.725
    429    N    3.661    20.388    1.179
    430    C    3.073    20.013    2.317
    431    N    3.735    19.411    3.356
    432    H    3.183    19.163    4.190
    433    C    5.084    19.111    3.372
    434    O    5.577    18.573    4.356
    435    C    5.721    19.504    2.166
    436    N    7.052    19.382    1.779
    437    C    7.066    19.903    0.592
    438    H    7.996    19.859    0.228
    439    C    5.681    22.567    -1.030
    440    H    5.644    22.829    -0.066
    441    O    4.692    23.239    -1.821
    442    H    3.843    22.794    -1.871
    443    C    7.087    22.819    -1.559
    444    H    7.756    22.598    -0.850
    445    O    7.184    24.129    -2.122
    446    P    8.051    25.262    -1.374
    447    O    8.037    26.479    -2.212
    448    O    9.330    24.673    -0.920
    449    O    7.093    25.468    -0.104
    450    C    7.573    26.096    1.078
    451    H    7.782    27.053    0.876
    452    H    8.296    25.532    1.476
    453    C    6.493    26.155    2.154
    454    H    6.888    26.438    3.028
    455    O    5.521    27.114    1.752
    456    C    4.235    26.489    1.585
    457    H    3.602    26.996    2.170
    458    N    3.873    26.593    0.152
    459    C    4.646    26.015    -0.815
    460    H    5.484    25.475    -0.734
    461    C    4.321    26.127    -2.115
    462    H    4.741    25.791    -2.958
    463    C    2.729    27.309    -0.174
    464    O    2.045    27.816    0.711
    465    N    2.393    27.426    -1.490
    466    C    3.146    26.864    -2.443
    467    N    2.793    27.002    -3.719
    468    H    1.961    27.530    -3.941
    469    H    3.346    26.587    -4.455
    470    C    4.334    25.045    2.091
    471    H    4.080    24.447    1.331
    472    O    3.531    24.823    3.254
    473    H    2.732    25.353    3.302
    474    C    5.803    24.825    2.426
    475    H    6.153    24.140    1.787
    476    O    5.954    24.492    3.814
    477    P    5.508    23.041    4.371
    478    O    6.287    22.764    5.599
    479    O    5.502    22.044    3.274
    480    O    3.974    23.320    4.800
    481    C    3.649    24.273    5.832
    482    H    3.952    25.181    5.543
    483    H    3.978    23.927    6.710
    484    C    2.139    24.430    6.035
    485    H    1.955    24.967    6.858
    486    O    1.589    25.106    4.906
    487    C    0.472    24.384    4.382
    488    H    -0.342    24.877    4.688
    489    N    0.573    24.368    2.911
    490    C    0.185    24.749    0.786
    491    N    1.409    24.085    0.845
    492    C    1.573    23.889    2.116
    493    H    2.436    23.406    2.262
    494    N    -1.736    25.840    0.013
    495    C    -2.137    25.946    1.279
    496    H    -2.996    26.376    1.557
    497    N    -1.496    25.518    2.363
    498    C    -0.330    24.922    2.037
    499    C    -0.570    25.245    -0.279
    500    N    -0.164    25.188    -1.544
    501    H    -0.744    25.596    -2.263
    502    H    0.715    24.738    -1.756
    503    C    0.466    22.998    4.989
    504    H    0.879    22.373    4.326
    505    O    -0.854    22.602    5.371
    506    H    -1.557    22.947    4.816
    507    C    1.380    23.108    6.204
    508    H    2.031    22.350    6.155
    509    O    0.586    23.257    7.386
    510    P    -0.316    22.029    7.932
    511    O    -0.422    22.198    9.397
    512    O    0.308    20.832    7.332
    513    O    -1.758    22.289    7.258
    514    C    -2.952    22.181    8.049
    515    H    -2.914    22.852    8.790
    516    H    -3.096    21.222    8.292
    517    C    -4.196    22.565    7.246
    518    H    -5.025    22.320    7.749
    519    O    -4.180    23.985    7.035
    520    C    -4.309    24.261    5.634
    521    H    -5.280    24.419    5.453
    522    N    -3.517    25.487    5.304
    523    C    -2.438    25.848    6.075
    524    H    -2.067    25.407    6.892
    525    C    -3.883    26.246    4.193
    526    O    -4.831    25.962    3.471
    527    N    -3.103    27.353    3.931
    528    H    -3.363    27.925    3.115
    529    C    -2.007    27.774    4.652
    530    O    -1.384    28.775    4.310
    531    C    -1.691    26.940    5.785
    532    H    -0.888    27.313    6.250
    533    C    -3.867    22.980    4.909
    534    H    -2.869    22.976    4.843
    535    O    -4.494    22.858    3.626
    536    H    -4.646    23.688    3.169
    537    C    -4.307    21.883    5.887
    538    H    -3.643    21.136    5.842
    539    O    -5.655    21.468    5.605
    540    P    -5.972    20.145    4.732
    541    O    -7.433    19.912    4.788
    542    O    -5.064    19.021    5.064
    543    O    -5.613    20.629    3.233
    544    C    -6.353    21.691    2.607
    545    H    -6.225    22.531    3.134
    546    H    -7.289    21.381    2.439
    547    C    -5.805    22.022    1.219
    548    H    -6.386    22.703    0.773
    549    O    -4.453    22.537    1.303
    550    C    -3.901    22.421    -0.008
    551    H    -4.016    23.315    -0.441
    552    N    -2.476    22.074    0.126
    553    C    -0.337    21.830    -0.283
    554    N    -0.536    21.378    1.021
    555    C    -1.812    21.550    1.198
    556    H    -2.056    21.251    2.121
    557    N    0.641    22.413    -2.330
    558    C    -0.564    22.793    -2.752
    559    H    -0.744    23.168    -3.661
    560    N    -1.701    22.746    -2.071
    561    C    -1.512    22.251    -0.832
    562    C    0.798    21.923    -1.091
    563    N    2.006    21.550    -0.692
    564    H    2.783    21.643    -1.331
    565    H    2.121    21.181    0.241
    566    C    -4.731    21.382    -0.777
    567    H    -4.116    20.653    -1.079
    568    O    -5.444    21.986    -1.866
    569    H    -4.993    22.721    -2.287
    570    C    -5.684    20.823    0.287
    571    H    -5.234    20.075    0.775
    572    O    -6.933    20.426    -0.303
    573    P    -7.218    18.886    -0.691
    574    O    -8.557    18.821    -1.320
    575    O    -6.917    17.937    0.411
    576    O    -6.126    18.632    -1.852
    577    C    -6.161    19.433    -3.039
    578    H    -6.218    20.397    -2.780
    579    H    -6.860    19.071    -3.655
    580    C    -4.875    19.351    -3.858
    581    H    -4.994    19.860    -4.710
    582    O    -3.758    19.913    -3.124
    583    C    -2.559    19.245    -3.570
    584    H    -2.020    19.935    -4.053
    585    N    -1.862    18.730    -2.376
    586    C    -0.323    17.994    -0.997
    587    N    -1.521    17.979    -0.287
    588    C    -2.380    18.418    -1.153
    589    H    -3.286    18.440    -0.731
    590    N    1.933    17.774    -1.591
    591    C    1.616    18.231    -2.805
    592    H    2.277    18.351    -3.546
    593    N    0.412    18.596    -3.235
    594    C    -0.519    18.448    -2.269
    595    C    0.984    17.642    -0.651
    596    N    1.317    17.206    0.561
    597    H    2.283    16.981    0.752
    598    H    0.596    17.110    1.262
    599    C    -2.963    18.143    -4.560
    600    H    -2.463    17.306    -4.336
    601    O    -2.777    18.553    -5.917
    602    H    -2.017    19.120    -6.068
    603    C    -4.437    17.947    -4.221
    604    H    -4.505    17.365    -3.411
    605    O    -5.166    17.570    -5.395
    606    P    -5.236    16.029    -5.877
    607    O    -6.074    15.976    -7.095
    608    O    -5.603    15.296    -4.651
    609    O    -3.710    15.703    -6.269
    610    C    -3.043    16.423    -7.312
    611    H    -3.090    17.402    -7.113
    612    H    -3.386    16.107    -8.197
    613    C    -1.555    16.103    -7.337
    614    H    -1.102    16.578    -8.092
    615    O    -0.925    16.480    -6.102
    616    C    0.272    15.687    -5.976
    617    H    1.036    16.290    -6.207
    618    N    0.325    15.206    -4.579