!*** FMO 5.2 (Gamess) INPUT generated by Facio 21.1.1.32 ***
 $CONTRL RUNTYP=OPTFMO NPRINT=-5 ISPHER=-1 MAXIT=50 $END
 $SYSTEM MWORDS=29 $END
 $GDDI NGROUP=1 $END
 $INTGRL NINTIC=-9000000 $END
 $SCF DIRSCF=.FALSE. NPUNCH=0 $END
!*** NumCPU : 2  MemPerNode : 512MB
 $FMOPRP
    NAODIR=210
    NGRFMO(1)=1, 1, 0, 0, 0,   0, 0, 0, 0, 0
    NPRINT=9
 $END
 $FMO
      SCFTYP(1)=RHF
      MODGRD=10
      MODMUL=0
      MAXCAO=5
      MAXBND=34
      NLAYER=1
      NFRAG=32
      ICHARG(1)=-1, -1, -1, -1, -1, -1, -1, -1, -1, -1, 
-1, -1, -1, -1, -1, -1, -1, -1, -1, -1, 
-1, -1, -1, -1, -1, -1, -1, -1, -1, -1, 
-1, 0
      FRGNAM(1)=Frag1, Frag2, Frag3, Frag4, Frag5, Frag6, Frag7, Frag8, Frag9, Frag10, Frag11, Frag12, Frag13, Frag14, Frag15, Frag16, Frag17, Frag18, Frag19, Frag20, Frag21, Frag22, Frag23, Frag24, Frag25, Frag26, Frag27, Frag28, Frag29, Frag30, Frag31, Frag32
      indat(1)=0
               1   -36   0
               37   -69   0
               70   -103   0
               104   -134   0
               135   -167   0
               168   -201   0
               202   -231   0
               232   -261   0
               262   -292   0
               293   -323   0
               324   -354   0
               355   -385   0
               386   -415   0
               416   -449   0
               450   -480   0
               481   -513   0
               514   -543   0
               544   -576   0
               577   -609   0
               610   -643   0
               644   -677   0
               678   -710   0
               711   -740   0
               741   -774   0
               775   -807   0
               808   -840   0
               841   -871   0
               872   -902   0
               903   -936   0
               937   -966   0
               967   -996   0
               997   -1024   0
 $END

 $FMOBND
   -37   36       3-21G    MINI
   -70   69       3-21G    MINI
   -104   103       3-21G    MINI
   -135   134       3-21G    MINI
   -168   167       3-21G    MINI
   -202   201       3-21G    MINI
   -232   231       3-21G    MINI
   -262   261       3-21G    MINI
   -293   292       3-21G    MINI
   -324   323       3-21G    MINI
   -355   354       3-21G    MINI
   -386   385       3-21G    MINI
   -416   415       3-21G    MINI
   -450   449       3-21G    MINI
   -481   480       3-21G    MINI
   -514   513       3-21G    MINI
   -544   543       3-21G    MINI
   -577   576       3-21G    MINI
   -610   609       3-21G    MINI
   -644   643       3-21G    MINI
   -678   677       3-21G    MINI
   -711   710       3-21G    MINI
   -741   740       3-21G    MINI
   -775   774       3-21G    MINI
   -808   807       3-21G    MINI
   -841   840       3-21G    MINI
   -872   871       3-21G    MINI
   -903   902       3-21G    MINI
   -937   936       3-21G    MINI
   -967   966       3-21G    MINI
   -997   996       3-21G    MINI
 $END
 $FMOHYB
 3-21G        9   5
   1 0  -0.070459   0.164841   0.000000   0.000000   0.502116
         0.466939   0.000000   0.000000   0.418036
   0 1  -0.070465   0.164857   0.473392   0.000000  -0.167359
         0.466967   0.394111   0.000000  -0.139327
   0 1  -0.070465   0.164857  -0.236695  -0.409969  -0.167359
         0.466967  -0.197055  -0.341311  -0.139327
   0 1  -0.070465   0.164857  -0.236695   0.409969  -0.167359
         0.466967  -0.197055   0.341311  -0.139327
   0 1   1.006716   0.074826   0.000000   0.000000   0.000000
        -0.143830   0.000000   0.000000  -0.000003
 MINI         5   5
   1 0  -0.104883   0.308874   0.000000   0.000000   0.521806
   0 1  -0.104883   0.308874   0.491961   0.000000  -0.173934
   0 1  -0.104883   0.308876  -0.245980  -0.426050  -0.173933
   0 1  -0.104883   0.308876  -0.245980   0.426050  -0.173933
   0 1   0.988209   0.063992   0.000000   0.000000   0.000000
 $END

 $DATA
 FMO calculation : XXNAMEXX
 C1 
 C.1-1    6
      N21 3
   
 O.1-1    8
      N21 3
   
 N.1-1    7
      N21 3
   
 H.1-1    1
      N21 3
   
 P.1-1   15
      N21 3
   
 $END
 $FMOXYZ
    1    H    9.115    -21.098    -1.833
    2    O    8.282    -21.148    -2.384
    3    C    8.545    -21.927    -3.557
    4    H    8.747    -22.868    -3.285
    5    H    9.217    -21.448    -4.122
    6    C    7.311    -22.046    -4.450
    7    H    7.560    -22.504    -5.303
    8    O    6.281    -22.778    -3.819
    9    C    5.057    -22.463    -4.514
    10    H    4.937    -23.168    -5.213
    11    N    3.966    -22.465    -3.514
    12    C    2.625    -22.632    -3.774
    13    N    0.041    -23.196    -6.021
    14    H    -0.961    -23.305    -6.091
    15    H    0.563    -23.268    -6.883
    16    N    2.072    -22.848    -4.991
    17    C    0.744    -22.969    -4.921
    18    N    0.028    -22.884    -3.754
    19    H    -0.994    -22.992    -3.816
    20    C    0.568    -22.665    -2.502
    21    O    -0.167    -22.603    -1.520
    22    C    1.983    -22.533    -2.559
    23    N    2.903    -22.309    -1.537
    24    C    4.039    -22.280    -2.161
    25    H    4.771    -22.121    -1.498
    26    C    5.258    -21.110    -5.201
    27    H    4.615    -20.458    -4.799
    28    O    5.124    -21.203    -6.625
    29    H    4.489    -21.855    -6.931
    30    C    6.674    -20.715    -4.810
    31    H    6.628    -20.144    -3.991
    32    O    7.363    -20.124    -5.923
    33    P    7.383    -18.514    -6.094
    34    O    8.249    -18.202    -7.254
    35    O    7.655    -17.874    -4.783
    36    O    5.860    -18.195    -6.507
    37    C    5.333    -18.723    -7.728
    38    H    5.464    -19.714    -7.737
    39    H    5.697    -18.195    -8.495
    40    C    3.824    -18.543    -7.832
    41    H    3.511    -18.858    -8.728
    42    O    3.147    -19.302    -6.804
    43    C    1.815    -18.755    -6.739
    44    H    1.268    -19.249    -7.415
    45    N    1.310    -18.950    -5.365
    46    C    0.000    -19.343    -3.646
    47    N    1.253    -19.045    -3.118
    48    C    1.973    -18.823    -4.176
    49    H    2.905    -18.595    -3.894
    50    N    -2.265    -19.903    -3.863
    51    C    -2.118    -19.818    -5.186
    52    H    -2.857    -19.979    -5.841
    53    N    -1.006    -19.516    -5.853
    54    C    0.023    -19.288    -5.010
    55    C    -1.221    -19.671    -3.051
    56    N    -1.382    -19.763    -1.734
    57    H    -2.291    -20.007    -1.368
    58    H    -0.591    -19.587    -1.131
    59    C    1.917    -17.287    -7.157
    60    H    1.791    -16.731    -6.335
    61    O    0.993    -16.966    -8.200
    62    H    0.168    -17.457    -8.176
    63    C    3.342    -17.114    -7.658
    64    H    3.878    -16.675    -6.937
    65    O    3.345    -16.442    -8.927
    66    P    2.980    -14.870    -9.022
    67    O    3.372    -14.389    -10.366
    68    O    3.496    -14.183    -7.815
    69    O    1.372    -14.887    -8.947
    70    C    0.606    -15.457    -10.012
    71    H    0.915    -16.395    -10.169
    72    H    0.608    -14.826    -10.788
    73    C    -0.864    -15.600    -9.645
    74    H    -1.408    -16.010    -10.377
    75    O    -0.986    -16.403    -8.470
    76    C    -2.329    -16.262    -7.958
    77    H    -2.890    -17.009    -8.314
    78    N    -2.246    -16.263    -6.483
    79    C    -3.308    -16.301    -5.611
    80    N    -6.729    -16.433    -5.037
    81    H    -7.425    -16.453    -4.305
    82    H    -7.072    -16.459    -5.987
    83    N    -4.617    -16.356    -5.953
    84    C    -5.413    -16.376    -4.885
    85    N    -4.960    -16.348    -3.591
    86    H    -5.666    -16.372    -2.841
    87    C    -3.632    -16.290    -3.214
    88    O    -3.336    -16.266    -2.023
    89    C    -2.768    -16.266    -4.344
    90    N    -1.377    -16.209    -4.408
    91    C    -1.140    -16.211    -5.684
    92    H    -0.152    -16.172    -5.832
    93    C    -2.781    -14.946    -8.603
    94    H    -3.128    -14.361    -7.870
    95    O    -3.733    -15.161    -9.650
    96    H    -4.307    -15.920    -9.526
    97    C    -1.527    -14.320    -9.184
    98    H    -0.971    -13.907    -8.463
    99    O    -1.838    -13.451    -10.277
    100    P    -1.864    -11.853    -10.077
    101    O    -2.164    -11.224    -11.381
    102    O    -0.651    -11.463    -9.324
    103    O    -3.140    -11.663    -9.118
    104    C    -4.451    -11.921    -9.627
    105    H    -4.489    -12.860    -9.967
    106    H    -4.708    -11.185    -10.253
    107    C    -5.518    -11.875    -8.540
    108    H    -6.431    -11.978    -8.935
    109    O    -5.303    -12.920    -7.586
    110    C    -5.952    -12.521    -6.365
    111    H    -6.781    -13.075    -6.289
    112    N    -5.005    -12.759    -5.258
    113    C    -3.657    -12.770    -5.474
    114    H    -3.137    -12.670    -6.322
    115    C    -2.800    -12.935    -4.452
    116    H    -1.803    -12.973    -4.392
    117    C    -5.534    -12.924    -3.988
    118    O    -6.750    -12.928    -3.820
    119    N    -4.674    -13.089    -2.948
    120    C    -3.350    -13.096    -3.146
    121    N    -2.535    -13.225    -2.106
    122    H    -2.933    -13.316    -1.182
    123    H    -1.533    -13.233    -2.234
    124    C    -6.348    -11.049    -6.521
    125    H    -6.050    -10.550    -5.708
    126    O    -7.748    -10.897    -6.786
    127    H    -8.315    -11.538    -6.351
    128    C    -5.509    -10.607    -7.708
    129    H    -4.574    -10.423    -7.405
    130    O    -6.153    -9.543    -8.417
    131    P    -5.867    -8.011    -8.051
    132    O    -6.537    -7.157    -9.053
    133    O    -4.413    -7.881    -7.816
    134    O    -6.632    -7.841    -6.649
    135    C    -8.061    -7.924    -6.598
    136    H    -8.346    -8.828    -6.916
    137    H    -8.450    -7.123    -7.053
    138    C    -8.584    -7.841    -5.170
    139    H    -9.584    -7.824    -5.161
    140    O    -8.118    -8.986    -4.377
    141    C    -8.221    -8.576    -2.998
    142    H    -9.030    -9.031    -2.625
    143    N    -6.979    -9.004    -2.322
    144    C    -5.531    -9.651    -0.803
    145    N    -4.848    -9.662    -2.019
    146    C    -5.752    -9.272    -2.866
    147    H    -5.351    -9.246    -3.782
    148    N    -6.060    -9.843    1.469
    149    C    -7.296    -9.441    1.175
    150    H    -8.023    -9.332    1.853
    151    N    -7.772    -9.123    -0.026
    152    C    -6.825    -9.251    -0.976
    153    C    -5.141    -9.963    0.501
    154    N    -3.914    -10.368    0.815
    155    H    -3.699    -10.577    1.779
    156    H    -3.225    -10.457    0.082
    157    C    -8.453    -7.059    -2.992
    158    H    -7.804    -6.649    -2.351
    159    O    -9.815    -6.730    -2.700
    160    H    -10.256    -7.330    -2.094
    161    C    -8.093    -6.627    -4.405
    162    H    -7.099    -6.563    -4.499
    163    O    -8.815    -5.447    -4.783
    164    P    -8.174    -3.991    -4.527
    165    O    -9.112    -2.976    -5.052
    166    O    -6.767    -4.008    -4.985
    167    O    -8.187    -3.901    -2.922
    168    C    -9.432    -3.930    -2.218
    169    H    -10.016    -4.636    -2.619
    170    H    -9.794    -3.000    -2.158
    171    C    -9.263    -4.361    -0.768
    172    H    -10.136    -4.575    -0.329
    173    O    -8.430    -5.507    -0.722
    174    C    -7.918    -5.631    0.618
    175    H    -8.459    -6.330    1.085
    176    N    -6.491    -6.002    0.513
    177    C    -5.663    -6.350    1.557
    178    N    -5.151    -6.875    4.950
    179    H    -4.455    -7.146    5.630
    180    H    -6.069    -6.655    5.308
    181    N    -6.010    -6.404    2.864
    182    C    -4.989    -6.777    3.639
    183    N    -3.737    -7.071    3.164
    184    H    -3.022    -7.348    3.852
    185    C    -3.357    -7.025    1.835
    186    O    -2.210    -7.319    1.514
    187    C    -4.436    -6.628    0.997
    188    N    -4.478    -6.455    -0.385
    189    C    -5.705    -6.089    -0.599
    190    H    -5.833    -5.938    -1.579
    191    C    -8.189    -4.270    1.272
    192    H    -7.339    -3.955    1.695
    193    O    -9.281    -4.329    2.196
    194    H    -9.372    -5.163    2.663
    195    C    -8.525    -3.361    0.101
    196    H    -7.688    -3.078    -0.367
    197    O    -9.393    -2.294    0.514
    198    P    -8.776    -0.837    0.847
    199    O    -9.905    0.100    1.036
    200    O    -7.707    -0.515    -0.129
    201    O    -8.086    -1.085    2.280
    202    C    -8.890    -1.388    3.426
    203    H    -9.482    -2.165    3.212
    204    H    -9.320    -0.547    3.754
    205    C    -8.043    -1.866    4.600
    206    H    -8.590    -2.073    5.411
    207    O    -7.342    -3.022    4.213
    208    C    -6.119    -3.112    4.970
    209    H    -6.191    -3.909    5.570
    210    N    -5.004    -3.217    4.000
    211    C    -5.169    -2.823    2.700
    212    H    -5.980    -2.454    2.245
    213    C    -3.795    -3.710    4.455
    214    O    -3.622    -4.068    5.614
    215    N    -2.782    -3.774    3.522
    216    H    -1.873    -4.137    3.842
    217    C    -2.863    -3.400    2.198
    218    O    -1.888    -3.500    1.461
    219    C    -4.158    -2.897    1.806
    220    H    -4.131    -2.648    0.838
    221    C    -6.097    -1.848    5.823
    222    H    -5.160    -1.501    5.859
    223    O    -6.665    -2.062    7.120
    224    H    -6.504    -2.931    7.494
    225    C    -6.946    -0.893    5.007
    226    H    -6.451    -0.599    4.189
    227    O    -7.440    0.182    5.820
    228    P    -6.681    1.616    5.799
    229    O    -7.469    2.563    6.621
    230    O    -6.321    1.977    4.405
    231    O    -5.322    1.274    6.593
    232    C    -5.387    0.874    7.966
    233    H    -6.007    0.094    8.049
    234    H    -5.568    1.679    8.531
    235    C    -4.055    0.346    8.489
    236    H    -4.106    0.050    9.443
    237    O    -3.655    -0.744    7.692
    238    C    -2.220    -0.877    7.755
    239    H    -2.018    -1.691    8.300
    240    N    -1.727    -0.988    6.363
    241    C    -2.505    -0.582    5.312
    242    H    -3.432    -0.206    5.312
    243    C    -0.454    -1.489    6.164
    244    O    0.259    -1.864    7.090
    245    N    -0.025    -1.549    4.857
    246    H    0.922    -1.919    4.690
    247    C    -0.740    -1.161    3.743
    248    O    -0.249    -1.256    2.623
    249    C    -2.059    -0.653    4.037
    250    H    -2.508    -0.398    3.181
    251    C    -1.731    0.364    8.511
    252    H    -0.938    0.740    8.031
    253    O    -1.472    0.079    9.887
    254    H    -1.121    -0.798    10.060
    255    C    -2.904    1.322    8.357
    256    H    -2.907    1.706    7.434
    257    O    -2.940    2.284    9.421
    258    P    -2.288    3.750    9.228
    259    O    -2.535    4.532    10.461
    260    O    -2.695    4.293    7.911
    261    O    -0.722    3.394    9.162
    262    C    -0.082    2.783    10.289
    263    H    -0.578    1.949    10.532
    264    H    0.053    3.473    11.000
    265    C    1.323    2.305    9.952
    266    H    1.778    1.828    10.704
    267    O    1.256    1.426    8.810
    268    C    2.539    1.340    8.164
    269    H    2.977    0.480    8.426
    270    N    2.310    1.435    6.705
    271    C    1.154    1.963    6.209
    272    H    0.353    2.327    6.684
    273    C    0.956    2.056    4.882
    274    H    0.201    2.399    4.324
    275    C    3.316    0.981    5.863
    276    O    4.354    0.515    6.331
    277    N    3.125    1.072    4.521
    278    C    1.994    1.588    4.022
    279    N    1.842    1.670    2.705
    280    H    2.586    1.340    2.106
    281    H    0.998    2.055    2.306
    282    C    3.297    2.503    8.813
    283    H    3.756    3.002    8.078
    284    O    4.199    2.051    9.828
    285    H    4.574    1.180    9.678
    286    C    2.236    3.399    9.432
    287    H    1.755    3.916    8.724
    288    O    2.794    4.177    10.497
    289    P    3.217    5.709    10.259
    290    O    3.779    6.244    11.516
    291    O    2.086    6.398    9.597
    292    O    4.410    5.563    9.190
    293    C    5.634    4.908    9.544
    294    H    5.423    4.013    9.936
    295    H    6.195    5.535    10.084
    296    C    6.471    4.604    8.311
    297    H    7.316    4.106    8.505
    298    O    5.685    3.846    7.397
    299    C    6.131    4.111    6.054
    300    H    6.524    3.267    5.688
    301    N    4.948    4.571    5.288
    302    C    3.832    5.016    5.935
    303    H    3.649    5.110    6.914
    304    C    2.750    5.416    5.247
    305    H    1.854    5.765    5.522
    306    C    5.005    4.523    3.899
    307    O    6.023    4.130    3.336
    308    N    3.910    4.927    3.194
    309    C    2.811    5.362    3.822
    310    N    1.756    5.744    3.110
    311    H    1.805    5.698    2.102
    312    H    0.918    6.075    3.567
    313    C    7.245    5.144    6.228
    314    H    7.207    5.796    5.471
    315    O    8.529    4.532    6.380
    316    H    8.661    3.734    5.864
    317    C    6.814    5.843    7.505
    318    H    5.980    6.373    7.352
    319    O    7.894    6.573    8.094
    320    P    8.048    8.154    7.868
    321    O    9.151    8.654    8.717
    322    O    6.700    8.759    7.965
    323    O    8.522    8.215    6.337
    324    C    9.805    7.699    5.974
    325    H    9.850    6.732    6.225
    326    H    10.514    8.309    6.329
    327    C    10.019    7.709    4.469
    328    H    10.926    7.377    4.210
    329    O    9.022    6.885    3.839
    330    C    8.777    7.412    2.521
    331    H    9.069    6.715    1.866
    332    N    7.327    7.706    2.432
    333    C    6.583    7.881    3.563
    334    H    6.855    7.855    4.525
    335    C    5.265    8.133    3.488
    336    H    4.557    8.287    4.177
    337    C    6.750    7.784    1.169
    338    O    7.438    7.635    0.162
    339    N    5.414    8.041    1.084
    340    C    4.677    8.213    2.191
    341    N    3.375    8.464    2.076
    342    H    2.968    8.520    1.153
    343    H    2.801    8.597    2.896
    344    C    9.686    8.638    2.383
    345    H    9.203    9.351    1.874
    346    O    10.954    8.306    1.810
    347    H    10.927    7.624    1.134
    348    C    9.816    9.068    3.834
    349    H    8.951    9.452    4.157
    350    O    10.966    9.894    4.024
    351    P    10.858    11.493    3.958
    352    O    12.177    12.073    4.289
    353    O    9.658    11.877    4.732
    354    O    10.563    11.754    2.400
    355    C    11.538    11.408    1.411
    356    H    11.750    10.434    1.490
    357    H    12.296    12.058    1.460
    358    C    10.985    11.568    -0.002
    359    H    11.652    11.323    -0.705
    360    O    9.816    10.754    -0.164
    361    C    8.975    11.356    -1.163
    362    H    9.013    10.766    -1.969
    363    N    7.615    11.445    -0.585
    364    C    7.436    11.418    0.766
    365    H    8.107    11.360    1.505
    366    C    6.205    11.472    1.297
    367    H    5.864    11.464    2.237
    368    C    6.535    11.534    -1.455
    369    O    6.717    11.568    -2.670
    370    N    5.283    11.590    -0.924
    371    C    5.098    11.561    0.403
    372    N    3.866    11.607    0.894
    373    H    3.087    11.663    0.254
    374    H    3.707    11.586    1.891
    375    C    9.607    12.706    -1.504
    376    H    8.885    13.397    -1.540
    377    O    10.370    12.654    -2.712
    378    H    10.024    12.064    -3.385
    379    C    10.489    12.974    -0.291
    380    H    9.923    13.283    0.473
    381    O    11.579    13.837    -0.622
    382    P    11.452    15.425    -0.421
    383    O    12.705    16.067    -0.875
    384    O    10.949    15.656    0.950
    385    O    10.287    15.796    -1.463
    386    C    10.481    15.556    -2.860
    387    H    10.746    14.601    -2.992
    388    H    11.080    16.265    -3.232
    389    C    9.188    15.702    -3.647
    390    H    9.329    15.470    -4.609
    391    O    8.189    14.862    -3.114
    392    C    6.925    15.402    -3.535
    393    H    6.625    14.846    -4.310
    394    N    5.999    15.308    -2.385
    395    C    6.477    15.181    -1.109
    396    H    7.422    15.130    -0.785
    397    C    4.643    15.358    -2.645
    398    O    4.192    15.471    -3.781
    399    N    3.814    15.277    -1.546
    400    H    2.799    15.316    -1.718
    401    C    4.210    15.148    -0.232
    402    O    3.375    15.078    0.666
    403    C    5.643    15.104    -0.049
    404    H    5.844    15.014    0.926
    405    C    7.168    16.834    -4.014
    406    H    6.563    17.443    -3.501
    407    O    6.999    16.962    -5.431
    408    H    6.327    16.392    -5.812
    409    C    8.608    17.102    -3.600
    410    H    8.624    17.430    -2.655
    411    O    9.255    17.952    -4.555
    412    P    9.450    19.523    -4.261
    413    O    9.981    20.174    -5.481
    414    O    10.176    19.648    -2.979
    415    O    7.938    20.029    -4.040
    416    C    7.010    20.057    -5.130
    417    H    7.005    19.162    -5.576
    418    H    7.195    20.861    -5.694
    419    C    5.576    20.251    -4.644
    420    H    4.953    20.385    -5.415
    421    O    5.156    19.119    -3.903
    422    C    4.198    19.536    -2.908
    423    H    3.321    19.124    -3.156
    424    N    4.691    19.095    -1.587
    425    C    3.926    18.858    -0.466
    426    N    0.823    18.666    1.082
    427    H    0.369    18.467    1.962
    428    H    0.220    18.904    0.308
    429    N    2.578    18.936    -0.389
    430    C    2.126    18.648    0.834
    431    N    2.936    18.312    1.887
    432    H    2.481    18.108    2.789
    433    C    4.314    18.225    1.834
    434    O    4.944    17.917    2.838
    435    C    4.808    18.528    0.538
    436    N    6.116    18.553    0.064
    437    C    5.976    18.890    -1.179
    438    H    6.878    18.934    -1.608
    439    C    4.087    21.048    -3.030
    440    H    4.067    21.439    -2.110
    441    O    2.957    21.439    -3.822
    442    H    2.190    20.868    -3.743
    443    C    5.398    21.433    -3.704
    444    H    6.136    21.427    -3.030
    445    O    5.265    22.664    -4.418
    446    P    5.925    24.000    -3.818
    447    O    5.665    25.112    -4.755
    448    O    7.311    23.683    -3.414
    449    O    5.049    24.219    -2.486
    450    C    5.511    25.046    -1.420
    451    H    5.552    25.994    -1.737
    452    H    6.342    24.645    -1.033
    453    C    4.518    25.069    -0.261
    454    H    4.928    25.506    0.540
    455    O    3.380    25.821    -0.667
    456    C    2.200    24.999    -0.652
    457    H    1.541    25.470    -0.066
    458    N    1.721    24.884    -2.049
    459    C    2.501    24.320    -3.019
    460    H    3.417    23.924    -2.960
    461    C    2.067    24.232    -4.289
    462    H    2.469    23.866    -5.128
    463    C    0.458    25.381    -2.342
    464    O    -0.230    25.879    -1.454
    465    N    0.011    25.295    -3.626
    466    C    0.770    24.746    -4.582
    467    N    0.306    24.683    -5.828
    468    H    -0.613    25.053    -6.026
    469    H    0.862    24.273    -6.565
    470    C    2.561    23.653    -0.014
    471    H    2.348    22.941    -0.683
    472    O    1.891    23.449    1.234
    473    H    1.025    23.858    1.301
    474    C    4.067    23.691    0.207
    475    H    4.472    22.997    -0.388
    476    O    4.369    23.560    1.604
    477    P    4.181    22.146    2.363
    478    O    5.073    22.135    3.545
    479    O    4.280    21.065    1.358
    480    O    2.651    22.210    2.887
    481    C    2.229    23.185    3.862
    482    H    2.346    24.101    3.478
    483    H    2.671    22.983    4.736
    484    C    0.729    23.100    4.174
    485    H    0.507    23.678    4.959
    486    O    -0.001    23.561    3.037
    487    C    -1.003    22.612    2.665
    488    H    -1.871    22.986    2.992
    489    N    -0.996    22.474    1.196
    490    C    -1.580    22.578    -0.915
    491    N    -0.257    22.142    -0.899
    492    C    0.020    22.099    0.368
    493    H    0.963    21.786    0.485
    494    N    -3.710    23.246    -1.620
    495    C    -4.042    23.402    -0.339
    496    H    -4.944    23.702    -0.030
    497    N    -3.267    23.196    0.722
    498    C    -2.037    22.779    0.355
    499    C    -2.478    22.834    -1.954
    500    N    -2.150    22.727    -3.238
    501    H    -2.838    22.959    -3.940
    502    H    -1.220    22.416    -3.482
    503    C    -0.724    21.310    3.385
    504    H    -0.243    20.707    2.748
    505    O    -1.925    20.732    3.900
    506    H    -2.711    20.895    3.374
    507    C    0.222    21.691    4.518
    508    H    0.991    21.053    4.491
    509    O    -0.514    21.742    5.749
    510    P    -1.104    20.396    6.426
    511    O    -1.155    20.607    7.891
    512    O    -0.357    19.239    5.878
    513    O    -2.622    20.324    5.875
    514    C    -3.731    20.091    6.760
    515    H    -3.754    20.814    7.451
    516    H    -3.702    19.142    7.075
    517    C    -5.073    20.213    6.035
    518    H    -5.816    19.878    6.614
    519    O    -5.304    21.597    5.732
    520    C    -5.569    21.742    4.331
    521    H    -6.562    21.732    4.217
    522    N    -5.010    23.049    3.861
    523    C    -3.955    23.632    4.520
    524    H    -3.463    23.318    5.332
    525    C    -5.568    23.654    2.735
    526    O    -6.504    23.171    2.110
    527    N    -4.998    24.846    2.343
    528    H    -5.402    25.306    1.515
    529    C    -3.939    25.488    2.947
    530    O    -3.511    26.545    2.493
    531    C    -3.417    24.803    4.103
    532    H    -2.656    25.332    4.479
    533    C    -4.975    20.496    3.656
    534    H    -3.997    20.646    3.509
    535    O    -5.659    20.179    2.437
    536    H    -5.976    20.937    1.941
    537    C    -5.159    19.421    4.735
    538    H    -4.384    18.790    4.686
    539    O    -6.457    18.817    4.602
    540    P    -6.660    17.417    3.819
    541    O    -8.066    16.990    4.014
    542    O    -5.560    16.498    4.189
    543    O    -6.472    17.834    2.269
    544    C    -7.414    18.701    1.615
    545    H    -7.396    19.596    2.060
    546    H    -8.294    18.231    1.544
    547    C    -7.005    18.979    0.168
    548    H    -7.714    19.514    -0.292
    549    O    -5.754    19.704    0.108
    550    C    -5.268    19.550    -1.225
    551    H    -5.552    20.369    -1.723
    552    N    -3.801    19.446    -1.165
    553    C    -1.677    19.501    -1.706
    554    N    -1.724    19.151    -0.357
    555    C    -2.998    19.138    -0.103
    556    H    -3.136    18.895    0.857
    557    N    -0.928    20.031    -3.861
    558    C    -2.201    20.175    -4.226
    559    H    -2.493    20.427    -5.149
    560    N    -3.274    20.016    -3.462
    561    C    -2.935    19.679    -2.202
    562    C    -0.621    19.693    -2.600
    563    N    0.652    19.554    -2.259
    564    H    1.365    19.706    -2.958
    565    H    0.879    19.299    -1.308
    566    C    -5.960    18.326    -1.840
    567    H    -5.255    17.676    -2.124
    568    O    -6.824    18.702    -2.921
    569    H    -6.524    19.454    -3.437
    570    C    -6.741    17.732    -0.662
    571    H    -6.144    17.118    -0.146
    572    O    -7.959    17.142    -1.136
    573    P    -8.037    15.560    -1.438
    574    O    -9.380    15.254    -1.982
    575    O    -7.552    14.845    -0.237
    576    O    -6.958    15.357    -2.622
    577    C    -7.166    15.977    -3.896
    578    H    -7.361    16.948    -3.758
    579    H    -7.826    15.436    -4.418
    580    C    -5.913    15.974    -4.771
    581    H    -6.141    16.343    -5.672
    582    O    -4.869    16.789    -4.177
    583    C    -3.599    16.251    -4.601
    584    H    -3.191    16.941    -5.199
    585    N    -2.788    16.012    -3.392
    586    C    -1.104    15.705    -2.018
    587    N    -2.259    15.609    -1.246
    588    C    -3.206    15.795    -2.111
    589    H    -4.089    15.739    -1.644
    590    N    1.135    15.743    -2.706
    591    C    0.708    15.979    -3.948
    592    H    1.315    16.094    -4.734
    593    N    -0.553    16.100    -4.353
    594    C    -1.414    15.949    -3.325
    595    C    0.253    15.600    -1.704
    596    N    0.693    15.387    -0.467
    597    H    1.688    15.336    -0.303
    598    H    0.022    15.281    0.280
    599    C    -3.865    14.977    -5.417
    600    H    -3.236    14.261    -5.113
    601    O    -3.791    15.224    -6.824
    602    H    -3.134    15.872    -7.088
    603    C    -5.280    14.612    -4.983
    604    H    -5.234    14.134    -4.106
    605    O    -5.966    13.916    -6.032
    606    P    -5.848    12.318    -6.187
    607    O    -6.697    11.886    -7.318
    608    O    -6.050    11.738    -4.843
    609    O    -4.308    12.111    -6.607
    610    C    -3.787    12.723    -7.793
    611    H    -3.974    13.705    -7.762
    612    H    -4.105    12.211    -8.591
    613    C    -2.268    12.624    -7.856
    614    H    -1.922    13.022    -8.706
    615    O    -1.664    13.304    -6.740
    616    C    -0.355    12.730    -6.553
    617    H    0.298    13.388    -6.928