!*** FMO 5.2 (Gamess) INPUT generated by Facio 21.1.1.32 ***
 $CONTRL RUNTYP=OPTFMO NPRINT=-5 ISPHER=-1 MAXIT=50 $END
 $SYSTEM MWORDS=29 $END
 $GDDI NGROUP=1 $END
 $INTGRL NINTIC=-9000000 $END
 $SCF DIRSCF=.FALSE. NPUNCH=0 $END
!*** NumCPU : 2  MemPerNode : 512MB
 $FMOPRP
    NAODIR=210
    NGRFMO(1)=1, 1, 0, 0, 0,   0, 0, 0, 0, 0
    NPRINT=9
 $END
 $FMO
      SCFTYP(1)=RHF
      MODGRD=10
      MODMUL=0
      MAXCAO=5
      MAXBND=34
      NLAYER=1
      NFRAG=32
      ICHARG(1)=-1, -1, -1, -1, -1, -1, -1, -1, -1, -1, 
-1, -1, -1, -1, -1, -1, -1, -1, -1, -1, 
-1, -1, -1, -1, -1, -1, -1, -1, -1, -1, 
-1, 0
      FRGNAM(1)=Frag1, Frag2, Frag3, Frag4, Frag5, Frag6, Frag7, Frag8, Frag9, Frag10, Frag11, Frag12, Frag13, Frag14, Frag15, Frag16, Frag17, Frag18, Frag19, Frag20, Frag21, Frag22, Frag23, Frag24, Frag25, Frag26, Frag27, Frag28, Frag29, Frag30, Frag31, Frag32
      indat(1)=0
               1   -36   0
               37   -69   0
               70   -103   0
               104   -134   0
               135   -167   0
               168   -201   0
               202   -231   0
               232   -261   0
               262   -292   0
               293   -323   0
               324   -354   0
               355   -385   0
               386   -415   0
               416   -449   0
               450   -480   0
               481   -513   0
               514   -543   0
               544   -576   0
               577   -609   0
               610   -643   0
               644   -677   0
               678   -710   0
               711   -740   0
               741   -774   0
               775   -807   0
               808   -840   0
               841   -871   0
               872   -902   0
               903   -936   0
               937   -966   0
               967   -996   0
               997   -1024   0
 $END

 $FMOBND
   -37   36       3-21G    MINI
   -70   69       3-21G    MINI
   -104   103       3-21G    MINI
   -135   134       3-21G    MINI
   -168   167       3-21G    MINI
   -202   201       3-21G    MINI
   -232   231       3-21G    MINI
   -262   261       3-21G    MINI
   -293   292       3-21G    MINI
   -324   323       3-21G    MINI
   -355   354       3-21G    MINI
   -386   385       3-21G    MINI
   -416   415       3-21G    MINI
   -450   449       3-21G    MINI
   -481   480       3-21G    MINI
   -514   513       3-21G    MINI
   -544   543       3-21G    MINI
   -577   576       3-21G    MINI
   -610   609       3-21G    MINI
   -644   643       3-21G    MINI
   -678   677       3-21G    MINI
   -711   710       3-21G    MINI
   -741   740       3-21G    MINI
   -775   774       3-21G    MINI
   -808   807       3-21G    MINI
   -841   840       3-21G    MINI
   -872   871       3-21G    MINI
   -903   902       3-21G    MINI
   -937   936       3-21G    MINI
   -967   966       3-21G    MINI
   -997   996       3-21G    MINI
 $END
 $FMOHYB
 3-21G        9   5
   1 0  -0.070459   0.164841   0.000000   0.000000   0.502116
         0.466939   0.000000   0.000000   0.418036
   0 1  -0.070465   0.164857   0.473392   0.000000  -0.167359
         0.466967   0.394111   0.000000  -0.139327
   0 1  -0.070465   0.164857  -0.236695  -0.409969  -0.167359
         0.466967  -0.197055  -0.341311  -0.139327
   0 1  -0.070465   0.164857  -0.236695   0.409969  -0.167359
         0.466967  -0.197055   0.341311  -0.139327
   0 1   1.006716   0.074826   0.000000   0.000000   0.000000
        -0.143830   0.000000   0.000000  -0.000003
 MINI         5   5
   1 0  -0.104883   0.308874   0.000000   0.000000   0.521806
   0 1  -0.104883   0.308874   0.491961   0.000000  -0.173934
   0 1  -0.104883   0.308876  -0.245980  -0.426050  -0.173933
   0 1  -0.104883   0.308876  -0.245980   0.426050  -0.173933
   0 1   0.988209   0.063992   0.000000   0.000000   0.000000
 $END

 $DATA
 FMO calculation : XXNAMEXX
 C1 
 C.1-1    6
      N21 3
   
 O.1-1    8
      N21 3
   
 N.1-1    7
      N21 3
   
 H.1-1    1
      N21 3
   
 P.1-1   15
      N21 3
   
 $END
 $FMOXYZ
    1    H    8.917    -16.608    -2.343
    2    O    8.162    -16.771    -2.978
    3    C    8.691    -17.265    -4.215
    4    H    9.111    -18.159    -4.056
    5    H    9.252    -16.553    -4.637
    6    C    7.583    -17.536    -5.233
    7    H    7.991    -17.770    -6.115
    8    O    6.745    -18.591    -4.821
    9    C    5.528    -18.478    -5.588
    10    H    5.640    -19.071    -6.385
    11    N    4.413    -18.906    -4.715
    12    C    3.179    -19.353    -5.131
    13    N    0.977    -20.167    -7.687
    14    H    0.043    -20.505    -7.873
    15    H    1.554    -19.972    -8.493
    16    N    2.779    -19.501    -6.416
    17    C    1.526    -19.952    -6.500
    18    N    0.739    -20.232    -5.413
    19    H    -0.215    -20.576    -5.594
    20    C    1.122    -20.090    -4.093
    21    O    0.334    -20.367    -3.193
    22    C    2.457    -19.609    -3.987
    23    N    3.220    -19.332    -2.855
    24    C    4.348    -18.927    -3.350
    25    H    4.970    -18.702    -2.600
    26    C    5.413    -17.028    -6.059
    27    H    4.592    -16.631    -5.649
    28    O    5.405    -16.920    -7.488
    29    H    4.988    -17.653    -7.947
    30    C    6.643    -16.358    -5.457
    31    H    6.393    -15.968    -4.571
    32    O    7.321    -15.586    -6.468
    33    P    6.999    -14.086    -7.002
    34    O    7.841    -13.568    -8.115
    35    O    7.161    -13.621    -5.626
    36    O    5.459    -14.129    -7.442
    37    C    5.080    -14.590    -8.740
    38    H    5.422    -15.521    -8.867
    39    H    5.335    -13.900    -9.418
    40    C    3.568    -14.711    -8.858
    41    H    3.327    -14.960    -9.796
    42    O    3.059    -15.719    -7.959
    43    C    1.642    -15.469    -7.865
    44    H    1.211    -15.971    -8.615
    45    N    1.184    -15.942    -6.543
    46    C    -0.021    -16.817    -4.929
    47    N    1.142    -16.340    -4.329
    48    C    1.803    -15.839    -5.329
    49    H    2.667    -15.464    -4.993
    50    N    -2.121    -17.796    -5.284
    51    C    -1.990    -17.510    -6.580
    52    H    -2.677    -17.732    -7.272
    53    N    -0.963    -16.901    -7.169
    54    C    -0.006    -16.580    -6.274
    55    C    -1.149    -17.463    -4.418
    56    N    -1.292    -17.758    -3.129
    57    H    -2.132    -18.229    -2.825
    58    H    -0.557    -17.504    -2.484
    59    C    1.438    -13.971    -8.088
    60    H    1.192    -13.565    -7.208
    61    O    0.473    -13.710    -9.111
    62    H    -0.233    -14.358    -9.177
    63    C    2.803    -13.448    -8.511
    64    H    3.233    -13.014    -7.719
    65    O    2.695    -12.702    -9.734
    66    P    2.011    -11.240    -9.749
    67    O    2.274    -10.559    -11.038
    68    O    2.544    -10.733    -8.475
    69    O    0.435    -11.537    -9.612
    70    C    -0.323    -12.014    -10.727
    71    H    0.085    -12.865    -11.058
    72    H    -0.445    -11.267    -11.381
    73    C    -1.737    -12.400    -10.317
    74    H    -2.279    -12.751    -11.081
    75    O    -1.680    -13.394    -9.291
    76    C    -2.991    -13.511    -8.696
    77    H    -3.485    -14.254    -9.147
    78    N    -2.804    -13.744    -7.249
    79    C    -3.790    -14.059    -6.344
    80    N    -7.122    -14.717    -5.630
    81    H    -7.757    -14.945    -4.879
    82    H    -7.526    -14.631    -6.551
    83    N    -5.104    -14.223    -6.624
    84    C    -5.815    -14.519    -5.537
    85    N    -5.278    -14.647    -4.282
    86    H    -5.921    -14.884    -3.513
    87    C    -3.943    -14.483    -3.967
    88    O    -3.568    -14.618    -2.807
    89    C    -3.169    -14.164    -5.118
    90    N    -1.803    -13.922    -5.242
    91    C    -1.657    -13.683    -6.509
    92    H    -0.693    -13.494    -6.696
    93    C    -3.638    -12.174    -9.082
    94    H    -3.995    -11.765    -8.242
    95    O    -4.630    -12.334    -10.101
    96    H    -5.101    -13.170    -10.080
    97    C    -2.512    -11.307    -9.613
    98    H    -1.958    -10.947    -8.862
    99    O    -2.997    -10.281    -10.487
    100    P    -3.117    -8.774    -9.922
    101    O    -3.577    -7.901    -11.023
    102    O    -1.871    -8.429    -9.197
    103    O    -4.303    -8.850    -8.834
    104    C    -5.644    -9.093    -9.268
    105    H    -5.668    -9.947    -9.788
    106    H    -5.999    -8.267    -9.707
    107    C    -6.606    -9.338    -8.111
    108    H    -7.544    -9.431    -8.445
    109    O    -6.240    -10.534    -7.408
    110    C    -6.790    -10.432    -6.082
    111    H    -7.576    -11.050    -6.051
    112    N    -5.730    -10.813    -5.127
    113    C    -4.411    -10.681    -5.452
    114    H    -3.981    -10.377    -6.302
    115    C    -3.452    -10.981    -4.559
    116    H    -2.453    -10.958    -4.591
    117    C    -6.125    -11.263    -3.878
    118    O    -7.318    -11.389    -3.614
    119    N    -5.162    -11.565    -2.968
    120    C    -3.865    -11.435    -3.272
    121    N    -2.947    -11.707    -2.350
    122    H    -3.249    -12.008    -1.434
    123    H    -1.963    -11.615    -2.559
    124    C    -7.281    -8.989    -5.904
    125    H    -6.930    -8.639    -5.035
    126    O    -8.706    -8.894    -6.014
    127    H    -9.190    -9.649    -5.672
    128    C    -6.596    -8.257    -7.045
    129    H    -5.649    -8.057    -6.793
    130    O    -7.271    -7.036    -7.392
    131    P    -6.782    -5.651    -6.725
    132    O    -7.480    -4.541    -7.406
    133    O    -5.312    -5.503    -6.544
    134    O    -7.400    -5.738    -5.242
    135    C    -8.821    -5.851    -5.088
    136    H    -9.138    -6.665    -5.575
    137    H    -9.244    -4.974    -5.316
    138    C    -9.238    -6.098    -3.644
    139    H    -10.234    -6.100    -3.559
    140    O    -8.714    -7.384    -3.165
    141    C    -8.712    -7.295    -1.726
    142    H    -9.491    -7.834    -1.405
    143    N    -7.423    -7.845    -1.257
    144    C    -5.866    -8.793    -0.032
    145    N    -5.277    -8.521    -1.265
    146    C    -6.242    -7.965    -1.935
    147    H    -5.910    -7.728    -2.848
    148    N    -6.224    -9.498    2.172
    149    C    -7.478    -9.060    2.067
    150    H    -8.152    -9.118    2.803
    151    N    -8.043    -8.487    1.006
    152    C    -7.169    -8.385    -0.015
    153    C    -5.380    -9.384    1.137
    154    N    -4.133    -9.829    1.261
    155    H    -3.846    -10.245    2.135
    156    H    -3.501    -9.741    0.478
    157    C    -8.941    -5.822    -1.363
    158    H    -8.244    -5.557    -0.697
    159    O    -10.277    -5.588    -0.904
    160    H    -10.672    -6.316    -0.418
    161    C    -8.692    -5.077    -2.664
    162    H    -7.709    -4.974    -2.815
    163    O    -9.395    -3.828    -2.701
    164    P    -8.633    -2.488    -2.227
    165    O    -9.549    -1.348    -2.443
    166    O    -7.258    -2.418    -2.777
    167    O    -8.508    -2.715    -0.640
    168    C    -9.696    -2.870    0.144
    169    H    -10.334    -3.465    -0.345
    170    H    -10.020    -1.967    0.426
    171    C    -9.439    -3.599    1.456
    172    H    -10.285    -3.887    1.906
    173    O    -8.642    -4.744    1.195
    174    C    -8.038    -5.156    2.436
    175    H    -8.567    -5.928    2.788
    176    N    -6.635    -5.522    2.144
    177    C    -5.746    -6.096    3.024
    178    N    -5.005    -7.334    6.182
    179    H    -4.270    -7.754    6.734
    180    H    -5.887    -7.179    6.649
    181    N    -5.998    -6.419    4.314
    182    C    -4.936    -6.964    4.911
    183    N    -3.733    -7.173    4.290
    184    H    -2.980    -7.601    4.847
    185    C    -3.450    -6.855    2.973
    186    O    -2.339    -7.095    2.509
    187    C    -4.573    -6.271    2.325
    188    N    -4.710    -5.811    1.017
    189    C    -5.935    -5.386    0.980
    190    H    -6.128    -5.029    0.066
    191    C    -8.215    -3.959    3.378
    192    H    -7.326    -3.755    3.787
    193    O    -9.238    -4.193    4.352
    194    H    -9.322    -5.105    4.640
    195    C    -8.610    -2.817    2.456
    196    H    -7.802    -2.452    1.994
    197    O    -9.365    -1.813    3.152
    198    P    -8.625    -0.469    3.649
    199    O    -9.652    0.486    4.116
    200    O    -7.635    -0.015    2.642
    201    O    -7.796    -0.954    4.942
    202    C    -8.489    -1.412    6.110
    203    H    -9.140    -2.123    5.844
    204    H    -8.838    -0.621    6.613
    205    C    -7.556    -2.106    7.099
    206    H    -8.031    -2.425    7.919
    207    O    -6.964    -3.211    6.452
    208    C    -5.678    -3.473    7.046
    209    H    -5.733    -4.355    7.515
    210    N    -4.674    -3.459    5.956
    211    C    -4.947    -2.848    4.762
    212    H    -5.777    -2.377    4.463
    213    C    -3.455    -4.068    6.191
    214    O    -3.185    -4.619    7.252
    215    N    -2.545    -4.014    5.156
    216    H    -1.629    -4.458    5.313
    217    C    -2.739    -3.422    3.926
    218    O    -1.851    -3.435    3.081
    219    C    -4.037    -2.812    3.764
    220    H    -4.095    -2.407    2.851
    221    C    -5.501    -2.367    8.086
    222    H    -4.546    -2.071    8.071
    223    O    -5.944    -2.776    9.384
    224    H    -5.801    -3.703    9.587
    225    C    -6.375    -1.246    7.550
    226    H    -5.954    -0.824    6.747
    227    O    -6.622    -0.182    8.499
    228    P    -5.841    1.241    8.419
    229    O    -6.403    2.228    9.373
    230    O    -5.586    1.763    7.050
    231    O    -4.385    0.870    9.000
    232    C    -4.286    0.364    10.337
    233    H    -4.929    -0.394    10.447
    234    H    -4.348    1.128    10.980
    235    C    -2.933    -0.265    10.659
    236    H    -2.893    -0.635    11.587
    237    O    -2.698    -1.311    9.735
    238    C    -1.276    -1.519    9.612
    239    H    -1.059    -2.383    10.066
    240    N    -0.958    -1.540    8.165
    241    C    -1.828    -1.012    7.251
    242    H    -2.724    -0.592    7.393
    243    C    0.251    -2.086    7.775
    244    O    1.045    -2.571    8.576
    245    N    0.519    -2.060    6.424
    246    H    1.416    -2.462    6.114
    247    C    -0.298    -1.547    5.439
    248    O    0.051    -1.574    4.264
    249    C    -1.541    -1.000    5.930
    250    H    -2.072    -0.654    5.157
    251    C    -0.631    -0.366    10.397
    252    H    0.119    0.005    9.849
    253    O    -0.226    -0.781    11.703
    254    H    0.080    -1.689    11.763
    255    C    -1.746    0.673    10.480
    256    H    -1.837    1.150    9.606
    257    O    -1.549    1.713    11.472
    258    P    -1.009    3.204    11.107
    259    O    -1.042    4.096    12.292
    260    O    -1.477    3.850    9.848
    261    O    0.549    2.917    10.842
    262    C    1.306    2.277    11.880
    263    H    0.817    1.459    12.183
    264    H    1.553    2.958    12.570
    265    C    2.646    1.743    11.399
    266    H    3.157    1.243    12.099
    267    O    2.419    0.871    10.269
    268    C    3.620    0.734    9.490
    269    H    4.047    -0.145    9.704
    270    N    3.241    0.844    8.063
    271    C    2.061    1.422    7.693
    272    H    1.331    1.817    8.251
    273    C    1.727    1.529    6.396
    274    H    0.931    1.906    5.922
    275    C    4.131    0.353    7.119
    276    O    5.192    -0.158    7.473
    277    N    3.801    0.457    5.805
    278    C    2.647    1.022    5.429
    279    N    2.358    1.115    4.136
    280    H    3.018    0.756    3.461
    281    H    1.493    1.537    3.830
    282    C    4.491    1.863    10.055
    283    H    4.887    2.345    9.274
    284    O    5.477    1.368    10.966
    285    H    5.795    0.482    10.777
    286    C    3.547    2.802    10.790
    287    H    3.016    3.348    10.142
    288    O    4.238    3.629    11.740
    289    P    4.544    5.175    11.396
    290    O    5.224    5.791    12.554
    291    O    3.375    5.888    10.817
    292    O    5.632    5.053    10.216
    293    C    6.887    4.404    10.459
    294    H    6.717    3.517    10.889
    295    H    7.498    5.042    10.927
    296    C    7.608    4.067    9.163
    297    H    8.465    3.569    9.292
    298    O    6.737    3.289    8.345
    299    C    7.055    3.519    6.959
    300    H    7.410    2.665    6.578
    301    N    5.807    3.965    6.296
    302    C    4.757    4.431    7.033
    303    H    4.666    4.550    8.022
    304    C    3.616    4.819    6.439
    305    H    2.750    5.179    6.787
    306    C    5.734    3.882    4.910
    307    O    6.694    3.471    4.264
    308    N    4.579    4.274    4.300
    309    C    3.544    4.730    5.017
    310    N    2.428    5.099    4.398
    311    H    2.382    5.028    3.392
    312    H    1.638    5.445    4.923
    313    C    8.184    4.552    7.005
    314    H    8.075    5.185    6.239
    315    O    9.474    3.936    7.050
    316    H    9.553    3.123    6.545
    317    C    7.885    5.286    8.300
    318    H    7.046    5.823    8.216
    319    O    8.963    6.121    8.747
    320    P    8.877    7.719    8.559
    321    O    9.986    8.352    9.306
    322    O    7.519    8.306    8.726
    323    O    9.233    7.842    7.000
    324    C    10.510    7.378    6.551
    325    H    10.613    6.415    6.801
    326    H    11.215    8.019    6.855
    327    C    10.632    7.384    5.033
    328    H    11.536    7.088    4.724
    329    O    9.629    6.487    4.488
    330    C    9.272    6.973    3.181
    331    H    9.554    6.279    2.518
    332    N    7.806    7.198    3.183
    333    C    7.132    7.361    4.358
    334    H    7.468    7.367    5.300
    335    C    5.801    7.551    4.367
    336    H    5.133    7.687    5.099
    337    C    7.145    7.223    1.960
    338    O    7.770    7.084    0.912
    339    N    5.795    7.416    1.960
    340    C    5.125    7.577    3.110
    341    N    3.808    7.766    3.078
    342    H    3.339    7.784    2.184
    343    H    3.284    7.889    3.932
    344    C    10.116    8.244    2.967
    345    H    9.559    8.911    2.472
    346    O    11.353    7.950    2.308
    347    H    11.311    7.236    1.668
    348    C    10.354    8.752    4.390
    349    H    9.514    9.130    4.779
    350    O    11.200    9.953    4.565
    351    P    10.752    11.527    4.753
    352    O    11.877    12.449    5.057
    353    O    9.519    12.050    5.441
    354    O    10.396    11.873    3.231
    355    C    11.393    11.528    2.260
    356    H    11.686    10.585    2.415
    357    H    12.094    12.241    2.246
    358    C    10.863    11.513    0.833
    359    H    11.564    11.257    0.167
    360    O    9.766    10.591    0.736
    361    C    8.903    11.026    -0.329
    362    H    9.004    10.368    -1.075
    363    N    7.528    11.063    0.216
    364    C    7.321    11.150    1.561
    365    H    7.978    11.216    2.312
    366    C    6.078    11.157    2.066
    367    H    5.718    11.211    2.997
    368    C    6.464    10.983    -0.674
    369    O    6.670    10.916    -1.884
    370    N    5.200    10.990    -0.169
    371    C    4.988    11.073    1.151
    372    N    3.745    11.069    1.617
    373    H    2.979    11.003    0.963
    374    H    3.566    11.131    2.609
    375    C    9.439    12.386    -0.788
    376    H    8.663    13.006    -0.903
    377    O    10.228    12.277    -1.975
    378    H    9.947    11.593    -2.587
    379    C    10.277    12.853    0.399
    380    H    9.680    13.197    1.124
    381    O    11.281    13.819    0.017
    382    P    11.082    15.424    -0.064
    383    O    12.305    16.074    -0.601
    384    O    10.489    15.999    1.169
    385    O    9.965    15.524    -1.214
    386    C    10.244    14.966    -2.503
    387    H    10.566    14.026    -2.388
    388    H    10.824    15.601    -3.014
    389    C    8.991    14.833    -3.354
    390    H    9.195    14.392    -4.228
    391    O    8.013    14.082    -2.680
    392    C    6.748    14.420    -3.276
    393    H    6.524    13.673    -3.902
    394    N    5.763    14.547    -2.181
    395    C    6.171    14.765    -0.893
    396    H    7.096    14.856    -0.524
    397    C    4.424    14.444    -2.506
    398    O    4.035    14.248    -3.653
    399    N    3.537    14.579    -1.459
    400    H    2.534    14.510    -1.681
    401    C    3.861    14.799    -0.137
    402    O    2.979    14.894    0.713
    403    C    5.280    14.893    0.115
    404    H    5.427    15.055    1.091
    405    C    6.940    15.704    -4.081
    406    H    6.267    16.376    -3.771
    407    O    6.854    15.475    -5.493
    408    H    6.240    14.785    -5.755
    409    C    8.331    16.165    -3.660
    410    H    8.263    16.696    -2.816
    411    O    9.023    16.652    -4.819
    412    P    9.069    18.187    -5.329
    413    O    9.635    18.310    -6.696
    414    O    9.744    18.717    -4.138
    415    O    7.510    18.558    -5.333
    416    C    6.651    18.148    -6.400
    417    H    6.720    17.157    -6.511
    418    H    6.828    18.722    -7.199
    419    C    5.192    18.407    -6.040
    420    H    4.596    18.246    -6.826
    421    O    4.790    17.566    -4.977
    422    C    3.769    18.234    -4.208
    423    H    2.925    17.710    -4.326
    424    N    4.221    18.293    -2.803
    425    C    3.417    18.400    -1.689
    426    N    0.259    18.551    -0.253
    427    H    -0.225    18.631    0.630
    428    H    -0.319    18.480    -1.079
    429    N    2.065    18.418    -1.680
    430    C    1.571    18.529    -0.445
    431    N    2.347    18.617    0.683
    432    H    1.861    18.702    1.587
    433    C    3.728    18.600    0.700
    434    O    4.326    18.686    1.765
    435    C    4.266    18.480    -0.609
    436    N    5.592    18.424    -1.027
    437    C    5.494    18.315    -2.314
    438    H    6.412    18.267    -2.707
    439    C    3.591    19.606    -4.833
    440    H    3.499    20.282    -4.102
    441    O    2.484    19.642    -5.745
    442    H    1.740    19.086    -5.502
    443    C    4.925    19.818    -5.541
    444    H    5.625    20.064    -4.871
    445    O    4.680    20.609    -6.705
    446    P    5.259    22.101    -6.907
    447    O    4.923    22.605    -8.255
    448    O    6.639    22.008    -6.398
    449    O    4.274    22.701    -5.806
    450    C    4.628    23.914    -5.174
    451    H    4.620    24.649    -5.852
    452    H    5.465    23.774    -4.646
    453    C    3.585    24.326    -4.144
    454    H    3.925    25.086    -3.591
    455    O    2.418    24.747    -4.842
    456    C    1.298    23.911    -4.502
    457    H    0.582    24.527    -4.173
    458    N    0.891    23.192    -5.732
    459    C    1.752    22.344    -6.370
    460    H    2.690    22.083    -6.141
    461    C    1.382    21.706    -7.495
    462    H    1.847    21.061    -8.101
    463    C    -0.388    23.419    -6.220
    464    O    -1.149    24.181    -5.627
    465    N    -0.769    22.776    -7.359
    466    C    0.068    21.945    -7.992
    467    N    -0.334    21.337    -9.105
    468    H    -1.266    21.516    -9.450
    469    H    0.281    20.706    -9.599
    470    C    1.722    22.982    -3.358
    471    H    1.590    22.043    -3.675
    472    O    1.012    23.256    -2.147
    473    H    0.117    23.583    -2.267
    474    C    3.210    23.232    -3.153
    475    H    3.689    22.390    -3.401
    476    O    3.462    23.686    -1.815
    477    P    3.397    22.658    -0.567
    478    O    4.258    23.182    0.518
    479    O    3.567    21.251    -1.003
    480    O    1.856    22.853    -0.120
    481    C    1.370    24.134    0.330
    482    H    1.464    24.797    -0.413
    483    H    1.793    24.352    1.209
    484    C    -0.131    24.122    0.632
    485    H    -0.400    24.967    1.095
    486    O    -0.850    24.015    -0.594
    487    C    -1.804    22.953    -0.528
    488    H    -2.694    23.391    -0.401
    489    N    -1.752    22.197    -1.793
    490    C    -2.282    21.354    -3.747
    491    N    -0.944    21.028    -3.534
    492    C    -0.700    21.548    -2.371
    493    H    0.250    21.360    -2.123
    494    N    -4.416    21.554    -4.688
    495    C    -4.788    22.232    -3.603
    496    H    -5.709    22.596    -3.462
    497    N    -4.035    22.538    -2.550
    498    C    -2.780    22.061    -2.692
    499    C    -3.161    21.096    -4.802
    500    N    -2.794    20.461    -5.912
    501    H    -3.471    20.336    -6.651
    502    H    -1.847    20.119    -5.990
    503    C    -1.497    22.101    0.683
    504    H    -0.987    21.299    0.371
    505    O    -2.687    21.749    1.391
    506    H    -3.467    21.637    0.842
    507    C    -0.581    22.971    1.538
    508    H    0.215    22.415    1.778
    509    O    -1.346    23.601    2.566
    510    P    -1.947    22.719    3.778
    511    O    -2.029    23.631    4.937
    512    O    -1.075    21.529    3.762
    513    O    -3.427    22.340    3.268
    514    C    -4.533    22.456    4.172
    515    H    -4.624    23.411    4.455
    516    H    -4.443    21.762    4.887
    517    C    -5.860    22.130    3.482
    518    H    -6.592    22.047    4.159
    519    O    -6.175    23.205    2.581
    520    C    -6.412    22.674    1.271
    521    H    -7.399    22.539    1.181
    522    N    -5.934    23.659    0.252
    523    C    -4.940    24.557    0.563
    524    H    -4.450    24.687    1.425
    525    C    -6.502    23.641    -1.022
    526    O    -7.384    22.856    -1.349
    527    N    -6.006    24.561    -1.921
    528    H    -6.418    24.560    -2.865
    529    C    -5.012    25.485    -1.685
    530    O    -4.647    26.247    -2.576
    531    C    -4.474    25.444    -0.348
    532    H    -3.762    26.141    -0.262
    533    C    -5.715    21.304    1.239
    534    H    -4.745    21.443    1.041
    535    O    -6.340    20.417    0.303
    536    H    -6.691    20.840    -0.484
    537    C    -5.866    20.823    2.690
    538    H    -5.055    20.291    2.934
    539    O    -7.063    20.036    2.868
    540    P    -7.064    18.414    2.874
    541    O    -8.417    17.942    3.257
    542    O    -5.915    17.760    3.555
    543    O    -6.892    18.097    1.299
    544    C    -7.881    18.553    0.359
    545    H    -7.925    19.552    0.391
    546    H    -8.728    18.042    0.504
    547    C    -7.487    18.235    -1.085
    548    H    -8.229    18.487    -1.706
    549    O    -6.287    18.961    -1.462
    550    C    -5.782    18.309    -2.626
    551    H    -6.120    18.830    -3.410
    552    N    -4.311    18.337    -2.562
    553    C    -2.192    18.309    -3.125
    554    N    -2.224    18.540    -1.750
    555    C    -3.496    18.545    -1.485
    556    H    -3.624    18.707    -0.507
    557    N    -1.467    17.960    -5.324
    558    C    -2.744    17.856    -5.688
    559    H    -3.046    17.688    -6.626
    560    N    -3.808    17.952    -4.902
    561    C    -3.456    18.183    -3.622
    562    C    -1.146    18.189    -4.042
    563    N    0.132    18.288    -3.703
    564    H    0.838    18.189    -4.419
    565    H    0.370    18.460    -2.737
    566    C    -6.384    16.894    -2.669
    567    H    -5.628    16.239    -2.676
    568    O    -7.261    16.738    -3.794
    569    H    -7.012    17.239    -4.574
    570    C    -7.145    16.766    -1.340
    571    H    -6.522    16.448    -0.625
    572    O    -8.263    15.848    -1.432
    573    P    -8.227    14.285    -0.989
    574    O    -9.531    13.646    -1.296
    575    O    -7.653    13.947    0.344
    576    O    -7.181    13.699    -2.069
    577    C    -7.466    13.871    -3.464
    578    H    -7.735    14.820    -3.627
    579    H    -8.092    13.149    -3.760
    580    C    -6.244    13.682    -4.361
    581    H    -6.531    13.731    -5.318
    582    O    -5.257    14.713    -4.111
    583    C    -3.961    14.159    -4.420
    584    H    -3.631    14.657    -5.222
    585    N    -3.094    14.364    -3.244
    586    C    -1.347    14.615    -1.940
    587    N    -2.464    14.686    -1.112
    588    C    -3.451    14.528    -1.937
    589    H    -4.310    14.560    -1.427
    590    N    0.858    14.591    -2.732
    591    C    0.373    14.400    -3.960
    592    H    0.942    14.307    -4.777
    593    N    -0.907    14.302    -4.310
    594    C    -1.718    14.419    -3.239
    595    C    0.024    14.707    -1.686
    596    N    0.520    14.919    -0.471
    597    H    1.521    14.989    -0.356
    598    H    -0.116    15.005    0.309
    599    C    -4.143    12.680    -4.790
    600    H    -3.443    12.140    -4.323
    601    O    -4.141    12.481    -6.205
    602    H    -3.552    13.060    -6.695
    603    C    -5.503    12.370    -4.173
    604    H    -5.382    12.201    -3.195
    605    O    -6.219    11.409    -4.972
    606    P    -5.856    9.846    -5.191
    607    O    -6.700    9.220    -6.239
    608    O    -5.976    9.468    -3.778
    609    O    -4.315    9.797    -5.654
    610    C    -3.903    10.275    -6.940
    611    H    -4.205    11.222    -7.047
    612    H    -4.180    9.614    -7.637
    613    C    -2.384    10.332    -7.031
    614    H    -2.090    10.621    -7.942
    615    O    -1.837    11.228    -6.059
    616    C    -0.468    10.830    -5.840
    617    H    0.098    11.494    -6.329