!*** FMO 5.2 (Gamess) INPUT generated by Facio 21.1.1.32 ***
 $CONTRL RUNTYP=OPTFMO NPRINT=-5 ISPHER=-1 MAXIT=50 $END
 $SYSTEM MWORDS=29 $END
 $GDDI NGROUP=1 $END
 $INTGRL NINTIC=-9000000 $END
 $SCF DIRSCF=.FALSE. NPUNCH=0 $END
!*** NumCPU : 2  MemPerNode : 512MB
 $FMOPRP
    NAODIR=210
    NGRFMO(1)=1, 1, 0, 0, 0,   0, 0, 0, 0, 0
    NPRINT=9
 $END
 $FMO
      SCFTYP(1)=RHF
      MODGRD=10
      MODMUL=0
      MAXCAO=5
      MAXBND=34
      NLAYER=1
      NFRAG=32
      ICHARG(1)=-1, -1, -1, -1, -1, -1, -1, -1, -1, -1, 
-1, -1, -1, -1, -1, -1, -1, -1, -1, -1, 
-1, -1, -1, -1, -1, -1, -1, -1, -1, -1, 
-1, 0
      FRGNAM(1)=Frag1, Frag2, Frag3, Frag4, Frag5, Frag6, Frag7, Frag8, Frag9, Frag10, Frag11, Frag12, Frag13, Frag14, Frag15, Frag16, Frag17, Frag18, Frag19, Frag20, Frag21, Frag22, Frag23, Frag24, Frag25, Frag26, Frag27, Frag28, Frag29, Frag30, Frag31, Frag32
      indat(1)=0
               1   -36   0
               37   -69   0
               70   -103   0
               104   -134   0
               135   -167   0
               168   -201   0
               202   -231   0
               232   -261   0
               262   -292   0
               293   -323   0
               324   -354   0
               355   -385   0
               386   -415   0
               416   -449   0
               450   -480   0
               481   -513   0
               514   -543   0
               544   -576   0
               577   -609   0
               610   -643   0
               644   -677   0
               678   -710   0
               711   -740   0
               741   -774   0
               775   -807   0
               808   -840   0
               841   -871   0
               872   -902   0
               903   -936   0
               937   -966   0
               967   -996   0
               997   -1024   0
 $END

 $FMOBND
   -37   36       3-21G    MINI
   -70   69       3-21G    MINI
   -104   103       3-21G    MINI
   -135   134       3-21G    MINI
   -168   167       3-21G    MINI
   -202   201       3-21G    MINI
   -232   231       3-21G    MINI
   -262   261       3-21G    MINI
   -293   292       3-21G    MINI
   -324   323       3-21G    MINI
   -355   354       3-21G    MINI
   -386   385       3-21G    MINI
   -416   415       3-21G    MINI
   -450   449       3-21G    MINI
   -481   480       3-21G    MINI
   -514   513       3-21G    MINI
   -544   543       3-21G    MINI
   -577   576       3-21G    MINI
   -610   609       3-21G    MINI
   -644   643       3-21G    MINI
   -678   677       3-21G    MINI
   -711   710       3-21G    MINI
   -741   740       3-21G    MINI
   -775   774       3-21G    MINI
   -808   807       3-21G    MINI
   -841   840       3-21G    MINI
   -872   871       3-21G    MINI
   -903   902       3-21G    MINI
   -937   936       3-21G    MINI
   -967   966       3-21G    MINI
   -997   996       3-21G    MINI
 $END
 $FMOHYB
 3-21G        9   5
   1 0  -0.070459   0.164841   0.000000   0.000000   0.502116
         0.466939   0.000000   0.000000   0.418036
   0 1  -0.070465   0.164857   0.473392   0.000000  -0.167359
         0.466967   0.394111   0.000000  -0.139327
   0 1  -0.070465   0.164857  -0.236695  -0.409969  -0.167359
         0.466967  -0.197055  -0.341311  -0.139327
   0 1  -0.070465   0.164857  -0.236695   0.409969  -0.167359
         0.466967  -0.197055   0.341311  -0.139327
   0 1   1.006716   0.074826   0.000000   0.000000   0.000000
        -0.143830   0.000000   0.000000  -0.000003
 MINI         5   5
   1 0  -0.104883   0.308874   0.000000   0.000000   0.521806
   0 1  -0.104883   0.308874   0.491961   0.000000  -0.173934
   0 1  -0.104883   0.308876  -0.245980  -0.426050  -0.173933
   0 1  -0.104883   0.308876  -0.245980   0.426050  -0.173933
   0 1   0.988209   0.063992   0.000000   0.000000   0.000000
 $END

 $DATA
 FMO calculation : XXNAMEXX
 C1 
 C.1-1    6
      N21 3
   
 O.1-1    8
      N21 3
   
 N.1-1    7
      N21 3
   
 H.1-1    1
      N21 3
   
 P.1-1   15
      N21 3
   
 $END
 $FMOXYZ
    1    H    8.178    -17.995    -6.998
    2    O    7.223    -18.221    -7.190
    3    C    7.177    -19.217    -8.219
    4    H    7.592    -20.059    -7.876
    5    H    7.539    -18.827    -9.066
    6    C    5.744    -19.613    -8.565
    7    H    5.749    -20.229    -9.353
    8    O    5.102    -20.255    -7.484
    9    C    3.684    -20.182    -7.733
    10    H    3.434    -21.029    -8.202
    11    N    3.011    -20.040    -6.422
    12    C    1.699    -20.350    -6.143
    13    N    -1.390    -21.562    -7.160
    14    H    -2.329    -21.751    -6.841
    15    H    -1.189    -21.783    -8.125
    16    N    0.800    -20.861    -7.017
    17    C    -0.393    -21.054    -6.449
    18    N    -0.672    -20.766    -5.138
    19    H    -1.628    -20.955    -4.804
    20    C    0.226    -20.243    -4.228
    21    O    -0.131    -20.019    -3.074
    22    C    1.504    -20.033    -4.817
    23    N    2.675    -19.530    -4.256
    24    C    3.515    -19.561    -5.245
    25    H    4.399    -19.213    -4.932
    26    C    3.445    -19.001    -8.676
    27    H    2.894    -18.320    -8.193
    28    O    2.849    -19.409    -9.913
    29    H    2.243    -20.150    -9.846
    30    C    4.841    -18.442    -8.897
    31    H    4.996    -17.712    -8.231
    32    O    5.016    -18.086    -10.268
    33    P    4.721    -16.551    -10.646
    34    O    5.085    -16.393    -12.067
    35    O    5.373    -15.737    -9.596
    36    O    3.125    -16.413    -10.497
    37    C    2.259    -17.139    -11.374
    38    H    2.480    -18.113    -11.317
    39    H    2.273    -16.707    -12.276
    40    C    0.800    -17.062    -10.946
    41    H    0.225    -17.525    -11.621
    42    O    0.614    -17.693    -9.655
    43    C    -0.659    -17.216    -9.173
    44    H    -1.356    -17.831    -9.541
    45    N    -0.622    -17.234    -7.697
    46    C    -1.191    -17.443    -5.586
    47    N    0.130    -17.004    -5.589
    48    C    0.402    -16.900    -6.855
    49    H    1.345    -16.583    -6.961
    50    N    -3.316    -18.150    -4.895
    51    C    -3.656    -18.251    -6.181
    52    H    -4.558    -18.545    -6.498
    53    N    -2.889    -17.990    -7.237
    54    C    -1.658    -17.586    -6.861
    55    C    -2.082    -17.746    -4.553
    56    N    -1.756    -17.653    -3.267
    57    H    -2.446    -17.889    -2.569
    58    H    -0.826    -17.348    -3.018
    59    C    -0.862    -15.821    -9.768
    60    H    -0.739    -15.158    -9.030
    61    O    -2.123    -15.706    -10.432
    62    H    -2.832    -16.228    -10.049
    63    C    0.262    -15.655    -10.773
    64    H    0.970    -15.085    -10.356
    65    O    -0.229    -15.018    -11.951
    66    P    -0.432    -13.429    -11.785
    67    O    -0.502    -12.896    -13.155
    68    O    0.403    -12.662    -10.814
    69    O    -1.920    -13.402    -11.180
    70    C    -2.972    -14.027    -11.924
    71    H    -2.700    -14.963    -12.148
    72    H    -3.242    -13.424    -12.675
    73    C    -4.247    -14.198    -11.112
    74    H    -4.977    -14.650    -11.624
    75    O    -3.959    -14.964    -9.937
    76    C    -5.075    -14.843    -9.029
    77    H    -5.693    -15.616    -9.172
    78    N    -4.530    -14.793    -7.656
    79    C    -5.259    -14.832    -6.491
    80    N    -8.316    -15.036    -4.859
    81    H    -8.743    -15.051    -3.944
    82    H    -8.941    -15.103    -5.650
    83    N    -6.607    -14.932    -6.399
    84    C    -7.023    -14.938    -5.134
    85    N    -6.186    -14.856    -4.052
    86    H    -6.617    -14.875    -3.117
    87    C    -4.809    -14.750    -4.116
    88    O    -4.153    -14.679    -3.082
    89    C    -4.348    -14.740    -5.462
    90    N    -3.052    -14.649    -5.966
    91    C    -3.230    -14.685    -7.251
    92    H    -2.341    -14.624    -7.705
    93    C    -5.757    -13.559    -9.528
    94    H    -5.869    -12.958    -8.737
    95    O    -6.981    -13.837    -10.213
    96    H    -7.458    -14.607    -9.894
    97    C    -4.782    -12.921    -10.498
    98    H    -4.043    -12.462    -10.005
    99    O    -5.311    -11.895    -11.347
    100    P    -4.845    -10.380    -11.026
    101    O    -5.390    -9.554    -12.114
    102    O    -3.445    -10.034    -10.628
    103    O    -5.706    -10.019    -9.716
    104    C    -7.128    -10.150    -9.801
    105    H    -7.352    -11.070    -10.122
    106    H    -7.497    -9.373    -10.311
    107    C    -7.839    -10.061    -8.456
    108    H    -8.832    -10.087    -8.573
    109    O    -7.436    -11.166    -7.621
    110    C    -7.672    -10.773    -6.257
    111    H    -8.485    -11.269    -5.953
    112    N    -6.469    -11.122    -5.474
    113    C    -5.245    -11.219    -6.072
    114    H    -4.984    -11.122    -7.032
    115    C    -4.147    -11.485    -5.345
    116    H    -3.181    -11.596    -5.578
    117    C    -6.622    -11.300    -4.109
    118    O    -7.735    -11.224    -3.596
    119    N    -5.515    -11.566    -3.366
    120    C    -4.309    -11.659    -3.939
    121    N    -3.242    -11.887    -3.182
    122    H    -3.364    -11.986    -2.184
    123    H    -2.323    -11.961    -3.595
    124    C    -7.980    -9.265    -6.267
    125    H    -7.419    -8.828    -5.563
    126    O    -9.380    -9.012    -6.109
    127    H    -9.844    -9.639    -5.549
    128    C    -7.500    -8.807    -7.639
    129    H    -6.508    -8.683    -7.629
    130    O    -7.743    -7.413    -8.025
    131    P    -6.654    -6.209    -7.837
    132    O    -7.075    -5.007    -8.576
    133    O    -5.141    -6.182    -7.791
    134    O    -6.941    -5.853    -6.307
    135    C    -8.332    -5.718    -5.993
    136    H    -8.818    -6.532    -6.311
    137    H    -8.653    -4.826    -6.312
    138    C    -8.624    -5.689    -4.502
    139    H    -9.597    -5.528    -4.335
    140    O    -8.236    -6.970    -3.881
    141    C    -8.070    -6.685    -2.478
    142    H    -8.878    -7.049    -2.014
    143    N    -6.829    -7.356    -2.039
    144    C    -5.299    -8.353    -0.820
    145    N    -4.811    -8.348    -2.125
    146    C    -5.753    -7.748    -2.788
    147    H    -5.489    -7.693    -3.751
    148    N    -5.517    -8.682    1.488
    149    C    -6.701    -8.075    1.423
    150    H    -7.295    -7.925    2.214
    151    N    -7.289    -7.576    0.339
    152    C    -6.523    -7.751    -0.756
    153    C    -4.779    -8.843    0.381
    154    N    -3.600    -9.452    0.466
    155    H    -3.283    -9.782    1.366
    156    H    -3.048    -9.570    -0.372
    157    C    -8.053    -5.154    -2.328
    158    H    -7.259    -4.914    -1.770
    159    O    -9.287    -4.661    -1.797
    160    H    -9.728    -5.251    -1.181
    161    C    -7.845    -4.624    -3.739
    162    H    -6.879    -4.683    -3.992
    163    O    -8.164    -3.220    -3.908
    164    P    -7.058    -2.038    -3.766
    165    O    -7.723    -0.766    -4.107
    166    O    -5.640    -2.106    -4.249
    167    O    -6.901    -2.038    -2.170
    168    C    -8.111    -2.000    -1.407
    169    H    -8.800    -2.565    -1.861
    170    H    -8.342    -1.047    -1.210
    171    C    -7.970    -2.632    -0.031
    172    H    -8.852    -2.787    0.414
    173    O    -7.295    -3.869    -0.158
    174    C    -6.775    -4.226    1.137
    175    H    -7.393    -4.904    1.534
    176    N    -5.411    -4.758    0.934
    177    C    -4.614    -5.338    1.895
    178    N    -4.102    -6.350    5.177
    179    H    -3.433    -6.791    5.792
    180    H    -4.976    -6.062    5.594
    181    N    -4.937    -5.513    3.198
    182    C    -3.957    -6.108    3.882
    183    N    -2.765    -6.496    3.328
    184    H    -2.078    -6.946    3.949
    185    C    -2.411    -6.331    2.001
    186    O    -1.319    -6.725    1.604
    187    C    -3.446    -5.696    1.260
    188    N    -3.495    -5.346    -0.088
    189    C    -4.667    -4.803    -0.210
    190    H    -4.795    -4.514    -1.159
    191    C    -6.851    -2.937    1.964
    192    H    -5.960    -2.788    2.393
    193    O    -7.922    -2.971    2.913
    194    H    -8.111    -3.838    3.280
    195    C    -7.084    -1.857    0.920
    196    H    -6.225    -1.635    0.458
    197    O    -7.845    -0.782    1.480
    198    P    -7.122    0.544    2.041
    199    O    -8.193    1.517    2.340
    200    O    -6.006    0.883    1.131
    201    O    -6.530    -0.035    3.417
    202    C    -7.409    -0.443    4.470
    203    H    -8.062    -1.110    4.109
    204    H    -7.773    0.370    4.924
    205    C    -6.657    -1.191    5.562
    206    H    -7.249    -1.472    6.318
    207    O    -6.053    -2.328    5.009
    208    C    -4.873    -2.660    5.768
    209    H    -5.042    -3.533    6.225
    210    N    -3.737    -2.714    4.819
    211    C    -3.814    -2.099    3.599
    212    H    -4.568    -1.582    3.194
    213    C    -2.598    -3.393    5.213
    214    O    -2.503    -3.950    6.300
    215    N    -1.560    -3.403    4.305
    216    H    -0.701    -3.901    4.581
    217    C    -1.555    -2.812    3.060
    218    O    -0.566    -2.886    2.339
    219    C    -2.781    -2.127    2.728
    220    H    -2.694    -1.728    1.815
    221    C    -4.764    -1.564    6.819
    222    H    -3.802    -1.319    6.937
    223    O    -5.401    -1.925    8.049
    224    H    -5.332    -2.853    8.284
    225    C    -5.484    -0.419    6.136
    226    H    -4.930    -0.063    5.384
    227    O    -6.003    0.458    7.130
    228    P    -5.179    1.809    7.438
    229    O    -6.008    2.595    8.370
    230    O    -4.834    2.255    6.075
    231    O    -3.893    1.204    8.183
    232    C    -4.013    0.637    9.489
    233    H    -4.671    -0.116    9.458
    234    H    -4.172    1.371    10.149
    235    C    -2.713    -0.014    9.951
    236    H    -2.793    -0.429    10.857
    237    O    -2.352    -1.012    9.019
    238    C    -0.925    -1.219    9.074
    239    H    -0.767    -2.105    9.510
    240    N    -0.420    -1.173    7.683
    241    C    -1.164    -0.599    6.688
    242    H    -2.072    -0.183    6.731
    243    C    0.832    -1.703    7.430
    244    O    1.514    -2.228    8.305
    245    N    1.275    -1.615    6.129
    246    H    2.205    -2.005    5.921
    247    C    0.593    -1.053    5.070
    248    O    1.094    -1.025    3.951
    249    C    -0.706    -0.526    5.418
    250    H    -1.132    -0.143    4.599
    251    C    -0.392    -0.108    9.990
    252    H    0.422    0.289    9.566
    253    O    -0.162    -0.583    11.318
    254    H    0.143    -1.491    11.376
    255    C    -1.516    0.919    9.964
    256    H    -1.491    1.428    9.104
    257    O    -1.493    1.849    11.062
    258    P    -1.017    3.373    10.805
    259    O    -1.257    4.190    12.016
    260    O    -1.420    3.974    9.505
    261    O    0.570    3.149    10.708
    262    C    1.245    2.535    11.815
    263    H    0.783    1.678    12.043
    264    H    1.361    3.212    12.542
    265    C    2.666    2.111    11.472
    266    H    3.135    1.632    12.214
    267    O    2.618    1.248    10.308
    268    C    3.900    1.212    9.657
    269    H    4.365    0.361    9.902
    270    N    3.663    1.327    8.199
    271    C    2.489    1.829    7.717
    272    H    1.679    2.159    8.201
    273    C    2.284    1.941    6.393
    274    H    1.517    2.272    5.844
    275    C    4.679    0.920    7.346
    276    O    5.732    0.477    7.802
    277    N    4.480    1.031    6.006
    278    C    3.332    1.521    5.521
    279    N    3.173    1.623    4.206
    280    H    3.924    1.328    3.599
    281    H    2.316    1.990    3.817
    282    C    4.626    2.390    10.328
    283    H    5.062    2.915    9.597
    284    O    5.545    1.940    11.328
    285    H    5.940    1.081    11.159
    286    C    3.551    3.249    10.983
    287    H    3.052    3.778    10.297
    288    O    4.001    4.279    11.895
    289    P    3.917    5.848    11.486
    290    O    4.349    6.676    12.628
    291    O    2.767    6.455    10.741
    292    O    5.111    5.950    10.416
    293    C    6.409    5.478    10.806
    294    H    6.312    4.587    11.249
    295    H    6.881    6.202    11.308
    296    C    7.315    5.202    9.618
    297    H    8.205    4.817    9.863
    298    O    6.644    4.300    8.736
    299    C    7.094    4.532    7.388
    300    H    7.593    3.720    7.085
    301    N    5.887    4.801    6.569
    302    C    4.709    5.149    7.164
    303    H    4.488    5.279    8.131
    304    C    3.607    5.376    6.429
    305    H    2.669    5.633    6.662
    306    C    5.988    4.675    5.188
    307    O    7.061    4.371    4.672
    308    N    4.874    4.903    4.436
    309    C    3.714    5.243    5.012
    310    N    2.642    5.453    4.256
    311    H    2.724    5.351    3.254
    312    H    1.759    5.710    4.673
    313    C    8.076    5.701    7.521
    314    H    7.979    6.295    6.723
    315    O    9.416    5.252    7.736
    316    H    9.650    4.442    7.277
    317    C    7.545    6.427    8.745
    318    H    6.664    6.856    8.547
    319    O    8.357    7.511    9.236
    320    P    7.931    9.040    8.933
    321    O    8.783    9.937    9.737
    322    O    6.502    9.479    8.847
    323    O    8.455    9.172    7.425
    324    C    9.831    8.865    7.182
    325    H    10.028    7.951    7.537
    326    H    10.396    9.625    7.504
    327    C    10.169    8.762    5.705
    328    H    11.138    8.575    5.545
    329    O    9.385    7.715    5.108
    330    C    9.165    8.055    3.726
    331    H    9.626    7.360    3.174
    332    N    7.698    8.074    3.509
    333    C    6.843    8.224    4.562
    334    H    7.033    8.344    5.536
    335    C    5.512    8.226    4.372
    336    H    4.732    8.318    4.991
    337    C    7.226    7.921    2.210
    338    O    8.012    7.798    1.273
    339    N    5.878    7.924    2.009
    340    C    5.031    8.070    3.038
    341    N    3.720    8.070    2.810
    342    H    3.389    7.959    1.862
    343    H    3.064    8.179    3.571
    344    C    9.859    9.404    3.510
    345    H    9.307    9.965    2.894
    346    O    11.209    9.251    3.063
    347    H    11.358    8.513    2.468
    348    C    9.789    9.991    4.909
    349    H    8.846    10.242    5.128
    350    O    10.752    11.033    5.078
    351    P    10.328    12.561    4.805
    352    O    11.485    13.406    5.168
    353    O    8.999    12.815    5.412
    354    O    10.161    12.586    3.206
    355    C    11.280    12.305    2.360
    356    H    11.640    11.400    2.586
    357    H    11.911    13.080    2.386
    358    C    10.865    12.198    0.897
    359    H    11.636    11.996    0.293
    360    O    9.871    11.178    0.742
    361    C    9.057    11.502    -0.398
    362    H    9.279    10.838    -1.112
    363    N    7.646    11.417    0.041
    364    C    7.328    11.515    1.363
    365    H    7.915    11.662    2.159
    366    C    6.054    11.413    1.773
    367    H    5.618    11.455    2.672
    368    C    6.667    11.212    -0.924
    369    O    6.972    11.136    -2.112
    370    N    5.373    11.107    -0.516
    371    C    5.052    11.200    0.781
    372    N    3.782    11.085    1.152
    373    H    3.079    10.929    0.444
    374    H    3.521    11.152    2.125
    375    C    9.491    12.893    -0.860
    376    H    8.674    13.437    -1.052
    377    O    10.380    12.837    -1.978
    378    H    10.210    12.122    -2.596
    379    C    10.175    13.447    0.383
    380    H    9.483    13.733    1.046
    381    O    11.168    14.408    0.022
    382    P    10.767    15.962    -0.054
    383    O    11.957    16.732    -0.476
    384    O    10.100    16.214    1.239
    385    O    9.675    15.989    -1.232
    386    C    10.052    15.652    -2.571
    387    H    10.480    14.748    -2.571
    388    H    10.565    16.414    -2.966
    389    C    8.839    15.499    -3.475
    390    H    9.113    15.201    -4.389
    391    O    7.939    14.556    -2.936
    392    C    6.654    14.827    -3.519
    393    H    6.528    14.156    -4.249
    394    N    5.643    14.688    -2.448
    395    C    6.004    14.769    -1.130
    396    H    6.906    14.911    -0.723
    397    C    4.331    14.480    -2.825
    398    O    3.985    14.403    -4.000
    399    N    3.418    14.366    -1.797
    400    H    2.433    14.215    -2.058
    401    C    3.694    14.434    -0.448
    402    O    2.795    14.309    0.379
    403    C    5.089    14.654    -0.142
    404    H    5.202    14.696    0.851
    405    C    6.711    16.228    -4.134
    406    H    5.967    16.771    -3.744
    407    O    6.668    16.185    -5.566
    408    H    6.139    15.473    -5.934
    409    C    8.040    16.779    -3.638
    410    H    7.910    17.198    -2.739
    411    O    8.626    17.654    -4.614
    412    P    8.524    19.256    -4.454
    413    O    9.053    19.908    -5.675
    414    O    9.088    19.620    -3.135
    415    O    6.937    19.531    -4.404
    416    C    6.122    19.321    -5.563
    417    H    6.302    18.407    -5.927
    418    H    6.227    20.100    -6.181
    419    C    4.635    19.307    -5.217
    420    H    4.077    19.272    -6.046
    421    O    4.335    18.179    -4.411
    422    C    3.231    18.502    -3.541
    423    H    2.460    17.930    -3.822
    424    N    3.659    18.254    -2.149
    425    C    2.839    17.978    -1.078
    426    N    -0.326    17.382    0.223
    427    H    -0.823    17.177    1.078
    428    H    -0.883    17.455    -0.616
    429    N    1.495    17.832    -1.119
    430    C    0.980    17.566    0.084
    431    N    1.729    17.455    1.227
    432    H    1.229    17.248    2.103
    433    C    3.102    17.599    1.295
    434    O    3.674    17.481    2.371
    435    C    3.662    17.880    0.021
    436    N    4.988    18.091    -0.344
    437    C    4.915    18.302    -1.620
    438    H    5.835    18.465    -1.976
    439    C    2.889    19.961    -3.810
    440    H    2.719    20.412    -2.934
    441    O    1.792    20.092    -4.724
    442    H    1.124    19.406    -4.656
    443    C    4.176    20.511    -4.410
    444    H    4.838    20.686    -3.681
    445    O    3.923    21.667    -5.216
    446    P    4.272    23.121    -4.617
    447    O    3.927    24.143    -5.627
    448    O    5.648    23.077    -4.074
    449    O    3.263    23.281    -3.368
    450    C    3.491    24.231    -2.323
    451    H    3.408    25.154    -2.698
    452    H    4.337    23.994    -1.846
    453    C    2.409    24.154    -1.248
    454    H    2.673    24.693    -0.448
    455    O    1.207    24.689    -1.791
    456    C    0.175    23.687    -1.814
    457    H    -0.600    24.076    -1.315
    458    N    -0.156    23.422    -3.233
    459    C    0.786    22.942    -4.099
    460    H    1.744    22.704    -3.943
    461    C    0.484    22.718    -5.390
    462    H    1.012    22.379    -6.169
    463    C    -1.451    23.690    -3.656
    464    O    -2.284    24.116    -2.860
    465    N    -1.763    23.465    -4.963
    466    C    -0.846    22.996    -5.818
    467    N    -1.183    22.794    -7.090
    468    H    -2.127    23.000    -7.383
    469    H    -0.507    22.441    -7.753
    470    C    0.685    22.454    -1.061
    471    H    0.646    21.682    -1.695
    472    O    -0.050    22.209    0.142
    473    H    -0.972    22.475    0.115
    474    C    2.142    22.748    -0.727
    475    H    2.701    22.098    -1.242
    476    O    2.334    22.756    0.696
    477    P    2.289    21.380    1.544
    478    O    3.056    21.584    2.794
    479    O    2.667    20.300    0.608
    480    O    0.727    21.200    1.929
    481    C    0.054    22.119    2.814
    482    H    0.043    23.026    2.394
    483    H    0.443    22.032    3.731
    484    C    -1.432    21.778    3.005
    485    H    -1.821    22.340    3.735
    486    O    -2.122    22.057    1.786
    487    C    -2.904    20.930    1.383
    488    H    -3.851    21.153    1.616
    489    N    -2.737    20.739    -0.070
    490    C    -3.134    20.655    -2.226
    491    N    -1.762    20.464    -2.075
    492    C    -1.600    20.521    -0.790
    493    H    -0.632    20.388    -0.578
    494    N    -5.274    20.903    -3.141
    495    C    -5.744    21.047    -1.903
    496    H    -6.709    21.194    -1.688
    497    N    -5.047    21.023    -0.771
    498    C    -3.734    20.820    -1.011
    499    C    -3.964    20.706    -3.348
    500    N    -3.506    20.610    -4.593
    501    H    -4.157    20.688    -5.361
    502    H    -2.518    20.462    -4.741
    503    C    -2.467    19.728    2.195
    504    H    -1.827    19.201    1.636
    505    O    -3.592    18.964    2.637
    506    H    -4.341    18.962    2.037
    507    C    -1.720    20.313    3.387
    508    H    -0.853    19.821    3.468
    509    O    -2.557    20.225    4.552
    510    P    -2.943    18.801    5.225
    511    O    -3.167    19.001    6.676
    512    O    -1.982    17.751    4.804
    513    O    -4.374    18.425    4.568
    514    C    -5.509    18.028    5.363
    515    H    -5.716    18.753    6.020
    516    H    -5.352    17.106    5.717
    517    C    -6.782    17.902    4.522
    518    H    -7.509    17.461    5.048
    519    O    -7.211    19.219    4.145
    520    C    -7.370    19.281    2.722
    521    H    -8.333    19.099    2.525
    522    N    -6.996    20.651    2.249
    523    C    -6.116    21.421    2.971
    524    H    -5.654    21.216    3.834
    525    C    -7.543    21.124    1.056
    526    O    -8.325    20.474    0.374
    527    N    -7.145    22.385    0.665
    528    H    -7.543    22.748    -0.213
    529    C    -6.266    23.212    1.330
    530    O    -5.980    24.315    0.873
    531    C    -5.744    22.655    2.554
    532    H    -5.119    23.315    2.971
    533    C    -6.518    18.137    2.151
    534    H    -5.570    18.447    2.080
    535    O    -7.027    17.677    0.892
    536    H    -7.421    18.357    0.341
    537    C    -6.615    17.075    3.253
    538    H    -5.744    16.586    3.295
    539    O    -7.793    16.278    3.043
    540    P    -7.731    14.857    2.275
    541    O    -9.068    14.224    2.366
    542    O    -6.539    14.159    2.799
    543    O    -7.462    15.260    0.733
    544    C    -8.463    15.929    -0.051
    545    H    -8.638    16.830    0.345
    546    H    -9.241    15.314    -0.179
    547    C    -7.960    16.218    -1.465
    548    H    -8.696    16.608    -2.018
    549    O    -6.846    17.140    -1.447
    550    C    -6.209    17.020    -2.719
    551    H    -6.572    17.760    -3.285
    552    N    -4.757    17.166    -2.517
    553    C    -2.628    17.557    -2.859
    554    N    -2.753    17.255    -1.503
    555    C    -4.027    17.037    -1.369
    556    H    -4.220    16.810    -0.414
    557    N    -1.761    18.124    -4.959
    558    C    -2.997    18.038    -5.449
    559    H    -3.231    18.203    -6.407
    560    N    -4.101    17.730    -4.781
    561    C    -3.841    17.502    -3.479
    562    C    -1.532    17.890    -3.659
    563    N    -0.295    17.980    -3.193
    564    H    0.451    18.224    -3.829
    565    H    -0.127    17.803    -2.213
    566    C    -6.624    15.675    -3.330
    567    H    -5.797    15.143    -3.511
    568    O    -7.425    15.859    -4.505
    569    H    -7.201    16.630    -5.031
    570    C    -7.411    15.004    -2.197
    571    H    -6.775    14.521    -1.595
    572    O    -8.477    14.231    -2.762
    573    P    -8.268    12.660    -3.062
    574    O    -9.476    12.131    -3.737
    575    O    -7.837    12.121    -1.757
    576    O    -7.028    12.588    -4.096
    577    C    -7.168    13.081    -5.434
    578    H    -7.527    14.014    -5.401
    579    H    -7.666    12.406    -5.979
    580    C    -5.828    13.224    -6.154
    581    H    -5.995    13.494    -7.102
    582    O    -5.005    14.236    -5.511
    583    C    -3.624    13.887    -5.737
    584    H    -3.253    14.595    -6.338
    585    N    -2.948    13.860    -4.426
    586    C    -1.427    13.919    -2.845
    587    N    -2.644    13.686    -2.208
    588    C    -3.489    13.660    -3.189
    589    H    -4.405    13.491    -2.825
    590    N    0.849    14.277    -3.268
    591    C    0.554    14.361    -4.567
    592    H    1.231    14.523    -5.284
    593    N    -0.648    14.249    -5.124
    594    C    -1.601    14.026    -4.195
    595    C    -0.122    14.057    -2.367
    596    N    0.184    13.997    -1.074
    597    H    1.146    14.119    -0.792
    598    H    -0.553    13.831    -0.404
    599    C    -3.586    12.536    -6.471
    600    H    -2.900    11.953    -6.036
    601    O    -3.370    12.703    -7.874
    602    H    -2.793    13.432    -8.111
    603    C    -4.972    11.972    -6.182
    604    H    -4.968    11.560    -5.271
    605    O    -5.383    11.059    -7.214
    606    P    -5.039    9.486    -7.092
    607    O    -5.641    8.776    -8.242
    608    O    -5.323    8.992    -5.724
    609    O    -3.440    9.450    -7.293
    610    C    -2.850    10.010    -8.473
    611    H    -3.177    10.948    -8.586
    612    H    -2.978    9.374    -9.234
    613    C    -1.338    10.149    -8.347
    614    H    -0.944    10.512    -9.192
    615    O    -0.997    11.027    -7.255
    616    C    0.344    10.693    -6.846