!*** FMO 5.2 (Gamess) INPUT generated by Facio 21.1.1.32 ***
 $CONTRL RUNTYP=OPTFMO NPRINT=-5 ISPHER=-1 MAXIT=50 $END
 $SYSTEM MWORDS=29 $END
 $GDDI NGROUP=1 $END
 $INTGRL NINTIC=-9000000 $END
 $SCF DIRSCF=.FALSE. NPUNCH=0 $END
!*** NumCPU : 2  MemPerNode : 512MB
 $FMOPRP
    NAODIR=210
    NGRFMO(1)=1, 1, 0, 0, 0,   0, 0, 0, 0, 0
    NPRINT=9
 $END
 $FMO
      SCFTYP(1)=RHF
      MODGRD=10
      MODMUL=0
      MAXCAO=5
      MAXBND=34
      NLAYER=1
      NFRAG=32
      ICHARG(1)=-1, -1, -1, -1, -1, -1, -1, -1, -1, -1, 
-1, -1, -1, -1, -1, -1, -1, -1, -1, -1, 
-1, -1, -1, -1, -1, -1, -1, -1, -1, -1, 
-1, 0
      FRGNAM(1)=Frag1, Frag2, Frag3, Frag4, Frag5, Frag6, Frag7, Frag8, Frag9, Frag10, Frag11, Frag12, Frag13, Frag14, Frag15, Frag16, Frag17, Frag18, Frag19, Frag20, Frag21, Frag22, Frag23, Frag24, Frag25, Frag26, Frag27, Frag28, Frag29, Frag30, Frag31, Frag32
      indat(1)=0
               1   -36   0
               37   -69   0
               70   -103   0
               104   -134   0
               135   -167   0
               168   -201   0
               202   -231   0
               232   -261   0
               262   -292   0
               293   -323   0
               324   -354   0
               355   -385   0
               386   -415   0
               416   -449   0
               450   -480   0
               481   -513   0
               514   -543   0
               544   -576   0
               577   -609   0
               610   -643   0
               644   -677   0
               678   -710   0
               711   -740   0
               741   -774   0
               775   -807   0
               808   -840   0
               841   -871   0
               872   -902   0
               903   -936   0
               937   -966   0
               967   -996   0
               997   -1024   0
 $END

 $FMOBND
   -37   36       3-21G    MINI
   -70   69       3-21G    MINI
   -104   103       3-21G    MINI
   -135   134       3-21G    MINI
   -168   167       3-21G    MINI
   -202   201       3-21G    MINI
   -232   231       3-21G    MINI
   -262   261       3-21G    MINI
   -293   292       3-21G    MINI
   -324   323       3-21G    MINI
   -355   354       3-21G    MINI
   -386   385       3-21G    MINI
   -416   415       3-21G    MINI
   -450   449       3-21G    MINI
   -481   480       3-21G    MINI
   -514   513       3-21G    MINI
   -544   543       3-21G    MINI
   -577   576       3-21G    MINI
   -610   609       3-21G    MINI
   -644   643       3-21G    MINI
   -678   677       3-21G    MINI
   -711   710       3-21G    MINI
   -741   740       3-21G    MINI
   -775   774       3-21G    MINI
   -808   807       3-21G    MINI
   -841   840       3-21G    MINI
   -872   871       3-21G    MINI
   -903   902       3-21G    MINI
   -937   936       3-21G    MINI
   -967   966       3-21G    MINI
   -997   996       3-21G    MINI
 $END
 $FMOHYB
 3-21G        9   5
   1 0  -0.070459   0.164841   0.000000   0.000000   0.502116
         0.466939   0.000000   0.000000   0.418036
   0 1  -0.070465   0.164857   0.473392   0.000000  -0.167359
         0.466967   0.394111   0.000000  -0.139327
   0 1  -0.070465   0.164857  -0.236695  -0.409969  -0.167359
         0.466967  -0.197055  -0.341311  -0.139327
   0 1  -0.070465   0.164857  -0.236695   0.409969  -0.167359
         0.466967  -0.197055   0.341311  -0.139327
   0 1   1.006716   0.074826   0.000000   0.000000   0.000000
        -0.143830   0.000000   0.000000  -0.000003
 MINI         5   5
   1 0  -0.104883   0.308874   0.000000   0.000000   0.521806
   0 1  -0.104883   0.308874   0.491961   0.000000  -0.173934
   0 1  -0.104883   0.308876  -0.245980  -0.426050  -0.173933
   0 1  -0.104883   0.308876  -0.245980   0.426050  -0.173933
   0 1   0.988209   0.063992   0.000000   0.000000   0.000000
 $END

 $DATA
 FMO calculation : XXNAMEXX
 C1 
 C.1-1    6
      N21 3
   
 O.1-1    8
      N21 3
   
 N.1-1    7
      N21 3
   
 H.1-1    1
      N21 3
   
 P.1-1   15
      N21 3
   
 $END
 $FMOXYZ
    1    H    10.341    -10.452    -8.061
    2    O    9.495    -10.982    -8.109
    3    C    9.649    -12.019    -9.087
    4    H    10.353    -12.658    -8.776
    5    H    9.760    -11.602    -9.989
    6    C    8.393    -12.884    -9.226
    7    H    8.449    -13.532    -9.985
    8    O    8.176    -13.601    -8.022
    9    C    6.794    -14.032    -7.999
    10    H    6.782    -14.958    -8.377
    11    N    6.305    -14.006    -6.602
    12    C    5.226    -14.702    -6.101
    13    N    2.618    -16.946    -6.556
    14    H    1.853    -17.404    -6.082
    15    H    2.745    -17.174    -7.532
    16    N    4.439    -15.556    -6.797
    17    C    3.474    -16.078    -6.036
    18    N    3.301    -15.782    -4.709
    19    H    2.522    -16.243    -4.218
    20    C    4.088    -14.914    -3.976
    21    O    3.843    -14.718    -2.789
    22    C    5.123    -14.350    -4.773
    23    N    6.122    -13.442    -4.429
    24    C    6.775    -13.284    -5.539
    25    H    7.523    -12.638    -5.387
    26    C    6.002    -13.107    -8.923
    27    H    5.293    -12.636    -8.398
    28    O    5.440    -13.786    -10.051
    29    H    5.144    -14.683    -9.878
    30    C    7.081    -12.112    -9.298
    31    H    7.084    -11.399    -8.597
    32    O    6.775    -11.225    -10.388
    33    P    5.958    -9.824    -10.281
    34    O    5.988    -9.233    -11.624
    35    O    6.467    -9.063    -9.135
    36    O    4.469    -10.255    -9.885
    37    C    3.718    -11.093    -10.757
    38    H    4.186    -11.972    -10.847
    39    H    3.507    -10.587    -11.593
    40    C    2.342    -11.465    -10.194
    41    H    1.827    -11.998    -10.866
    42    O    2.646    -12.311    -9.052
    43    C    1.408    -12.480    -8.323
    44    H    0.963    -13.296    -8.692
    45    N    1.620    -12.591    -6.864
    46    C    1.424    -13.168    -4.751
    47    N    2.468    -12.248    -4.808
    48    C    2.526    -11.946    -6.069
    49    H    3.253    -11.274    -6.210
    50    N    -0.171    -14.703    -3.982
    51    C    -0.599    -14.827    -5.240
    52    H    -1.352    -15.425    -5.517
    53    N    -0.123    -14.204    -6.315
    54    C    0.898    -13.381    -5.993
    55    C    0.847    -13.876    -3.694
    56    N    1.265    -13.765    -2.436
    57    H    0.806    -14.308    -1.718
    58    H    2.031    -13.141    -2.228
    59    C    0.551    -11.262    -8.639
    60    H    0.400    -10.764    -7.785
    61    O    -0.689    -11.567    -9.264
    62    H    -1.071    -12.412    -9.015
    63    C    1.411    -10.426    -9.548
    64    H    1.957    -9.805    -8.985
    65    O    0.657    -9.341    -10.151
    66    P    -0.216    -8.112    -9.494
    67    O    -0.571    -7.150    -10.541
    68    O    0.346    -7.584    -8.259
    69    O    -1.506    -8.842    -8.933
    70    C    -2.122    -9.637    -9.931
    71    H    -1.428    -10.214    -10.362
    72    H    -2.675    -9.048    -10.521
    73    C    -3.106    -10.606    -9.320
    74    H    -3.537    -11.203    -9.996
    75    O    -2.415    -11.411    -8.361
    76    C    -3.415    -12.140    -7.615
    77    H    -3.521    -13.049    -8.018
    78    N    -2.966    -12.234    -6.206
    79    C    -3.560    -12.972    -5.208
    80    N    -6.029    -15.179    -4.163
    81    H    -6.384    -15.671    -3.355
    82    H    -6.517    -15.332    -5.034
    83    N    -4.641    -13.776    -5.351
    84    C    -4.992    -14.355    -4.203
    85    N    -4.334    -14.162    -3.016
    86    H    -4.689    -14.664    -2.190
    87    C    -3.232    -13.347    -2.839
    88    O    -2.721    -13.244    -1.728
    89    C    -2.845    -12.720    -4.056
    90    N    -1.802    -11.834    -4.316
    91    C    -1.929    -11.593    -5.586
    92    H    -1.211    -10.958    -5.870
    93    C    -4.684    -11.315    -7.898
    94    H    -5.144    -11.153    -7.025
    95    O    -5.543    -12.005    -8.813
    96    H    -5.511    -12.963    -8.755
    97    C    -4.163    -9.993    -8.436
    98    H    -3.717    -9.455    -7.720
    99    O    -5.057    -8.977    -8.955
    100    P    -5.575    -7.596    -8.256
    101    O    -6.392    -6.809    -9.189
    102    O    -4.502    -6.915    -7.534
    103    O    -6.536    -8.175    -7.131
    104    C    -7.672    -8.905    -7.576
    105    H    -7.369    -9.644    -8.178
    106    H    -8.354    -8.264    -7.928
    107    C    -8.373    -9.613    -6.429
    108    H    -9.205    -10.054    -6.766
    109    O    -7.481    -10.620    -5.923
    110    C    -7.929    -10.942    -4.596
    111    H    -8.348    -11.849    -4.639
    112    N    -6.758    -10.950    -3.690
    113    C    -5.649    -10.205    -3.973
    114    H    -5.439    -9.644    -4.774
    115    C    -4.617    -10.144    -3.112
    116    H    -3.737    -9.669    -3.127
    117    C    -6.848    -11.677    -2.511
    118    O    -7.843    -12.357    -2.279
    119    N    -5.810    -11.620    -1.632
    120    C    -4.724    -10.885    -1.899
    121    N    -3.742    -10.822    -1.008
    122    H    -3.835    -11.333    -0.142
    123    H    -2.914    -10.273    -1.191
    124    C    -9.013    -9.906    -4.251
    125    H    -8.841    -9.579    -3.322
    126    O    -10.316    -10.490    -4.358
    127    H    -10.360    -11.425    -4.146
    128    C    -8.767    -8.768    -5.229
    129    H    -7.980    -8.221    -4.943
    130    O    -9.799    -7.748    -5.364
    131    P    -9.871    -6.283    -4.650
    132    O    -10.882    -5.400    -5.249
    133    O    -8.529    -5.725    -4.493
    134    O    -10.423    -6.596    -3.189
    135    C    -11.763    -7.049    -2.998
    136    H    -11.897    -7.896    -3.512
    137    H    -12.391    -6.291    -3.173
    138    C    -12.025    -7.436    -1.550
    139    H    -12.988    -7.698    -1.484
    140    O    -11.185    -8.615    -1.259
    141    C    -11.123    -8.701    0.173
    142    H    -11.694    -9.474    0.450
    143    N    -9.715    -8.946    0.574
    144    C    -7.907    -9.534    1.687
    145    N    -7.461    -8.983    0.487
    146    C    -8.567    -8.659    -0.114
    147    H    -8.348    -8.246    -0.998
    148    N    -7.974    -10.531    3.804
    149    C    -9.304    -10.460    3.752
    150    H    -9.909    -10.782    4.481
    151    N    -10.043    -9.968    2.761
    152    C    -9.273    -9.517    1.750
    153    C    -7.233    -10.077    2.784
    154    N    -5.908    -10.159    2.854
    155    H    -5.485    -10.563    3.677
    156    H    -5.355    -9.815    2.082
    157    C    -11.758    -7.398    0.691
    158    H    -11.146    -7.058    1.405
    159    O    -13.073    -7.649    1.190
    160    H    -13.214    -8.535    1.532
    161    C    -11.795    -6.391    -0.452
    162    H    -10.903    -5.961    -0.593
    163    O    -12.706    -5.276    -0.237
    164    P    -12.359    -3.773    0.336
    165    O    -13.500    -2.850    0.306
    166    O    -11.151    -3.290    -0.333
    167    O    -12.031    -3.902    1.896
    168    C    -13.006    -4.085    2.928
    169    H    -13.642    -4.805    2.651
    170    H    -13.386    -3.195    3.178
    171    C    -12.395    -4.608    4.228
    172    H    -13.135    -4.961    4.800
    173    O    -11.570    -5.699    3.807
    174    C    -10.680    -6.038    4.882
    175    H    -10.992    -6.894    5.294
    176    N    -9.302    -6.228    4.355
    177    C    -8.200    -6.659    5.066
    178    N    -6.780    -7.776    8.034
    179    H    -5.910    -8.074    8.452
    180    H    -7.591    -7.768    8.637
    181    N    -8.187    -7.025    6.370
    182    C    -6.972    -7.394    6.779
    183    N    -5.863    -7.403    5.973
    184    H    -4.973    -7.706    6.394
    185    C    -5.845    -7.037    4.639
    186    O    -4.797    -7.093    4.002
    187    C    -7.135    -6.640    4.190
    188    N    -7.547    -6.202    2.933
    189    C    -8.817    -5.981    3.101
    190    H    -9.208    -5.658    2.239
    191    C    -10.900    -4.890    5.885
    192    H    -9.994    -4.619    6.211
    193    O    -11.690    -5.351    6.983
    194    H    -11.609    -6.288    7.176
    195    C    -11.516    -3.735    5.119
    196    H    -10.839    -3.268    4.551
    197    O    -11.934    -2.532    5.860
    198    P    -11.238    -1.093    6.230
    199    O    -12.142    -0.152    6.895
    200    O    -10.560    -0.544    5.073
    201    O    -10.096    -1.325    7.317
    202    C    -10.337    -1.550    8.702
    203    H    -10.983    -2.307    8.801
    204    H    -10.564    -0.679    9.139
    205    C    -9.085    -2.027    9.446
    206    H    -9.337    -2.274    10.382
    207    O    -8.639    -3.184    8.769
    208    C    -7.230    -3.360    9.005
    209    H    -7.100    -4.219    9.500
    210    N    -6.526    -3.385    7.696
    211    C    -7.117    -2.859    6.579
    212    H    -8.027    -2.457    6.476
    213    C    -5.243    -3.908    7.644
    214    O    -4.685    -4.386    8.624
    215    N    -4.616    -3.856    6.415
    216    H    -3.661    -4.237    6.359
    217    C    -5.143    -3.342    5.249
    218    O    -4.486    -3.347    4.213
    219    C    -6.481    -2.821    5.387
    220    H    -6.786    -2.470    4.502
    221    C    -6.877    -2.194    9.931
    222    H    -5.951    -1.888    9.712
    223    O    -6.968    -2.599    11.301
    224    H    -6.742    -3.517    11.468
    225    C    -7.862    -1.116    9.524
    226    H    -7.658    -0.766    8.610
    227    O    -7.844    0.155    10.238
    228    P    -7.051    1.563    9.959
    229    O    -7.373    2.586    10.958
    230    O    -7.149    1.980    8.567
    231    O    -5.517    1.217    10.189
    232    C    -5.085    0.833    11.490
    233    H    -5.696    0.122    11.839
    234    H    -4.955    1.654    12.046
    235    C    -3.711    0.168    11.497
    236    H    -3.446    -0.177    12.398
    237    O    -3.715    -0.901    10.580
    238    C    -2.362    -1.167    10.143
    239    H    -2.081    -2.033    10.555
    240    N    -2.374    -1.235    8.662
    241    C    -3.408    -0.696    7.945
    242    H    -4.239    -0.243    8.268
    243    C    -1.297    -1.832    8.031
    244    O    -0.361    -2.327    8.650
    245    N    -1.333    -1.843    6.653
    246    H    -0.539    -2.283    6.166
    247    C    -2.331    -1.321    5.857
    248    O    -2.249    -1.384    4.635
    249    C    -3.418    -0.721    6.593
    250    H    -4.096    -0.372    5.946
    251    C    -1.512    -0.036    10.730
    252    H    -0.863    0.290    10.042
    253    O    -0.855    -0.432    11.937
    254    H    -0.554    -1.343    11.954
    255    C    -2.590    1.023    10.938
    256    H    -2.872    1.391    10.052
    257    O    -2.223    2.151    11.745
    258    P    -1.592    3.536    11.183
    259    O    -1.397    4.417    12.353
    260    O    -2.312    4.030    10.000
    261    O    -0.191    2.986    10.652
    262    C    0.581    2.228    11.583
    263    H    0.014    1.492    11.954
    264    H    1.018    2.854    12.229
    265    C    1.741    1.507    10.918
    266    H    2.297    0.927    11.513
    267    O    1.253    0.718    9.817
    268    C    2.315    0.439    8.882
    269    H    2.639    -0.494    9.037
    270    N    1.763    0.628    7.521
    271    C    0.631    1.363    7.314
    272    H    0.042    1.841    7.965
    273    C    0.143    1.535    6.074
    274    H    -0.652    2.022    5.712
    275    C    2.444    0.040    6.465
    276    O    3.466    -0.613    6.672
    277    N    1.958    0.210    5.208
    278    C    0.848    0.928    4.992
    279    N    0.404    1.081    3.749
    280    H    0.915    0.651    2.992
    281    H    -0.431    1.618    3.562
    282    C    3.406    1.424    9.313
    283    H    3.777    1.870    8.498
    284    O    4.425    0.797    10.101
    285    H    4.624    -0.110    9.859
    286    C    2.616    2.446    10.121
    287    H    2.039    2.990    9.512
    288    O    3.390    3.288    10.973
    289    P    3.677    4.820    10.572
    290    O    4.426    5.378    11.720
    291    O    2.471    5.489    10.039
    292    O    4.611    4.486    9.314
    293    C    5.677    3.569    9.561
    294    H    5.309    2.754    10.009
    295    H    6.426    4.054    10.013
    296    C    6.277    3.057    8.266
    297    H    7.038    2.413    8.344
    298    O    5.251    2.466    7.481
    299    C    5.571    2.615    6.080
    300    H    5.745    1.703    5.709
    301    N    4.404    3.272    5.442
    302    C    3.478    3.934    6.195
    303    H    3.439    4.083    7.183
    304    C    2.410    4.516    5.622
    305    H    1.635    5.034    5.984
    306    C    4.276    3.181    4.060
    307    O    5.125    2.590    3.398
    308    N    3.195    3.769    3.471
    309    C    2.282    4.419    4.204
    310    N    1.235    4.977    3.605
    311    H    1.148    4.899    2.602
    312    H    0.537    5.471    4.142
    313    C    6.874    3.416    6.062
    314    H    6.884    4.053    5.291
    315    O    8.031    2.575    6.105
    316    H    7.965    1.769    5.588
    317    C    6.656    4.199    7.348
    318    H    5.871    4.810    7.248
    319    O    7.769    4.933    7.856
    320    P    7.800    6.541    7.804
    321    O    8.895    6.987    8.695
    322    O    6.450    7.133    7.888
    323    O    8.227    6.585    6.269
    324    C    9.381    5.807    5.967
    325    H    9.216    4.860    6.243
    326    H    10.189    6.268    6.333
    327    C    9.627    5.733    4.475
    328    H    10.481    5.293    4.199
    329    O    8.525    5.041    3.863
    330    C    8.364    5.553    2.524
    331    H    8.558    4.800    1.895
    332    N    6.960    6.022    2.402
    333    C    6.233    6.339    3.514
    334    H    6.489    6.309    4.480
    335    C    4.963    6.769    3.411
    336    H    4.276    7.046    4.083
    337    C    6.409    6.132    1.129
    338    O    7.077    5.851    0.137
    339    N    5.121    6.567    1.014
    340    C    4.404    6.881    2.103
    341    N    3.150    7.305    1.959
    342    H    2.764    7.381    1.029
    343    H    2.592    7.547    2.765
    344    C    9.439    6.636    2.353
    345    H    9.089    7.391    1.798
    346    O    10.647    6.090    1.810
    347    H    10.521    5.412    1.142
    348    C    9.526    7.088    3.809
    349    H    8.669    7.523    4.085
    350    O    10.539    8.015    4.222
    351    P    10.313    9.580    4.590
    352    O    11.531    10.134    5.214
    353    O    8.988    9.860    5.157
    354    O    10.230    10.024    3.065
    355    C    11.302    9.533    2.266
    356    H    11.375    8.544    2.392
    357    H    12.116    10.089    2.436
    358    C    11.015    9.713    0.787
    359    H    11.756    9.437    0.175
    360    O    9.829    8.986    0.441
    361    C    9.212    9.641    -0.683
    362    H    9.339    9.042    -1.474
    363    N    7.781    9.822    -0.345
    364    C    7.372    9.818    0.955
    365    H    7.902    9.719    1.797
    366    C    6.075    9.963    1.270
    367    H    5.579    9.987    2.138
    368    C    6.873    9.978    -1.386
    369    O    7.260    9.989    -2.552
    370    N    5.555    10.127    -1.075
    371    C    5.146    10.122    0.200
    372    N    3.854    10.259    0.475
    373    H    3.201    10.365    -0.288
    374    H    3.527    10.258    1.431
    375    C    9.989    10.940    -0.912
    376    H    9.345    11.685    -1.086
    377    O    10.941    10.815    -1.973
    378    H    10.665    10.253    -2.701
    379    C    10.622    11.141    0.464
    380    H    9.924    11.442    1.114
    381    O    11.736    12.037    0.549
    382    P    11.608    13.543    1.117
    383    O    12.951    14.160    1.129
    384    O    10.745    13.618    2.308
    385    O    10.759    14.106    -0.111
    386    C    11.303    13.832    -1.400
    387    H    11.520    12.858    -1.462
    388    H    12.034    14.488    -1.591
    389    C    10.284    14.066    -2.498
    390    H    10.663    13.852    -3.398
    391    O    9.135    13.282    -2.287
    392    C    8.069    13.913    -3.016
    393    H    7.966    13.396    -3.866
    394    N    6.860    13.852    -2.167
    395    C    6.961    13.663    -0.816
    396    H    7.775    13.543    -0.248
    397    C    5.634    13.994    -2.786
    398    O    5.520    14.164    -3.997
    399    N    4.531    13.940    -1.960
    400    H    3.607    14.049    -2.401
    401    C    4.542    13.753    -0.594
    402    O    3.490    13.714    0.037
    403    C    5.864    13.613    -0.029
    404    H    5.784    13.486    0.960
    405    C    8.511    15.339    -3.351
    406    H    7.824    15.975    -2.999
    407    O    8.751    15.514    -4.753
    408    H    8.179    15.002    -5.329
    409    C    9.791    15.496    -2.543
    410    H    9.561    15.790    -1.615
    411    O    10.739    16.315    -3.235
    412    P    10.977    17.832    -2.754
    413    O    11.907    18.469    -3.714
    414    O    11.282    17.831    -1.304
    415    O    9.507    18.452    -2.962
    416    C    8.960    18.555    -4.281
    417    H    9.036    17.667    -4.735
    418    H    9.358    19.351    -4.737
    419    C    7.462    18.842    -4.242
    420    H    7.117    19.039    -5.160
    421    O    6.760    17.730    -3.715
    422    C    5.575    18.199    -3.040
    423    H    4.791    17.864    -3.562
    424    N    5.612    17.692    -1.654
    425    C    4.528    17.489    -0.829
    426    N    1.095    17.504    -0.302
    427    H    0.382    17.320    0.390
    428    H    0.774    17.808    -1.210
    429    N    3.229    17.671    -1.160
    430    C    2.407    17.390    -0.146
    431    N    2.833    16.966    1.087
    432    H    2.112    16.778    1.799
    433    C    4.153    16.772    1.448
    434    O    4.425    16.391    2.580
    435    C    5.037    17.067    0.378
    436    N    6.426    17.001    0.323
    437    C    6.695    17.378    -0.887
    438    H    7.686    17.362    -1.020
    439    C    5.609    19.718    -3.117
    440    H    5.342    20.087    -2.227
    441    O    4.807    20.219    -4.195
    442    H    4.013    19.712    -4.379
    443    C    7.084    20.012    -3.353
    444    H    7.581    19.938    -2.488
    445    O    7.240    21.247    -4.053
    446    P    7.791    22.513    -3.232
    447    O    7.910    23.653    -4.166
    448    O    8.960    22.071    -2.435
    449    O    6.560    22.775    -2.228
    450    C    6.728    23.539    -1.034
    451    H    6.936    24.486    -1.280
    452    H    7.364    23.061    -0.429
    453    C    5.429    23.623    -0.240
    454    H    5.600    24.010    0.666
    455    O    4.533    24.474    -0.946
    456    C    3.347    23.753    -1.325
    457    H    2.577    24.268    -0.949
    458    N    3.314    23.703    -2.805
    459    C    4.310    23.091    -3.513
    460    H    5.131    22.617    -3.195
    461    C    4.281    23.063    -4.857
    462    H    4.894    22.679    -5.547
    463    C    2.243    24.310    -3.447
    464    O    1.356    24.849    -2.791
    465    N    2.208    24.284    -4.809
    466    C    3.180    23.689    -5.511
    467    N    3.118    23.687    -6.840
    468    H    2.335    24.137    -7.293
    469    H    3.841    23.244    -7.389
    470    C    3.393    22.371    -0.664
    471    H    3.344    21.691    -1.395
    472    O    2.359    22.202    0.311
    473    H    1.547    22.680    0.128
    474    C    4.757    22.280    0.008
    475    H    5.273    21.566    -0.464
    476    O    4.603    22.112    1.425
    477    P    4.102    20.698    2.028
    478    O    4.586    20.592    3.424
    479    O    4.442    19.643    1.047
    480    O    2.492    20.863    2.061
    481    C    1.846    21.832    2.912
    482    H    2.127    22.750    2.632
    483    H    1.985    21.570    3.867
    484    C    0.319    21.844    2.748
    485    H    -0.103    22.409    3.457
    486    O    0.005    22.393    1.468
    487    C    -0.886    21.531    0.757
    488    H    -1.790    21.954    0.823
    489    N    -0.434    21.441    -0.645
    490    C    -0.333    21.656    -2.825
    491    N    0.894    21.127    -2.429
    492    C    0.764    21.022    -1.143
    493    H    1.605    20.639    -0.761
    494    N    -2.099    22.497    -4.110
    495    C    -2.800    22.634    -2.985
    496    H    -3.735    22.988    -2.950
    497    N    -2.403    22.338    -1.751
    498    C    -1.146    21.847    -1.747
    499    C    -0.850    22.010    -4.073
    500    N    -0.149    21.922    -5.200
    501    H    -0.573    22.225    -6.065
    502    H    0.791    21.554    -5.165
    503    C    -0.918    20.189    1.457
    504    H    -0.299    19.576    0.966
    505    O    -2.251    19.682    1.548
    506    H    -2.825    19.918    0.816
    507    C    -0.349    20.462    2.843
    508    H    0.354    19.772    3.018
    509    O    -1.423    20.507    3.792
    510    P    -2.261    19.178    4.182
    511    O    -2.748    19.337    5.571
    512    O    -1.441    17.997    3.827
    513    O    -3.537    19.220    3.193
    514    C    -4.877    19.028    3.680
    515    H    -5.077    19.728    4.366
    516    H    -4.995    18.070    3.940
    517    C    -5.923    19.257    2.586
    518    H    -6.823    18.953    2.897
    519    O    -5.975    20.665    2.307
    520    C    -5.789    20.878    0.902
    521    H    -6.698    20.942    0.490
    522    N    -5.045    22.161    0.695
    523    C    -4.214    22.651    1.674
    524    H    -4.013    22.278    2.580
    525    C    -5.198    22.841    -0.513
    526    O    -5.920    22.443    -1.419
    527    N    -4.472    24.006    -0.650
    528    H    -4.577    24.520    -1.536
    529    C    -3.617    24.555    0.281
    530    O    -3.016    25.596    0.036
    531    C    -3.513    23.797    1.503
    532    H    -2.878    24.261    2.121
    533    C    -5.088    19.615    0.376
    534    H    -4.106    19.701    0.546
    535    O    -5.374    19.393    -1.010
    536    H    -5.480    20.190    -1.535
    537    C    -5.657    18.514    1.280
    538    H    -4.945    17.829    1.434
    539    O    -6.874    17.989    0.718
    540    P    -6.911    16.647    -0.188
    541    O    -8.325    16.314    -0.472
    542    O    -6.043    15.621    0.428
    543    O    -6.234    17.110    -1.579
    544    C    -6.873    18.065    -2.441
    545    H    -6.946    18.939    -1.961
    546    H    -7.710    17.661    -2.810
    547    C    -6.016    18.370    -3.670
    548    H    -6.521    18.976    -4.284
    549    O    -4.777    19.014    -3.286
    550    C    -3.902    18.892    -4.406
    551    H    -3.968    19.753    -4.911
    552    N    -2.535    18.681    -3.900
    553    C    -0.348    18.609    -3.749
    554    N    -0.836    18.198    -2.508
    555    C    -2.125    18.265    -2.665
    556    H    -2.571    17.987    -1.815
    557    N    1.068    19.188    -5.522
    558    C    -0.016    19.441    -6.253
    559    H    0.012    19.758    -7.201
    560    N    -1.281    19.324    -5.874
    561    C    -1.375    18.901    -4.598
    562    C    0.944    18.767    -4.254
    563    N    2.036    18.519    -3.545
    564    H    2.940    18.652    -3.975
    565    H    1.939    18.202    -2.591
    566    C    -4.431    17.753    -5.289
    567    H    -3.705    17.071    -5.380
    568    O    -4.885    18.246    -6.557
    569    H    -4.401    19.003    -6.894
    570    C    -5.583    17.151    -4.474
    571    H    -5.224    16.459    -3.848
    572    O    -6.605    16.688    -5.373
    573    P    -6.647    15.149    -5.866
    574    O    -7.723    14.993    -6.870
    575    O    -6.657    14.292    -4.661
    576    O    -5.242    14.929    -6.635
    577    C    -4.959    15.603    -7.868
    578    H    -5.140    16.580    -7.754
    579    H    -5.422    15.125    -8.614
    580    C    -3.481    15.544    -8.253
    581    H    -3.366    15.975    -9.148
    582    O    -2.665    16.249    -7.280
    583    C    -1.359    15.637    -7.276
    584    H    -0.730    16.322    -7.643
    585    N    -1.036    15.277    -5.883
    586    C    0.042    14.774    -4.039
    587    N    -1.314    14.730    -3.722
    588    C    -1.887    15.030    -4.845
    589    H    -2.879    15.019    -4.718
    590    N    2.379    14.674    -3.906
    591    C    2.426    15.003    -5.198
    592    H    3.275    15.110    -5.715
    593    N    1.395    15.240    -6.004
    594    C    0.222    15.105    -5.351
    595    C    1.196    14.551    -3.284
    596    N    1.163    14.244    -1.990
    597    H    2.034    14.108    -1.497
    598    H    0.268    14.154    -1.531
    599    C    -1.392    14.429    -8.224
    600    H    -0.951    13.653    -7.773
    601    O    -0.819    14.737    -9.497
    602    H    -0.077    15.346    -9.471
    603    C    -2.886    14.152    -8.339
    604    H    -3.177    13.624    -7.541
    605    O    -3.162    13.575    -9.624
    606    P    -3.047    11.979    -9.840
    607    O    -3.413    11.675    -11.241
    608    O    -3.772    11.336    -8.722
    609    O    -1.473    11.674    -9.663
    610    C    -0.489    12.252    -10.533
    611    H    -0.592    13.247    -10.526
    612    H    -0.520    11.784    -11.416
    613    C    0.935    12.019    -10.036
    614    H    1.621    12.405    -10.653
    615    O    1.112    12.587    -8.724
    616    C    2.205    11.888    -8.092
    617    H    2.996    12.497    -8.143