!*** FMO 5.2 (Gamess) INPUT generated by Facio 21.1.1.32 ***
 $CONTRL RUNTYP=OPTFMO NPRINT=-5 ISPHER=-1 MAXIT=50 $END
 $SYSTEM MWORDS=29 $END
 $GDDI NGROUP=1 $END
 $INTGRL NINTIC=-9000000 $END
 $SCF DIRSCF=.FALSE. NPUNCH=0 $END
!*** NumCPU : 2  MemPerNode : 512MB
 $FMOPRP
    NAODIR=210
    NGRFMO(1)=1, 1, 0, 0, 0,   0, 0, 0, 0, 0
    NPRINT=9
 $END
 $FMO
      SCFTYP(1)=RHF
      MODGRD=10
      MODMUL=0
      MAXCAO=5
      MAXBND=34
      NLAYER=1
      NFRAG=32
      ICHARG(1)=-1, -1, -1, -1, -1, -1, -1, -1, -1, -1, 
-1, -1, -1, -1, -1, -1, -1, -1, -1, -1, 
-1, -1, -1, -1, -1, -1, -1, -1, -1, -1, 
-1, 0
      FRGNAM(1)=Frag1, Frag2, Frag3, Frag4, Frag5, Frag6, Frag7, Frag8, Frag9, Frag10, Frag11, Frag12, Frag13, Frag14, Frag15, Frag16, Frag17, Frag18, Frag19, Frag20, Frag21, Frag22, Frag23, Frag24, Frag25, Frag26, Frag27, Frag28, Frag29, Frag30, Frag31, Frag32
      indat(1)=0
               1   -36   0
               37   -69   0
               70   -103   0
               104   -134   0
               135   -167   0
               168   -201   0
               202   -231   0
               232   -261   0
               262   -292   0
               293   -323   0
               324   -354   0
               355   -385   0
               386   -415   0
               416   -449   0
               450   -480   0
               481   -513   0
               514   -543   0
               544   -576   0
               577   -609   0
               610   -643   0
               644   -677   0
               678   -710   0
               711   -740   0
               741   -774   0
               775   -807   0
               808   -840   0
               841   -871   0
               872   -902   0
               903   -936   0
               937   -966   0
               967   -996   0
               997   -1024   0
 $END

 $FMOBND
   -37   36       3-21G    MINI
   -70   69       3-21G    MINI
   -104   103       3-21G    MINI
   -135   134       3-21G    MINI
   -168   167       3-21G    MINI
   -202   201       3-21G    MINI
   -232   231       3-21G    MINI
   -262   261       3-21G    MINI
   -293   292       3-21G    MINI
   -324   323       3-21G    MINI
   -355   354       3-21G    MINI
   -386   385       3-21G    MINI
   -416   415       3-21G    MINI
   -450   449       3-21G    MINI
   -481   480       3-21G    MINI
   -514   513       3-21G    MINI
   -544   543       3-21G    MINI
   -577   576       3-21G    MINI
   -610   609       3-21G    MINI
   -644   643       3-21G    MINI
   -678   677       3-21G    MINI
   -711   710       3-21G    MINI
   -741   740       3-21G    MINI
   -775   774       3-21G    MINI
   -808   807       3-21G    MINI
   -841   840       3-21G    MINI
   -872   871       3-21G    MINI
   -903   902       3-21G    MINI
   -937   936       3-21G    MINI
   -967   966       3-21G    MINI
   -997   996       3-21G    MINI
 $END
 $FMOHYB
 3-21G        9   5
   1 0  -0.070459   0.164841   0.000000   0.000000   0.502116
         0.466939   0.000000   0.000000   0.418036
   0 1  -0.070465   0.164857   0.473392   0.000000  -0.167359
         0.466967   0.394111   0.000000  -0.139327
   0 1  -0.070465   0.164857  -0.236695  -0.409969  -0.167359
         0.466967  -0.197055  -0.341311  -0.139327
   0 1  -0.070465   0.164857  -0.236695   0.409969  -0.167359
         0.466967  -0.197055   0.341311  -0.139327
   0 1   1.006716   0.074826   0.000000   0.000000   0.000000
        -0.143830   0.000000   0.000000  -0.000003
 MINI         5   5
   1 0  -0.104883   0.308874   0.000000   0.000000   0.521806
   0 1  -0.104883   0.308874   0.491961   0.000000  -0.173934
   0 1  -0.104883   0.308876  -0.245980  -0.426050  -0.173933
   0 1  -0.104883   0.308876  -0.245980   0.426050  -0.173933
   0 1   0.988209   0.063992   0.000000   0.000000   0.000000
 $END

 $DATA
 FMO calculation : XXNAMEXX
 C1 
 C.1-1    6
      N21 3
   
 O.1-1    8
      N21 3
   
 N.1-1    7
      N21 3
   
 H.1-1    1
      N21 3
   
 P.1-1   15
      N21 3
   
 $END
 $FMOXYZ
    1    H    7.886    -20.939    -0.341
    2    O    7.181    -20.920    -1.050
    3    C    7.656    -21.634    -2.198
    4    H    7.773    -22.597    -1.957
    5    H    8.441    -21.148    -2.582
    6    C    6.624    -21.645    -3.326
    7    H    7.027    -22.054    -4.145
    8    O    5.470    -22.376    -2.967
    9    C    4.421    -21.968    -3.870
    10    H    4.426    -22.623    -4.626
    11    N    3.151    -21.989    -3.112
    12    C    1.886    -22.086    -3.647
    13    N    -0.203    -22.403    -6.400
    14    H    -1.172    -22.467    -6.677
    15    H    0.481    -22.441    -7.142
    16    N    1.585    -22.202    -4.961
    17    C    0.268    -22.274    -5.168
    18    N    -0.667    -22.233    -4.166
    19    H    -1.658    -22.296    -4.440
    20    C    -0.387    -22.114    -2.818
    21    O    -1.304    -22.084    -2.002
    22    C    1.014    -22.037    -2.581
    23    N    1.712    -21.914    -1.383
    24    C    2.953    -21.892    -1.763
    25    H    3.539    -21.805    -0.957
    26    C    4.793    -20.584    -4.408
    27    H    4.095    -19.935    -4.107
    28    O    4.949    -20.582    -5.832
    29    H    4.376    -21.191    -6.303
    30    C    6.101    -20.265    -3.705
    31    H    5.897    -19.754    -2.870
    32    O    7.050    -19.733    -4.641
    33    P    7.252    -18.248    -5.217
    34    O    8.312    -18.032    -6.237
    35    O    7.387    -17.745    -3.858
    36    O    5.832    -17.862    -5.836
    37    C    5.461    -18.288    -7.147
    38    H    5.525    -19.285    -7.196
    39    H    5.971    -17.752    -7.820
    40    C    3.998    -17.985    -7.450
    41    H    3.797    -18.229    -8.399
    42    O    3.129    -18.740    -6.576
    43    C    1.842    -18.095    -6.667
    44    H    1.366    -18.510    -7.442
    45    N    1.131    -18.318    -5.392
    46    C    -0.438    -18.693    -3.901
    47    N    0.743    -18.519    -3.185
    48    C    1.622    -18.302    -4.116
    49    H    2.517    -18.161    -3.692
    50    N    -2.682    -19.064    -4.469
    51    C    -2.339    -18.926    -5.750
    52    H    -2.984    -18.997    -6.511
    53    N    -1.124    -18.678    -6.234
    54    C    -0.214    -18.572    -5.243
    55    C    -1.752    -18.953    -3.506
    56    N    -2.109    -19.097    -2.232
    57    H    -3.076    -19.288    -2.013
    58    H    -1.404    -19.012    -1.513
    59    C    2.106    -16.621    -6.977
    60    H    1.899    -16.099    -6.150
    61    O    1.368    -16.178    -8.120
    62    H    0.517    -16.605    -8.243
    63    C    3.596    -16.533    -7.258
    64    H    4.050    -16.175    -6.442
    65    O    3.835    -15.837    -8.492
    66    P    3.559    -14.263    -8.698
    67    O    4.124    -13.767    -9.975
    68    O    4.048    -13.759    -7.410
    69    O    1.959    -14.109    -8.759
    70    C    1.227    -14.490    -9.928
    71    H    1.433    -15.444    -10.144
    72    H    1.374    -13.805    -10.642
    73    C    -0.276    -14.471    -9.688
    74    H    -0.800    -14.751    -10.492
    75    O    -0.596    -15.339    -8.599
    76    C    -1.952    -15.066    -8.182
    77    H    -2.567    -15.705    -8.644
    78    N    -1.998    -15.190    -6.710
    79    C    -3.129    -15.158    -5.929
    80    N    -6.577    -14.893    -5.632
    81    H    -7.331    -14.879    -4.960
    82    H    -6.838    -14.804    -6.604
    83    N    -4.400    -15.018    -6.374
    84    C    -5.283    -15.016    -5.376
    85    N    -4.944    -15.147    -4.054
    86    H    -5.710    -15.139    -3.365
    87    C    -3.657    -15.289    -3.572
    88    O    -3.465    -15.394    -2.364
    89    C    -2.701    -15.290    -4.626
    90    N    -1.313    -15.408    -4.578
    91    C    -0.967    -15.342    -5.827
    92    H    0.028    -15.419    -5.894
    93    C    -2.182    -13.657    -8.743
    94    H    -2.516    -13.091    -7.989
    95    O    -3.058    -13.668    -9.875
    96    H    -3.728    -14.356    -9.863
    97    C    -0.816    -13.150    -9.174
    98    H    -0.277    -12.864    -8.382
    99    O    -0.918    -12.131    -10.184
    100    P    -0.777    -10.563    -9.793
    101    O    -0.890    -9.746    -11.029
    102    O    0.410    -10.370    -8.916
    103    O    -2.087    -10.260    -8.898
    104    C    -3.378    -10.293    -9.514
    105    H    -3.508    -11.183    -9.950
    106    H    -3.491    -9.474    -10.077
    107    C    -4.513    -10.207    -8.502
    108    H    -5.397    -10.152    -8.966
    109    O    -4.506    -11.356    -7.647
    110    C    -5.195    -10.989    -6.438
    111    H    -6.090    -11.434    -6.474
    112    N    -4.375    -11.452    -5.300
    113    C    -3.027    -11.619    -5.425
    114    H    -2.433    -11.509    -6.222
    115    C    -2.280    -11.989    -4.371
    116    H    -1.303    -12.163    -4.249
    117    C    -5.019    -11.662    -4.091
    118    O    -6.236    -11.521    -4.006
    119    N    -4.271    -12.034    -3.019
    120    C    -2.947    -12.197    -3.128
    121    N    -2.239    -12.528    -2.054
    122    H    -2.717    -12.650    -1.173
    123    H    -1.239    -12.656    -2.115
    124    C    -5.391    -9.470    -6.469
    125    H    -5.098    -9.093    -5.590
    126    O    -6.735    -9.112    -6.809
    127    H    -7.409    -9.711    -6.481
    128    C    -4.413    -9.031    -7.547
    129    H    -3.489    -8.998    -7.167
    130    O    -4.853    -7.813    -8.173
    131    P    -4.467    -6.360    -7.583
    132    O    -4.971    -5.327    -8.519
    133    O    -3.030    -6.362    -7.211
    134    O    -5.332    -6.257    -6.229
    135    C    -6.762    -6.219    -6.300
    136    H    -7.088    -7.055    -6.742
    137    H    -7.045    -5.342    -6.688
    138    C    -7.401    -6.246    -4.916
    139    H    -8.393    -6.141    -4.982
    140    O    -7.099    -7.507    -4.227
    141    C    -7.291    -7.241    -2.823
    142    H    -8.162    -7.662    -2.570
    143    N    -6.150    -7.847    -2.105
    144    C    -4.897    -8.778    -0.561
    145    N    -4.113    -8.717    -1.711
    146    C    -4.905    -8.159    -2.577
    147    H    -4.422    -8.068    -3.448
    148    N    -5.639    -9.169    1.625
    149    C    -6.809    -8.632    1.282
    150    H    -7.583    -8.535    1.908
    151    N    -7.151    -8.145    0.092
    152    C    -6.136    -8.251    -0.788
    153    C    -4.650    -9.263    0.726
    154    N    -3.490    -9.804    1.088
    155    H    -3.378    -10.134    2.036
    156    H    -2.748    -9.872    0.406
    157    C    -7.405    -5.720    -2.660
    158    H    -6.790    -5.438    -1.924
    159    O    -8.757    -5.307    -2.442
    160    H    -9.295    -5.927    -1.944
    161    C    -6.880    -5.181    -3.976
    162    H    -5.880    -5.206    -3.977
    163    O    -7.532    -3.960    -4.312
    164    P    -7.077    -2.546    -3.719
    165    O    -7.981    -1.491    -4.203
    166    O    -5.675    -2.630    -4.117
    167    O    -7.225    -2.707    -2.135
    168    C    -8.512    -2.751    -1.520
    169    H    -9.098    -3.376    -2.036
    170    H    -8.836    -1.816    -1.376
    171    C    -8.451    -3.353    -0.122
    172    H    -9.357    -3.572    0.241
    173    O    -7.673    -4.537    -0.165
    174    C    -7.251    -4.840    1.179
    175    H    -7.850    -5.561    1.529
    176    N    -5.837    -5.266    1.112
    177    C    -5.093    -5.773    2.153
    178    N    -4.816    -6.711    5.484
    179    H    -4.176    -7.093    6.166
    180    H    -5.745    -6.489    5.813
    181    N    -5.522    -5.960    3.423
    182    C    -4.568    -6.470    4.205
    183    N    -3.302    -6.769    3.771
    184    H    -2.644    -7.158    4.461
    185    C    -2.839    -6.589    2.480
    186    O    -1.687    -6.901    2.193
    187    C    -3.846    -6.045    1.636
    188    N    -3.794    -5.713    0.284
    189    C    -4.988    -5.264    0.044
    190    H    -5.048    -4.995    -0.917
    191    C    -7.504    -3.552    1.972
    192    H    -6.672    -3.331    2.480
    193    O    -8.653    -3.662    2.819
    194    H    -8.808    -4.538    3.180
    195    C    -7.719    -2.504    0.896
    196    H    -6.840    -2.221    0.512
    197    O    -8.623    -1.504    1.364
    198    P    -8.149    -0.171    2.117
    199    O    -9.298    0.718    2.371
    200    O    -7.091    0.172    1.169
    201    O    -7.510    -0.636    3.511
    202    C    -8.334    -1.021    4.613
    203    H    -8.946    -1.756    4.321
    204    H    -8.744    -0.202    5.015
    205    C    -7.510    -1.632    5.741
    206    H    -8.070    -1.902    6.525
    207    O    -6.836    -2.763    5.249
    208    C    -5.622    -2.958    6.000
    209    H    -5.720    -3.807    6.520
    210    N    -4.502    -2.999    5.031
    211    C    -4.646    -2.478    3.773
    212    H    -5.443    -2.046    3.350
    213    C    -3.310    -3.567    5.443
    214    O    -3.156    -4.038    6.563
    215    N    -2.291    -3.567    4.514
    216    H    -1.394    -3.982    4.803
    217    C    -2.352    -3.065    3.231
    218    O    -1.374    -3.120    2.494
    219    C    -3.630    -2.493    2.883
    220    H    -3.589    -2.153    1.943
    221    C    -5.574    -1.784    6.971
    222    H    -4.628    -1.468    7.045
    223    O    -6.158    -2.106    8.238
    224    H    -6.025    -3.012    8.527
    225    C    -6.393    -0.729    6.249
    226    H    -5.885    -0.368    5.467
    227    O    -6.844    0.293    7.155
    228    P    -6.046    1.701    7.212
    229    O    -6.766    2.658    8.090
    230    O    -5.744    2.097    5.813
    231    O    -4.641    1.352    7.930
    232    C    -4.632    0.936    9.301
    233    H    -5.254    0.161    9.410
    234    H    -4.773    1.736    9.885
    235    C    -3.281    0.389    9.746
    236    H    -3.288    0.079    10.697
    237    O    -2.933    -0.694    8.913
    238    C    -1.498    -0.840    8.898
    239    H    -1.276    -1.663    9.420
    240    N    -1.081    -0.936    7.480
    241    C    -1.909    -0.509    6.477
    242    H    -2.831    -0.125    6.532
    243    C    0.175    -1.446    7.207
    244    O    0.933    -1.840    8.088
    245    N    0.533    -1.492    5.878
    246    H    1.465    -1.869    5.655
    247    C    -0.236    -1.081    4.809
    248    O    0.194    -1.164    3.664
    249    C    -1.533    -0.566    5.180
    250    H    -2.025    -0.296    4.352
    251    C    -0.958    0.385    9.644
    252    H    -0.190    0.759    9.125
    253    O    -0.628    0.079    11.000
    254    H    -0.283    -0.805    11.143
    255    C    -2.127    1.367    9.579
    256    H    -2.178    1.778    8.669
    257    O    -2.050    2.434    10.565
    258    P    -1.518    3.917    10.104
    259    O    -1.645    4.881    11.250
    260    O    -1.973    4.467    8.768
    261    O    0.078    3.685    9.916
    262    C    0.813    3.152    11.027
    263    H    0.351    2.330    11.359
    264    H    0.991    3.886    11.682
    265    C    2.196    2.666    10.627
    266    H    2.705    2.241    11.375
    267    O    2.063    1.715    9.549
    268    C    3.299    1.598    8.823
    269    H    3.764    0.760    9.108
    270    N    2.971    1.599    7.380
    271    C    1.776    2.084    6.932
    272    H    1.004    2.470    7.437
    273    C    1.488    2.091    5.619
    274    H    0.692    2.392    5.094
    275    C    3.922    1.101    6.501
    276    O    4.995    0.674    6.925
    277    N    3.639    1.105    5.172
    278    C    2.471    1.578    4.720
    279    N    2.228    1.574    3.415
    280    H    2.933    1.213    2.788
    281    H    1.354    1.926    3.052
    282    C    4.085    2.807    9.343
    283    H    4.484    3.262    8.546
    284    O    5.060    2.428    10.320
    285    H    5.434    1.552    10.201
    286    C    3.062    3.736    9.984
    287    H    2.528    4.210    9.284
    288    O    3.681    4.651    10.910
    289    P    3.985    6.172    10.434
    290    O    4.628    6.891    11.566
    291    O    2.817    6.835    9.770
    292    O    5.113    6.000    9.286
    293    C    6.373    5.397    9.609
    294    H    6.208    4.539    10.096
    295    H    6.958    6.080    10.047
    296    C    7.131    4.988    8.357
    297    H    7.996    4.520    8.539
    298    O    6.301    4.139    7.573
    299    C    6.651    4.281    6.183
    300    H    7.033    3.411    5.870
    301    N    5.412    4.653    5.460
    302    C    4.334    5.143    6.137
    303    H    4.215    5.326    7.113
    304    C    3.201    5.464    5.490
    305    H    2.319    5.827    5.791
    306    C    5.378    4.474    4.081
    307    O    6.363    4.042    3.489
    308    N    4.231    4.798    3.417
    309    C    3.168    5.277    4.076
    310    N    2.061    5.578    3.404
    311    H    2.044    5.438    2.404
    312    H    1.249    5.940    3.883
    313    C    7.756    5.338    6.185
    314    H    7.657    5.916    5.375
    315    O    9.057    4.758    6.306
    316    H    9.169    3.916    5.858
    317    C    7.396    6.148    7.416
    318    H    6.543    6.650    7.270
    319    O    8.507    6.926    7.866
    320    P    8.663    8.464    7.435
    321    O    9.814    9.042    8.158
    322    O    7.312    9.044    7.574
    323    O    9.030    8.375    5.877
    324    C    10.297    7.848    5.473
    325    H    10.380    6.909    5.807
    326    H    11.014    8.499    5.721
    327    C    10.406    7.723    3.962
    328    H    11.300    7.383    3.671
    329    O    9.386    6.830    3.480
    330    C    9.039    7.230    2.141
    331    H    9.299    6.481    1.532
    332    N    7.579    7.493    2.129
    333    C    6.912    7.759    3.290
    334    H    7.250    7.825    4.229
    335    C    5.587    7.984    3.285
    336    H    4.925    8.191    4.005
    337    C    6.916    7.446    0.908
    338    O    7.535    7.215    -0.128
    339    N    5.572    7.674    0.895
    340    C    4.909    7.936    2.031
    341    N    3.597    8.155    1.986
    342    H    3.126    8.119    1.093
    343    H    3.078    8.354    2.829
    344    C    9.909    8.451    1.829
    345    H    9.378    9.107    1.293
    346    O    11.142    8.088    1.200
    347    H    11.084    7.347    0.592
    348    C    10.128    9.014    3.222
    349    H    9.278    9.411    3.569
    350    O    11.278    9.860    3.254
    351    P    11.118    11.450    3.077
    352    O    12.435    12.086    3.279
    353    O    9.961    11.820    3.918
    354    O    10.703    11.600    1.533
    355    C    11.619    11.240    0.494
    356    H    11.879    10.281    0.607
    357    H    12.349    11.922    0.453
    358    C    10.961    11.300    -0.880
    359    H    11.587    11.042    -1.616
    360    O    9.819    10.432    -0.913
    361    C    8.883    10.944    -1.877
    362    H    8.889    10.313    -2.653
    363    N    7.565    11.012    -1.206
    364    C    7.485    11.051    0.154
    365    H    8.210    11.059    0.843
    366    C    6.294    11.086    0.772
    367    H    6.022    11.117    1.734
    368    C    6.424    11.009    -1.997
    369    O    6.516    10.984    -3.223
    370    N    5.211    11.044    -1.378
    371    C    5.123    11.081    -0.042
    372    N    3.929    11.106    0.536
    373    H    3.104    11.097    -0.047
    374    H    3.844    11.134    1.542
    375    C    9.430    12.298    -2.333
    376    H    8.677    12.955    -2.350
    377    O    10.106    12.209    -3.590
    378    H    9.739    11.568    -4.203
    379    C    10.389    12.671    -1.207
    380    H    9.870    13.004    -0.419
    381    O    11.392    13.605    -1.641
    382    P    11.177    15.183    -1.363
    383    O    12.348    15.937    -1.885
    384    O    10.734    15.448    0.036
    385    O    9.927    15.515    -2.326
    386    C    10.050    15.265    -3.731
    387    H    10.363    14.325    -3.868
    388    H    10.582    16.002    -4.147
    389    C    8.707    15.322    -4.442
    390    H    8.807    15.083    -5.408
    391    O    7.793    14.433    -3.841
    392    C    6.476    14.890    -4.192
    393    H    6.164    14.305    -4.941
    394    N    5.627    14.760    -2.989
    395    C    6.185    14.681    -1.742
    396    H    7.148    14.690    -1.472
    397    C    4.257    14.725    -3.169
    398    O    3.734    14.793    -4.278
    399    N    3.499    14.613    -2.023
    400    H    2.475    14.590    -2.136
    401    C    3.978    14.528    -0.733
    402    O    3.203    14.422    0.214
    403    C    5.419    14.571    -0.634
    404    H    5.681    14.508    0.329
    405    C    6.605    16.327    -4.703
    406    H    5.996    16.907    -4.162
    407    O    6.347    16.422    -6.109
    408    H    5.690    15.807    -6.443
    409    C    8.050    16.689    -4.382
    410    H    8.104    17.036    -3.446
    411    O    8.586    17.594    -5.362
    412    P    8.704    19.171    -5.025
    413    O    9.130    19.885    -6.256
    414    O    9.483    19.375    -3.774
    415    O    7.180    19.608    -4.717
    416    C    6.195    19.575    -5.758
    417    H    6.225    18.681    -6.206
    418    H    6.298    20.389    -6.329
    419    C    4.778    19.676    -5.199
    420    H    4.110    19.767    -5.938
    421    O    4.471    18.519    -4.439
    422    C    3.539    18.874    -3.397
    423    H    2.680    18.405    -3.601
    424    N    4.126    18.469    -2.104
    425    C    3.436    18.184    -0.946
    426    N    0.435    17.792    0.758
    427    H    0.041    17.564    1.660
    428    H    -0.221    17.991    0.016
    429    N    2.092    18.174    -0.801
    430    C    1.722    17.858    0.443
    431    N    2.605    17.579    1.454
    432    H    2.211    17.349    2.377
    433    C    3.981    17.582    1.331
    434    O    4.680    17.318    2.301
    435    C    4.388    17.914    0.012
    436    N    5.666    18.024    -0.528
    437    C    5.441    18.349    -1.761
    438    H    6.315    18.451    -2.235
    439    C    3.323    20.376    -3.511
    440    H    3.324    20.767    -2.591
    441    O    2.132    20.691    -4.244
    442    H    1.408    20.071    -4.127
    443    C    4.570    20.845    -4.251
    444    H    5.340    20.889    -3.615
    445    O    4.324    22.070    -4.949
    446    P    4.904    23.447    -4.347
    447    O    4.527    24.550    -5.255
    448    O    6.328    23.227    -4.009
    449    O    4.083    23.604    -2.969
    450    C    4.541    24.455    -1.918
    451    H    4.502    25.405    -2.228
    452    H    5.415    24.109    -1.576
    453    C    3.608    24.404    -0.712
    454    H    4.027    24.862    0.072
    455    O    2.404    25.082    -1.056
    456    C    1.283    24.183    -0.990
    457    H    0.624    24.606    -0.368
    458    N    0.744    24.044    -2.363
    459    C    1.512    23.539    -3.375
    460    H    2.454    23.204    -3.365
    461    C    1.022    23.430    -4.623
    462    H    1.406    23.097    -5.484
    463    C    -0.562    24.458    -2.589
    464    O    -1.237    24.904    -1.665
    465    N    -1.065    24.350    -3.851
    466    C    -0.319    23.858    -4.848
    467    N    -0.839    23.772    -6.070
    468    H    -1.789    24.081    -6.219
    469    H    -0.295    23.404    -6.837
    470    C    1.764    22.860    -0.382
    471    H    1.566    22.139    -1.046
    472    O    1.171    22.604    0.895
    473    H    0.284    22.954    1.007
    474    C    3.273    22.998    -0.236
    475    H    3.692    22.336    -0.857
    476    O    3.652    22.886    1.143
    477    P    3.591    21.461    1.903
    478    O    4.538    21.511    3.039
    479    O    3.718    20.403    0.879
    480    O    2.086    21.418    2.497
    481    C    1.644    22.352    3.502
    482    H    1.677    23.277    3.124
    483    H    2.141    22.175    4.352
    484    C    0.170    22.157    3.884
    485    H    -0.054    22.711    4.685
    486    O    -0.645    22.573    2.788
    487    C    -1.593    21.557    2.454
    488    H    -2.469    21.864    2.827
    489    N    -1.647    21.432    0.985
    490    C    -2.338    21.510    -1.095
    491    N    -0.988    21.170    -1.147
    492    C    -0.648    21.137    0.104
    493    H    0.319    20.891    0.172
    494    N    -4.541    22.029    -1.691
    495    C    -4.821    22.150    -0.394
    496    H    -5.727    22.382    -0.039
    497    N    -3.984    21.992    0.627
    498    C    -2.746    21.667    0.197
    499    C    -3.301    21.709    -2.087
    500    N    -3.028    21.636    -3.387
    501    H    -3.764    21.824    -4.053
    502    H    -2.091    21.394    -3.678
    503    C    -1.187    20.273    3.145
    504    H    -0.695    19.712    2.479
    505    O    -2.318    19.606    3.710
    506    H    -3.138    19.716    3.223
    507    C    -0.218    20.711    4.237
    508    H    0.593    20.130    4.167
    509    O    -0.896    20.694    5.503
    510    P    -1.358    19.302    6.191
    511    O    -1.358    19.491    7.661
    512    O    -0.557    18.204    5.597
    513    O    -2.892    19.120    5.713
    514    C    -3.940    18.798    6.645
    515    H    -3.984    19.511    7.345
    516    H    -3.828    17.851    6.947
    517    C    -5.319    18.827    5.983
    518    H    -6.008    18.434    6.592
    519    O    -5.664    20.194    5.708
    520    C    -6.005    20.331    4.323
    521    H    -6.999    20.248    4.255
    522    N    -5.565    21.679    3.844
    523    C    -4.525    22.332    4.461
    524    H    -3.974    22.049    5.246
    525    C    -6.218    22.252    2.752
    526    O    -7.144    21.707    2.165
    527    N    -5.754    23.486    2.348
    528    H    -6.228    23.922    1.545
    529    C    -4.717    24.198    2.911
    530    O    -4.389    25.288    2.451
    531    C    -4.093    23.543    4.033
    532    H    -3.355    24.123    4.379
    533    C    -5.353    19.138    3.607
    534    H    -4.397    19.361    3.418
    535    O    -6.069    18.782    2.417
    536    H    -6.464    19.519    1.946
    537    C    -5.408    18.043    4.680
    538    H    -4.593    17.471    4.588
    539    O    -6.664    17.349    4.600
    540    P    -6.808    15.948    3.807
    541    O    -8.168    15.422    4.062
    542    O    -5.628    15.109    4.113
    543    O    -6.724    16.394    2.256
    544    C    -7.755    17.197    1.657
    545    H    -7.780    18.087    2.112
    546    H    -8.601    16.666    1.621
    547    C    -7.436    17.517    0.197
    548    H    -8.202    18.004    -0.222
    549    O    -6.244    18.331    0.087
    550    C    -5.813    18.224    -1.269
    551    H    -6.178    19.026    -1.743
    552    N    -4.340    18.224    -1.279
    553    C    -2.254    18.437    -1.919
    554    N    -2.212    18.072    -0.573
    555    C    -3.468    17.965    -0.260
    556    H    -3.543    17.704    0.703
    557    N    -1.649    19.039    -4.099
    558    C    -2.944    19.095    -4.402
    559    H    -3.296    19.334    -5.307
    560    N    -3.965    18.853    -3.591
    561    C    -3.544    18.528    -2.353
    562    C    -1.258    18.712    -2.858
    563    N    0.037    18.662    -2.580
    564    H    0.703    18.872    -3.310
    565    H    0.328    18.415    -1.645
    566    C    -6.445    16.960    -1.867
    567    H    -5.710    16.365    -2.193
    568    O    -7.384    17.283    -2.901
    569    H    -7.163    18.059    -3.421
    570    C    -7.123    16.301    -0.660
    571    H    -6.459    15.727    -0.181
    572    O    -8.323    15.645    -1.084
    573    P    -8.317    14.073    -1.434
    574    O    -9.660    13.689    -1.923
    575    O    -7.736    13.406    -0.254
    576    O    -7.276    13.957    -2.662
    577    C    -7.579    14.557    -3.926
    578    H    -7.836    15.512    -3.780
    579    H    -8.220    13.970    -4.420
    580    C    -6.365    14.638    -4.850
    581    H    -6.654    14.988    -5.741
    582    O    -5.356    15.525    -4.299
    583    C    -4.070    15.075    -4.774
    584    H    -3.734    15.790    -5.387
    585    N    -3.196    14.895    -3.600
    586    C    -1.441    14.707    -2.296
    587    N    -2.555    14.534    -1.477
    588    C    -3.546    14.652    -2.303
    589    H    -4.403    14.536    -1.802
    590    N    0.761    14.898    -3.074
    591    C    0.268    15.102    -4.297
    592    H    0.833    15.257    -5.107
    593    N    -1.014    15.135    -4.650
    594    C    -1.820    14.927    -3.588
    595    C    -0.069    14.697    -2.037
    596    N    0.435    14.517    -0.819
    597    H    1.437    14.535    -0.696
    598    H    -0.196    14.367    -0.045
    599    C    -4.281    13.784    -5.580
    600    H    -3.593    13.113    -5.304
    601    O    -4.282    14.032    -6.988
    602    H    -3.682    14.723    -7.278
    603    C    -5.647    13.325    -5.086
    604    H    -5.530    12.856    -4.211
    605    O    -6.331    12.601    -6.116
    606    P    -6.106    11.016    -6.290
    607    O    -6.966    10.527    -7.386
    608    O    -6.245    10.486    -4.923
    609    O    -4.569    10.888    -6.749
    610    C    -4.112    11.482    -7.968
    611    H    -4.345    12.454    -7.964
    612    H    -4.427    10.928    -8.738
    613    C    -2.592    11.453    -8.071
    614    H    -2.289    11.839    -8.942
    615    O    -1.991    12.197    -6.994
    616    C    -0.652    11.691    -6.826
    617    H    -0.041    12.366    -7.239