!*** FMO 5.2 (Gamess) INPUT generated by Facio 21.1.1.32 ***
 $CONTRL RUNTYP=OPTFMO NPRINT=-5 ISPHER=-1 MAXIT=50 $END
 $SYSTEM MWORDS=29 $END
 $GDDI NGROUP=1 $END
 $INTGRL NINTIC=-9000000 $END
 $SCF DIRSCF=.FALSE. NPUNCH=0 $END
!*** NumCPU : 2  MemPerNode : 512MB
 $FMOPRP
    NAODIR=210
    NGRFMO(1)=1, 1, 0, 0, 0,   0, 0, 0, 0, 0
    NPRINT=9
 $END
 $FMO
      SCFTYP(1)=RHF
      MODGRD=10
      MODMUL=0
      MAXCAO=5
      MAXBND=34
      NLAYER=1
      NFRAG=32
      ICHARG(1)=-1, -1, -1, -1, -1, -1, -1, -1, -1, -1, 
-1, -1, -1, -1, -1, -1, -1, -1, -1, -1, 
-1, -1, -1, -1, -1, -1, -1, -1, -1, -1, 
-1, 0
      FRGNAM(1)=Frag1, Frag2, Frag3, Frag4, Frag5, Frag6, Frag7, Frag8, Frag9, Frag10, Frag11, Frag12, Frag13, Frag14, Frag15, Frag16, Frag17, Frag18, Frag19, Frag20, Frag21, Frag22, Frag23, Frag24, Frag25, Frag26, Frag27, Frag28, Frag29, Frag30, Frag31, Frag32
      indat(1)=0
               1   -36   0
               37   -69   0
               70   -103   0
               104   -134   0
               135   -167   0
               168   -201   0
               202   -231   0
               232   -261   0
               262   -292   0
               293   -323   0
               324   -354   0
               355   -385   0
               386   -415   0
               416   -449   0
               450   -480   0
               481   -513   0
               514   -543   0
               544   -576   0
               577   -609   0
               610   -643   0
               644   -677   0
               678   -710   0
               711   -740   0
               741   -774   0
               775   -807   0
               808   -840   0
               841   -871   0
               872   -902   0
               903   -936   0
               937   -966   0
               967   -996   0
               997   -1024   0
 $END

 $FMOBND
   -37   36       3-21G    MINI
   -70   69       3-21G    MINI
   -104   103       3-21G    MINI
   -135   134       3-21G    MINI
   -168   167       3-21G    MINI
   -202   201       3-21G    MINI
   -232   231       3-21G    MINI
   -262   261       3-21G    MINI
   -293   292       3-21G    MINI
   -324   323       3-21G    MINI
   -355   354       3-21G    MINI
   -386   385       3-21G    MINI
   -416   415       3-21G    MINI
   -450   449       3-21G    MINI
   -481   480       3-21G    MINI
   -514   513       3-21G    MINI
   -544   543       3-21G    MINI
   -577   576       3-21G    MINI
   -610   609       3-21G    MINI
   -644   643       3-21G    MINI
   -678   677       3-21G    MINI
   -711   710       3-21G    MINI
   -741   740       3-21G    MINI
   -775   774       3-21G    MINI
   -808   807       3-21G    MINI
   -841   840       3-21G    MINI
   -872   871       3-21G    MINI
   -903   902       3-21G    MINI
   -937   936       3-21G    MINI
   -967   966       3-21G    MINI
   -997   996       3-21G    MINI
 $END
 $FMOHYB
 3-21G        9   5
   1 0  -0.070459   0.164841   0.000000   0.000000   0.502116
         0.466939   0.000000   0.000000   0.418036
   0 1  -0.070465   0.164857   0.473392   0.000000  -0.167359
         0.466967   0.394111   0.000000  -0.139327
   0 1  -0.070465   0.164857  -0.236695  -0.409969  -0.167359
         0.466967  -0.197055  -0.341311  -0.139327
   0 1  -0.070465   0.164857  -0.236695   0.409969  -0.167359
         0.466967  -0.197055   0.341311  -0.139327
   0 1   1.006716   0.074826   0.000000   0.000000   0.000000
        -0.143830   0.000000   0.000000  -0.000003
 MINI         5   5
   1 0  -0.104883   0.308874   0.000000   0.000000   0.521806
   0 1  -0.104883   0.308874   0.491961   0.000000  -0.173934
   0 1  -0.104883   0.308876  -0.245980  -0.426050  -0.173933
   0 1  -0.104883   0.308876  -0.245980   0.426050  -0.173933
   0 1   0.988209   0.063992   0.000000   0.000000   0.000000
 $END

 $DATA
 FMO calculation : XXNAMEXX
 C1 
 C.1-1    6
      N21 3
   
 O.1-1    8
      N21 3
   
 N.1-1    7
      N21 3
   
 H.1-1    1
      N21 3
   
 P.1-1   15
      N21 3
   
 $END
 $FMOXYZ
    1    H    5.938    -26.296    -8.005
    2    O    5.262    -25.616    -8.288
    3    C    5.231    -25.557    -9.717
    4    H    4.901    -26.432    -10.072
    5    H    6.112    -25.219    -10.048
    6    C    4.214    -24.532    -10.222
    7    H    4.293    -24.402    -11.210
    8    O    2.917    -25.028    -9.923
    9    C    2.004    -23.919    -10.013
    10    H    1.602    -23.945    -10.928
    11    N    0.938    -24.075    -8.990
    12    C    -0.309    -23.484    -8.998
    13    N    -2.679    -21.480    -10.556
    14    H    -3.609    -21.099    -10.455
    15    H    -2.183    -21.239    -11.402
    16    N    -0.805    -22.687    -9.975
    17    C    -2.040    -22.262    -9.698
    18    N    -2.725    -22.594    -8.558
    19    H    -3.674    -22.210    -8.447
    20    C    -2.246    -23.402    -7.546
    21    O    -2.945    -23.633    -6.562
    22    C    -0.929    -23.864    -7.826
    23    N    -0.095    -24.691    -7.079
    24    C    0.973    -24.774    -7.814
    25    H    1.640    -25.359    -7.354
    26    C    2.856    -22.648    -9.876
    27    H    2.515    -22.135    -9.089
    28    O    2.776    -21.836    -11.052
    29    H    1.944    -21.891    -11.527
    30    C    4.253    -23.158    -9.566
    31    H    4.351    -23.272    -8.577
    32    O    5.371    -22.291    -9.890
    33    P    6.091    -21.059    -9.096
    34    O    7.157    -20.499    -9.927
    35    O    6.419    -21.498    -7.737
    36    O    4.943    -19.974    -8.957
    37    C    4.370    -19.433    -10.145
    38    H    4.056    -20.184    -10.726
    39    H    5.005    -18.769    -10.540
    40    C    3.112    -18.626    -9.859
    41    H    2.812    -18.286    -10.750
    42    O    2.108    -19.531    -9.337
    43    C    1.085    -18.676    -8.801
    44    H    0.437    -18.495    -9.541
    45    N    0.414    -19.370    -7.677
    46    C    -1.095    -20.080    -6.240
    47    N    0.121    -20.606    -5.816
    48    C    0.960    -20.152    -6.698
    49    H    1.878    -20.480    -6.474
    50    N    -3.370    -19.533    -6.394
    51    C    -3.084    -18.827    -7.489
    52    H    -3.765    -18.324    -8.021
    53    N    -1.889    -18.667    -8.053
    54    C    -0.930    -19.327    -7.370
    55    C    -2.394    -20.180    -5.735
    56    N    -2.694    -20.882    -4.646
    57    H    -3.654    -20.915    -4.334
    58    H    -1.955    -21.366    -4.156
    59    C    1.782    -17.364    -8.415
    60    H    1.817    -17.352    -7.416
    61    O    1.132    -16.239    -9.000
    62    H    0.187    -16.342    -9.136
    63    C    3.198    -17.402    -8.959
    64    H    3.838    -17.590    -8.214
    65    O    3.596    -16.191    -9.646
    66    P    3.655    -14.675    -9.057
    67    O    4.212    -13.801    -10.099
    68    O    4.277    -14.595    -7.730
    69    O    2.131    -14.215    -8.908
    70    C    1.289    -14.050    -10.050
    71    H    1.340    -14.874    -10.614
    72    H    1.496    -13.173    -10.483
    73    C    -0.171    -13.947    -9.642
    74    H    -0.726    -13.888    -10.472
    75    O    -0.554    -15.109    -8.909
    76    C    -1.842    -14.853    -8.317
    77    H    -2.551    -15.238    -8.907
    78    N    -1.832    -15.458    -6.968
    79    C    -2.910    -15.575    -6.124
    80    N    -6.283    -15.087    -5.464
    81    H    -6.996    -15.222    -4.762
    82    H    -6.578    -14.656    -6.329
    83    N    -4.176    -15.172    -6.390
    84    C    -5.002    -15.414    -5.373
    85    N    -4.617    -16.006    -4.197
    86    H    -5.342    -16.150    -3.479
    87    C    -3.334    -16.424    -3.899
    88    O    -3.097    -16.940    -2.811
    89    C    -2.438    -16.170    -4.975
    90    N    -1.074    -16.432    -5.087
    91    C    -0.784    -15.993    -6.273
    92    H    0.190    -16.141    -6.446
    93    C    -1.921    -13.318    -8.376
    94    H    -2.142    -13.017    -7.448
    95    O    -2.854    -12.881    -9.368
    96    H    -3.586    -13.481    -9.528
    97    C    -0.550    -12.780    -8.758
    98    H    0.065    -12.755    -7.970
    99    O    -0.647    -11.610    -9.592
    100    P    -0.754    -10.114    -8.972
    101    O    -1.010    -9.190    -10.096
    102    O    0.419    -9.842    -8.098
    103    O    -2.099    -10.116    -8.077
    104    C    -3.396    -10.165    -8.686
    105    H    -3.439    -10.956    -9.296
    106    H    -3.611    -9.266    -9.068
    107    C    -4.477    -10.415    -7.646
    108    H    -5.360    -10.367    -8.112
    109    O    -4.348    -11.692    -7.026
    110    C    -5.043    -11.602    -5.770
    111    H    -5.889    -12.124    -5.880
    112    N    -4.136    -12.159    -4.749
    113    C    -2.781    -12.152    -4.922
    114    H    -2.227    -11.837    -5.692
    115    C    -1.968    -12.623    -3.962
    116    H    -0.975    -12.711    -3.886
    117    C    -4.716    -12.648    -3.592
    118    O    -5.938    -12.655    -3.468
    119    N    -3.900    -13.123    -2.615
    120    C    -2.571    -13.120    -2.769
    121    N    -1.798    -13.560    -1.782
    122    H    -2.232    -13.889    -0.932
    123    H    -0.793    -13.566    -1.878
    124    C    -5.394    -10.123    -5.527
    125    H    -5.103    -9.877    -4.602
    126    O    -6.778    -9.850    -5.788
    127    H    -7.381    -10.563    -5.565
    128    C    -4.515    -9.391    -6.535
    129    H    -3.594    -9.282    -6.161
    130    O    -5.278    -8.386    -7.240
    131    P    -5.798    -7.057    -6.468
    132    O    -6.753    -6.339    -7.375
    133    O    -4.473    -6.473    -6.136
    134    O    -6.591    -7.476    -5.088
    135    C    -8.005    -7.742    -5.029
    136    H    -8.201    -8.576    -5.545
    137    H    -8.503    -6.910    -5.275
    138    C    -8.455    -8.055    -3.604
    139    H    -9.439    -8.227    -3.551
    140    O    -7.739    -9.211    -3.058
    141    C    -7.830    -9.079    -1.623
    142    H    -8.531    -9.726    -1.324
    143    N    -6.493    -9.393    -1.084
    144    C    -4.867    -10.049    0.234
    145    N    -4.270    -9.714    -0.980
    146    C    -5.277    -9.335    -1.708
    147    H    -4.943    -9.068    -2.612
    148    N    -5.212    -10.750    2.441
    149    C    -6.514    -10.521    2.268
    150    H    -7.205    -10.669    2.976
    151    N    -7.111    -10.072    1.167
    152    C    -6.216    -9.855    0.183
    153    C    -4.349    -10.526    1.440
    154    N    -3.054    -10.762    1.632
    155    H    -2.747    -11.106    2.531
    156    H    -2.408    -10.592    0.875
    157    C    -8.303    -7.655    -1.316
    158    H    -7.682    -7.256    -0.641
    159    O    -9.680    -7.614    -0.930
    160    H    -9.982    -8.372    -0.424
    161    C    -8.121    -6.936    -2.642
    162    H    -7.160    -6.684    -2.757
    163    O    -9.120    -5.924    -2.784
    164    P    -8.710    -4.434    -2.342
    165    O    -9.856    -3.555    -2.676
    166    O    -7.353    -4.174    -2.893
    167    O    -8.613    -4.615    -0.743
    168    C    -9.785    -4.977    -0.002
    169    H    -10.255    -5.720    -0.479
    170    H    -10.307    -4.150    0.206
    171    C    -9.459    -5.564    1.368
    172    H    -10.231    -5.978    1.849
    173    O    -8.444    -6.541    1.196
    174    C    -7.801    -6.757    2.468
    175    H    -8.178    -7.597    2.858
    176    N    -6.346    -6.873    2.226
    177    C    -5.391    -7.214    3.157
    178    N    -4.527    -8.095    6.403
    179    H    -3.744    -8.334    6.994
    180    H    -5.436    -8.082    6.843
    181    N    -5.617    -7.500    4.461
    182    C    -4.490    -7.797    5.113
    183    N    -3.250    -7.810    4.529
    184    H    -2.447    -8.052    5.127
    185    C    -2.991    -7.524    3.200
    186    O    -1.842    -7.577    2.774
    187    C    -4.184    -7.205    2.493
    188    N    -4.365    -6.859    1.156
    189    C    -5.648    -6.679    1.069
    190    H    -5.878    -6.423    0.130
    191    C    -8.230    -5.566    3.337
    192    H    -7.420    -5.174    3.773
    193    O    -9.225    -5.935    4.300
    194    H    -9.137    -6.823    4.653
    195    C    -8.751    -4.590    2.291
    196    H    -7.984    -4.176    1.801
    197    O    -9.609    -3.560    2.804
    198    P    -9.121    -2.036    3.050
    199    O    -10.304    -1.200    3.331
    200    O    -8.186    -1.681    1.971
    201    O    -8.262    -2.226    4.386
    202    C    -8.937    -2.678    5.559
    203    H    -9.415    -3.531    5.351
    204    H    -9.471    -1.923    5.939
    205    C    -7.946    -3.044    6.655
    206    H    -8.380    -3.320    7.513
    207    O    -7.181    -4.121    6.160
    208    C    -5.895    -4.120    6.806
    209    H    -5.827    -4.948    7.363
    210    N    -4.847    -4.091    5.755
    211    C    -5.140    -3.658    4.489
    212    H    -6.017    -3.362    4.110
    213    C    -3.558    -4.470    6.096
    214    O    -3.262    -4.863    7.219
    215    N    -2.612    -4.375    5.096
    216    H    -1.648    -4.649    5.335
    217    C    -2.828    -3.948    3.802
    218    O    -1.903    -3.902    2.999
    219    C    -4.194    -3.575    3.527
    220    H    -4.265    -3.278    2.575
    221    C    -5.950    -2.900    7.730
    222    H    -5.046    -2.474    7.765
    223    O    -6.390    -3.282    9.041
    224    H    -6.101    -4.151    9.328
    225    C    -6.895    -1.991    6.966
    226    H    -6.481    -1.682    6.110
    227    O    -7.331    -0.756    7.584
    228    P    -6.777    0.767    7.371
    229    O    -7.595    1.719    8.129
    230    O    -6.546    0.991    5.946
    231    O    -5.354    0.679    8.065
    232    C    -5.326    0.361    9.457
    233    H    -5.876    -0.459    9.615
    234    H    -5.547    1.182    9.983
    235    C    -3.931    -0.024    9.926
    236    H    -3.911    -0.275    10.894
    237    O    -3.500    -1.125    9.157
    238    C    -2.058    -1.164    9.166
    239    H    -1.780    -1.945    9.725
    240    N    -1.603    -1.304    7.762
    241    C    -2.436    -0.989    6.723
    242    H    -3.386    -0.678    6.743
    243    C    -0.305    -1.726    7.536
    244    O    0.461    -2.021    8.448
    245    N    0.089    -1.801    6.217
    246    H    1.053    -2.112    6.031
    247    C    -0.684    -1.499    5.115
    248    O    -0.222    -1.597    3.984
    249    C    -2.026    -1.072    5.436
    250    H    -2.517    -0.877    4.587
    251    C    -1.634    0.132    9.872
    252    H    -0.864    0.532    9.374
    253    O    -1.311    -0.108    11.245
    254    H    -0.907    -0.960    11.423
    255    C    -2.860    1.020    9.687
    256    H    -2.919    1.337    8.740
    257    O    -2.953    2.147    10.581
    258    P    -2.478    3.661    10.245
    259    O    -2.787    4.537    11.390
    260    O    -2.937    4.038    8.899
    261    O    -0.895    3.476    10.177
    262    C    -0.228    2.973    11.337
    263    H    -0.677    2.129    11.630
    264    H    -0.136    3.711    12.005
    265    C    1.198    2.561    11.020
    266    H    1.668    2.158    11.805
    267    O    1.186    1.606    9.939
    268    C    2.477    1.551    9.309
    269    H    2.958    0.734    9.626
    270    N    2.257    1.544    7.846
    271    C    1.078    1.978    7.311
    272    H    0.254    2.326    7.757
    273    C    0.889    1.980    5.980
    274    H    0.122    2.249    5.398
    275    C    3.293    1.095    7.039
    276    O    4.350    0.715    7.541
    277    N    3.110    1.095    5.693
    278    C    1.958    1.517    5.156
    279    N    1.814    1.511    3.836
    280    H    2.580    1.187    3.263
    281    H    0.954    1.825    3.410
    282    C    3.164    2.792    9.892
    283    H    3.602    3.267    9.129
    284    O    4.079    2.449    10.936
    285    H    4.497    1.590    10.842
    286    C    2.058    3.672    10.454
    287    H    1.558    4.128    9.718
    288    O    2.564    4.526    11.489
    289    P    2.903    6.070    11.183
    290    O    3.408    6.693    12.424
    291    O    1.754    6.680    10.472
    292    O    4.131    5.952    10.151
    293    C    5.381    5.385    10.560
    294    H    5.212    4.495    10.984
    295    H    5.890    6.066    11.087
    296    C    6.262    5.083    9.358
    297    H    7.131    4.648    9.595
    298    O    5.540    4.227    8.478
    299    C    5.993    4.446    7.130
    300    H    6.440    3.610    6.813
    301    N    4.801    4.793    6.319
    302    C    3.648    5.206    6.923
    303    H    3.440    5.338    7.892
    304    C    2.559    5.509    6.196
    305    H    1.640    5.820    6.436
    306    C    4.888    4.678    4.936
    307    O    5.937    4.315    4.411
    308    N    3.786    4.983    4.191
    309    C    2.652    5.387    4.778
    310    N    1.592    5.672    4.029
    311    H    1.663    5.578    3.026
    312    H    0.728    5.978    4.453
    313    C    7.044    5.549    7.273
    314    H    6.987    6.152    6.477
    315    O    8.355    5.012    7.473
    316    H    8.533    4.192    7.006
    317    C    6.557    6.301    8.499
    318    H    5.700    6.779    8.307
    319    O    7.579    7.135    9.064
    320    P    7.648    8.718    8.769
    321    O    8.704    9.316    9.613
    322    O    6.281    9.286    8.806
    323    O    8.166    8.756    7.252
    324    C    9.485    8.303    6.937
    325    H    9.573    7.344    7.206
    326    H    10.149    8.955    7.303
    327    C    9.743    8.301    5.437
    328    H    10.676    8.017    5.214
    329    O    8.814    7.374    4.838
    330    C    8.561    7.810    3.492
    331    H    8.897    7.097    2.877
    332    N    7.098    8.013    3.350
    333    C    6.316    8.206    4.453
    334    H    6.565    8.239    5.421
    335    C    4.990    8.391    4.336
    336    H    4.258    8.545    5.000
    337    C    6.548    8.001    2.072
    338    O    7.265    7.835    1.088
    339    N    5.203    8.189    1.944
    340    C    4.431    8.379    3.023
    341    N    3.122    8.562    2.867
    342    H    2.736    8.554    1.934
    343    H    2.523    8.707    3.667
    344    C    9.418    9.072    3.311
    345    H    8.922    9.720    2.733
    346    O    10.707    8.755    2.776
    347    H    10.719    8.025    2.153
    348    C    9.476    9.616    4.728
    349    H    8.581    9.962    5.010
    350    O    10.492    10.617    4.926
    351    P    10.295    12.215    4.733
    352    O    11.558    12.901    5.052
    353    O    9.060    12.658    5.401
    354    O    10.068    12.356    3.157
    355    C    11.095    11.944    2.254
    356    H    11.339    10.994    2.450
    357    H    11.826    12.626    2.260
    358    C    10.589    11.928    0.818
    359    H    11.308    11.615    0.197
    360    O    9.459    11.054    0.702
    361    C    8.659    11.502    -0.403
    362    H    8.749    10.817    -1.126
    363    N    7.270    11.626    0.093
    364    C    7.024    11.765    1.427
    365    H    7.658    11.818    2.198
    366    C    5.767    11.855    1.888
    367    H    5.380    11.958    2.804
    368    C    6.234    11.576    -0.830
    369    O    6.475    11.460    -2.030
    370    N    4.955    11.666    -0.370
    371    C    4.705    11.801    0.939
    372    N    3.449    11.877    1.361
    373    H    2.702    11.831    0.682
    374    H    3.241    11.979    2.344
    375    C    9.283    12.816    -0.881
    376    H    8.545    13.472    -1.039
    377    O    10.103    12.626    -2.037
    378    H    9.806    11.937    -2.636
    379    C    10.111    13.278    0.313
    380    H    9.516    13.691    1.002
    381    O    11.238    14.057    -0.106
    382    P    11.115    15.651    -0.314
    383    O    12.398    16.143    -0.861
    384    O    10.567    16.266    0.918
    385    O    10.018    15.769    -1.483
    386    C    10.272    15.203    -2.773
    387    H    10.535    14.245    -2.662
    388    H    10.893    15.804    -3.276
    389    C    9.009    15.161    -3.616
    390    H    9.210    14.695    -4.477
    391    O    7.978    14.471    -2.952
    392    C    6.746    14.899    -3.554
    393    H    6.476    14.174    -4.188
    394    N    5.772    15.093    -2.458
    395    C    6.194    15.279    -1.170
    396    H    7.123    15.305    -0.800
    397    C    4.430    15.083    -2.785
    398    O    4.030    14.918    -3.934
    399    N    3.553    15.276    -1.738
    400    H    2.547    15.277    -1.960
    401    C    3.891    15.469    -0.416
    402    O    3.018    15.621    0.434
    403    C    5.314    15.465    -0.163
    404    H    5.472    15.614    0.813
    405    C    7.035    16.174    -4.349
    406    H    6.425    16.891    -4.012
    407    O    6.930    15.955    -5.760
    408    H    6.268    15.311    -6.022
    409    C    8.468    16.528    -3.979
    410    H    8.468    17.105    -3.163
    411    O    9.159    16.974    -5.153
    412    P    9.362    18.558    -5.384
    413    O    9.933    18.746    -6.738
    414    O    10.072    19.110    -4.200
    415    O    7.844    19.107    -5.407
    416    C    6.957    18.782    -6.486
    417    H    6.962    17.792    -6.624
    418    H    7.170    19.366    -7.269
    419    C    5.514    19.120    -6.126
    420    H    4.925    19.014    -6.927
    421    O    5.048    18.268    -5.096
    422    C    4.069    18.978    -4.312
    423    H    3.192    18.521    -4.457
    424    N    4.515    18.956    -2.904
    425    C    3.713    19.076    -1.791
    426    N    0.563    19.389    -0.365
    427    H    0.080    19.469    0.518
    428    H    -0.012    19.390    -1.195
    429    N    2.365    19.186    -1.788
    430    C    1.871    19.284    -0.552
    431    N    2.644    19.276    0.582
    432    H    2.159    19.359    1.487
    433    C    4.021    19.165    0.604
    434    O    4.615    19.170    1.675
    435    C    4.558    19.057    -0.706
    436    N    5.881    18.927    -1.120
    437    C    5.784    18.873    -2.411
    438    H    6.699    18.777    -2.803
    439    C    3.996    20.384    -4.889
    440    H    3.966    21.033    -4.129
    441    O    2.900    20.530    -5.799
    442    H    2.119    20.017    -5.579
    443    C    5.325    20.538    -5.620
    444    H    6.049    20.748    -4.963
    445    O    5.190    21.409    -6.745
    446    P    5.894    22.855    -6.676
    447    O    5.662    23.545    -7.963
    448    O    7.276    22.712    -6.154
    449    O    4.976    23.541    -5.544
    450    C    5.407    24.682    -4.806
    451    H    5.466    25.466    -5.424
    452    H    6.220    24.439    -4.277
    453    C    4.365    25.081    -3.764
    454    H    4.729    25.772    -3.139
    455    O    3.248    25.626    -4.459
    456    C    2.065    24.853    -4.196
    457    H    1.389    25.495    -3.834
    458    N    1.630    24.254    -5.479
    459    C    2.438    23.392    -6.165
    460    H    3.350    23.047    -5.942
    461    C    2.044    22.863    -7.337
    462    H    2.472    22.230    -7.982
    463    C    0.379    24.608    -5.966
    464    O    -0.335    25.380    -5.331
    465    N    -0.027    24.076    -7.153
    466    C    0.759    23.232    -7.832
    467    N    0.335    22.735    -8.992
    468    H    -0.575    23.007    -9.336
    469    H    0.912    22.097    -9.521
    470    C    2.398    23.817    -3.115
    471    H    2.198    22.915    -3.498
    472    O    1.689    24.058    -1.896
    473    H    0.825    24.462    -2.003
    474    C    3.897    23.933    -2.878
    475    H    4.315    23.083    -3.199
    476    O    4.173    24.267    -1.509
    477    P    3.961    23.198    -0.313
    478    O    4.833    23.592    0.817
    479    O    4.058    21.832    -0.870
    480    O    2.426    23.456    0.120
    481    C    2.024    24.738    0.637
    482    H    2.184    25.436    -0.061
    483    H    2.440    24.871    1.537
    484    C    0.517    24.801    0.900
    485    H    0.307    25.635    1.411
    486    O    -0.185    24.828    -0.341
    487    C    -1.207    23.828    -0.362
    488    H    -2.069    24.314    -0.219
    489    N    -1.171    23.160    -1.677
    490    C    -1.706    22.492    -3.696
    491    N    -0.397    22.066    -3.480
    492    C    -0.148    22.486    -2.278
    493    H    0.782    22.219    -2.026
    494    N    -3.799    22.898    -4.662
    495    C    -4.153    23.520    -3.538
    496    H    -5.052    23.931    -3.389
    497    N    -3.408    23.702    -2.452
    498    C    -2.184    23.155    -2.603
    499    C    -2.573    22.367    -4.783
    500    N    -2.221    21.789    -5.928
    501    H    -2.886    21.761    -6.687
    502    H    -1.296    21.391    -6.012
    503    C    -0.979    22.878    0.794
    504    H    -0.504    22.072    0.439
    505    O    -2.207    22.554    1.449
    506    H    -2.976    22.524    0.876
    507    C    -0.041    23.636    1.728
    508    H    0.708    23.016    1.964
    509    O    -0.808    24.216    2.790
    510    P    -1.467    23.256    3.909
    511    O    -1.552    24.031    5.169
    512    O    -0.734    21.964    3.871
    513    O    -2.973    23.014    3.367
    514    C    -4.116    23.141    4.235
    515    H    -4.150    24.074    4.594
    516    H    -4.112    22.386    4.891
    517    C    -5.442    22.979    3.486
    518    H    -6.215    22.891    4.114
    519    O    -5.634    24.144    2.668
    520    C    -5.866    23.742    1.313
    521    H    -6.857    23.696    1.185
    522    N    -5.278    24.765    0.392
    523    C    -4.229    25.553    0.804
    524    H    -3.759    25.574    1.687
    525    C    -5.803    24.894    -0.894
    526    O    -6.731    24.212    -1.309
    527    N    -5.207    25.841    -1.699
    528    H    -5.586    25.948    -2.651
    529    C    -4.153    26.662    -1.361
    530    O    -3.700    27.462    -2.175
    531    C    -3.666    26.471    -0.017
    532    H    -2.906    27.100    0.146
    533    C    -5.279    22.328    1.185
    534    H    -4.298    22.406    1.006
    535    O    -5.936    21.570    0.161
    536    H    -6.239    22.083    -0.592
    537    C    -5.486    21.747    2.590
    538    H    -4.706    21.160    2.806
    539    O    -6.758    21.084    2.695
    540    P    -6.933    19.485    2.521
    541    O    -8.336    19.144    2.848
    542    O    -5.834    18.796    3.227
    543    O    -6.717    19.281    0.937
    544    C    -7.636    19.865    0.002
    545    H    -7.600    20.861    0.088
    546    H    -8.526    19.419    0.098
    547    C    -7.215    19.585    -1.439
    548    H    -7.911    19.907    -2.081
    549    O    -5.958    20.242    -1.736
    550    C    -5.451    19.617    -2.914
    551    H    -5.715    20.203    -3.680
    552    N    -3.983    19.541    -2.802
    553    C    -1.851    19.388    -3.296
    554    N    -1.917    19.548    -1.912
    555    C    -3.195    19.633    -1.690
    556    H    -3.348    19.754    -0.709
    557    N    -1.072    19.102    -5.486
    558    C    -2.339    19.111    -5.897
    559    H    -2.618    19.016    -6.853
    560    N    -3.422    19.243    -5.142
    561    C    -3.102    19.381    -3.841
    562    C    -0.783    19.239    -4.184
    563    N    0.485    19.227    -3.798
    564    H    1.208    19.115    -4.494
    565    H    0.699    19.330    -2.816
    566    C    -6.153    18.257    -3.058
    567    H    -5.452    17.544    -3.097
    568    O    -6.995    18.229    -4.220
    569    H    -6.679    18.749    -4.962
    570    C    -6.932    18.121    -1.741
    571    H    -6.330    17.753    -1.032
    572    O    -8.134    17.343    -1.877
    573    P    -8.214    15.761    -1.549
    574    O    -9.567    15.282    -1.901
    575    O    -7.692    15.509    -0.193
    576    O    -7.167    15.145    -2.603
    577    C    -7.399    15.377    -3.993
    578    H    -7.580    16.350    -4.135
    579    H    -8.078    14.721    -4.324
    580    C    -6.163    15.097    -4.838
    581    H    -6.429    15.184    -5.798
    582    O    -5.113    16.057    -4.550
    583    C    -3.856    15.409    -4.826
    584    H    -3.463    15.887    -5.611
    585    N    -3.014    15.538    -3.621
    586    C    -1.295    15.642    -2.260
    587    N    -2.431    15.787    -1.466
    588    C    -3.399    15.714    -2.324
    589    H    -4.270    15.805    -1.841
    590    N    0.926    15.461    -2.983
    591    C    0.467    15.321    -4.228
    592    H    1.054    15.194    -5.028
    593    N    -0.804    15.324    -4.620
    594    C    -1.639    15.490    -3.572
    595    C    0.069    15.628    -1.963
    596    N    0.541    15.787    -0.729
    597    H    1.540    15.779    -0.582
    598    H    -0.111    15.912    0.032
    599    C    -4.147    13.951    -5.221
    600    H    -3.507    13.358    -4.733
    601    O    -4.103    13.774    -6.638
    602    H    -3.459    14.320    -7.095
    603    C    -5.554    13.719    -4.676
    604    H    -5.497    13.501    -3.702
    605    O    -6.296    12.800    -5.496
    606    P    -6.143    11.199    -5.330
    607    O    -7.017    10.550    -6.329
    608    O    -6.284    10.831    -3.902
    609    O    -4.621    10.935    -5.786
    610    C    -4.173    11.347    -7.082
    611    H    -4.406    12.310    -7.216
    612    H    -4.494    10.688    -7.762
    613    C    -2.657    11.292    -7.163
    614    H    -2.394    11.547    -8.094
    615    O    -2.035    12.197    -6.237
    616    C    -0.701    11.701    -6.017