!*** FMO 5.2 (Gamess) INPUT generated by Facio 21.1.1.32 ***
 $CONTRL RUNTYP=OPTFMO NPRINT=-5 ISPHER=-1 MAXIT=50 $END
 $SYSTEM MWORDS=29 $END
 $GDDI NGROUP=1 $END
 $INTGRL NINTIC=-9000000 $END
 $SCF DIRSCF=.FALSE. NPUNCH=0 $END
!*** NumCPU : 2  MemPerNode : 512MB
 $FMOPRP
    NAODIR=210
    NGRFMO(1)=1, 1, 0, 0, 0,   0, 0, 0, 0, 0
    NPRINT=9
 $END
 $FMO
      SCFTYP(1)=RHF
      MODGRD=10
      MODMUL=0
      MAXCAO=5
      MAXBND=34
      NLAYER=1
      NFRAG=32
      ICHARG(1)=-1, -1, -1, -1, -1, -1, -1, -1, -1, -1, 
-1, -1, -1, -1, -1, -1, -1, -1, -1, -1, 
-1, -1, -1, -1, -1, -1, -1, -1, -1, -1, 
-1, 0
      FRGNAM(1)=Frag1, Frag2, Frag3, Frag4, Frag5, Frag6, Frag7, Frag8, Frag9, Frag10, Frag11, Frag12, Frag13, Frag14, Frag15, Frag16, Frag17, Frag18, Frag19, Frag20, Frag21, Frag22, Frag23, Frag24, Frag25, Frag26, Frag27, Frag28, Frag29, Frag30, Frag31, Frag32
      indat(1)=0
               1   -36   0
               37   -69   0
               70   -103   0
               104   -134   0
               135   -167   0
               168   -201   0
               202   -231   0
               232   -261   0
               262   -292   0
               293   -323   0
               324   -354   0
               355   -385   0
               386   -415   0
               416   -449   0
               450   -480   0
               481   -513   0
               514   -543   0
               544   -576   0
               577   -609   0
               610   -643   0
               644   -677   0
               678   -710   0
               711   -740   0
               741   -774   0
               775   -807   0
               808   -840   0
               841   -871   0
               872   -902   0
               903   -936   0
               937   -966   0
               967   -996   0
               997   -1024   0
 $END

 $FMOBND
   -37   36       3-21G    MINI
   -70   69       3-21G    MINI
   -104   103       3-21G    MINI
   -135   134       3-21G    MINI
   -168   167       3-21G    MINI
   -202   201       3-21G    MINI
   -232   231       3-21G    MINI
   -262   261       3-21G    MINI
   -293   292       3-21G    MINI
   -324   323       3-21G    MINI
   -355   354       3-21G    MINI
   -386   385       3-21G    MINI
   -416   415       3-21G    MINI
   -450   449       3-21G    MINI
   -481   480       3-21G    MINI
   -514   513       3-21G    MINI
   -544   543       3-21G    MINI
   -577   576       3-21G    MINI
   -610   609       3-21G    MINI
   -644   643       3-21G    MINI
   -678   677       3-21G    MINI
   -711   710       3-21G    MINI
   -741   740       3-21G    MINI
   -775   774       3-21G    MINI
   -808   807       3-21G    MINI
   -841   840       3-21G    MINI
   -872   871       3-21G    MINI
   -903   902       3-21G    MINI
   -937   936       3-21G    MINI
   -967   966       3-21G    MINI
   -997   996       3-21G    MINI
 $END
 $FMOHYB
 3-21G        9   5
   1 0  -0.070459   0.164841   0.000000   0.000000   0.502116
         0.466939   0.000000   0.000000   0.418036
   0 1  -0.070465   0.164857   0.473392   0.000000  -0.167359
         0.466967   0.394111   0.000000  -0.139327
   0 1  -0.070465   0.164857  -0.236695  -0.409969  -0.167359
         0.466967  -0.197055  -0.341311  -0.139327
   0 1  -0.070465   0.164857  -0.236695   0.409969  -0.167359
         0.466967  -0.197055   0.341311  -0.139327
   0 1   1.006716   0.074826   0.000000   0.000000   0.000000
        -0.143830   0.000000   0.000000  -0.000003
 MINI         5   5
   1 0  -0.104883   0.308874   0.000000   0.000000   0.521806
   0 1  -0.104883   0.308874   0.491961   0.000000  -0.173934
   0 1  -0.104883   0.308876  -0.245980  -0.426050  -0.173933
   0 1  -0.104883   0.308876  -0.245980   0.426050  -0.173933
   0 1   0.988209   0.063992   0.000000   0.000000   0.000000
 $END

 $DATA
 FMO calculation : XXNAMEXX
 C1 
 C.1-1    6
      N21 3
   
 O.1-1    8
      N21 3
   
 N.1-1    7
      N21 3
   
 H.1-1    1
      N21 3
   
 P.1-1   15
      N21 3
   
 $END
 $FMOXYZ
    1    H    9.650    -11.447    -8.655
    2    O    8.890    -12.088    -8.760
    3    C    9.172    -12.971    -9.854
    4    H    9.969    -13.530    -9.624
    5    H    9.200    -12.441    -10.701
    6    C    8.053    -13.987    -10.082
    7    H    8.226    -14.524    -10.908
    8    O    7.903    -14.865    -8.986
    9    C    6.583    -15.445    -9.082
    10    H    6.687    -16.300    -9.590
    11    N    6.091    -15.650    -7.703
    12    C    5.108    -16.531    -7.315
    13    N    2.797    -18.999    -8.096
    14    H    2.094    -19.604    -7.696
    15    H    2.952    -19.083    -9.091
    16    N    4.433    -17.378    -8.128
    17    C    3.539    -18.107    -7.456
    18    N    3.331    -18.009    -6.105
    19    H    2.615    -18.622    -5.690
    20    C    4.005    -17.154    -5.254
    21    O    3.737    -17.144    -4.056
    22    C    4.963    -16.368    -5.955
    23    N    5.842    -15.398    -5.481
    24    C    6.471    -15.020    -6.551
    25    H    7.135    -14.314    -6.306
    26    C    5.713    -14.487    -9.894
    27    H    4.981    -14.142    -9.307
    28    O    5.215    -15.085    -11.099
    29    H    5.013    -16.021    -11.033
    30    C    6.678    -13.355    -10.198
    31    H    6.575    -12.665    -9.481
    32    O    6.444    -12.881    -11.523
    33    P    5.457    -11.624    -11.689
    34    O    5.497    -11.244    -13.118
    35    O    5.810    -10.657    -10.623
    36    O    4.016    -12.254    -11.338
    37    C    3.430    -13.254    -12.182
    38    H    4.042    -14.043    -12.225
    39    H    3.151    -12.830    -13.044
    40    C    2.129    -13.838    -11.631
    41    H    1.687    -14.478    -12.259
    42    O    2.440    -14.529    -10.393
    43    C    1.182    -14.715    -9.707
    44    H    0.791    -15.570    -10.047
    45    N    1.412    -14.758    -8.248
    46    C    1.273    -15.267    -6.115
    47    N    2.246    -14.276    -6.215
    48    C    2.276    -14.022    -7.488
    49    H    2.955    -13.308    -7.662
    50    N    -0.203    -16.882    -5.275
    51    C    -0.626    -17.086    -6.524
    52    H    -1.334    -17.747    -6.772
    53    N    -0.201    -16.473    -7.626
    54    C    0.758    -15.567    -7.344
    55    C    0.753    -15.972    -5.027
    56    N    1.167    -15.782    -3.777
    57    H    0.752    -16.328    -3.036
    58    H    1.886    -15.096    -3.598
    59    C    0.280    -13.557    -10.123
    60    H    0.146    -12.967    -9.327
    61    O    -0.963    -13.996    -10.674
    62    H    -1.304    -14.814    -10.305
    63    C    1.098    -12.811    -11.157
    64    H    1.573    -12.063    -10.693
    65    O    0.251    -12.124    -12.095
    66    P    -0.671    -10.833    -11.732
    67    O    -1.105    -10.215    -12.994
    68    O    -0.056    -9.995    -10.696
    69    O    -1.905    -11.541    -11.015
    70    C    -2.592    -12.517    -11.789
    71    H    -1.932    -13.188    -12.127
    72    H    -3.173    -12.053    -12.457
    73    C    -3.556    -13.324    -10.940
    74    H    -4.060    -14.014    -11.459
    75    O    -2.804    -13.973    -9.909
    76    C    -3.731    -14.502    -8.933
    77    H    -3.903    -15.465    -9.138
    78    N    -3.136    -14.340    -7.587
    79    C    -3.636    -14.845    -6.408
    80    N    -6.032    -16.692    -4.703
    81    H    -6.308    -17.003    -3.783
    82    H    -6.618    -16.984    -5.472
    83    N    -4.747    -15.609    -6.279
    84    C    -4.984    -15.941    -5.010
    85    N    -4.194    -15.557    -3.958
    86    H    -4.469    -15.876    -3.018
    87    C    -3.058    -14.776    -4.058
    88    O    -2.424    -14.487    -3.048
    89    C    -2.791    -14.412    -5.408
    90    N    -1.760    -13.643    -5.942
    91    C    -2.021    -13.642    -7.214
    92    H    -1.323    -13.107    -7.689
    93    C    -5.002    -13.691    -9.233
    94    H    -5.355    -13.339    -8.366
    95    O    -5.979    -14.492    -9.907
    96    H    -5.973    -15.422    -9.670
    97    C    -4.508    -12.527    -10.075
    98    H    -3.982    -11.882    -9.521
    99    O    -5.459    -11.615    -10.666
    100    P    -5.901    -10.130    -10.158
    101    O    -6.838    -9.538    -11.118
    102    O    -4.741    -9.340    -9.741
    103    O    -6.692    -10.456    -8.818
    104    C    -7.889    -11.214    -8.928
    105    H    -7.683    -12.085    -9.374
    106    H    -8.602    -10.640    -9.329
    107    C    -8.443    -11.608    -7.568
    108    H    -9.319    -12.076    -7.684
    109    O    -7.505    -12.513    -6.962
    110    C    -7.770    -12.519    -5.547
    111    H    -8.189    -13.401    -5.333
    112    N    -6.493    -12.357    -4.814
    113    C    -5.427    -11.730    -5.395
    114    H    -5.320    -11.371    -6.322
    115    C    -4.294    -11.508    -4.706
    116    H    -3.422    -11.077    -4.938
    117    C    -6.433    -12.793    -3.498
    118    O    -7.393    -13.371    -2.994
    119    N    -5.292    -12.571    -2.791
    120    C    -4.247    -11.951    -3.352
    121    N    -3.158    -11.719    -2.627
    122    H    -3.141    -12.017    -1.662
    123    H    -2.359    -11.253    -3.032
    124    C    -8.795    -11.403    -5.291
    125    H    -8.517    -10.889    -4.479
    126    O    -10.108    -11.946    -5.125
    127    H    -10.140    -12.806    -4.700
    128    C    -8.618    -10.525    -6.515
    129    H    -7.769    -10.002    -6.441
    130    O    -9.453    -9.350    -6.711
    131    P    -9.317    -7.805    -6.205
    132    O    -10.315    -6.935    -6.830
    133    O    -7.935    -7.345    -6.222
    134    O    -9.691    -7.909    -4.671
    135    C    -11.000    -8.379    -4.364
    136    H    -11.137    -9.269    -4.799
    137    H    -11.661    -7.655    -4.562
    138    C    -11.169    -8.652    -2.879
    139    H    -12.108    -8.934    -2.682
    140    O    -10.250    -9.730    -2.476
    141    C    -10.137    -9.623    -1.043
    142    H    -10.675    -10.371    -0.654
    143    N    -8.706    -9.765    -0.688
    144    C    -6.835    -10.167    0.396
    145    N    -6.461    -9.755    -0.881
    146    C    -7.602    -9.534    -1.463
    147    H    -7.435    -9.227    -2.400
    148    N    -6.776    -10.899    2.620
    149    C    -8.108    -10.867    2.624
    150    H    -8.669    -11.112    3.415
    151    N    -8.906    -10.518    1.618
    152    C    -8.195    -10.176    0.525
    153    C    -6.096    -10.555    1.517
    154    N    -4.767    -10.595    1.533
    155    H    -4.296    -10.885    2.378
    156    H    -4.259    -10.335    0.700
    157    C    -10.781    -8.284    -0.648
    158    H    -10.166    -7.821    -0.010
    159    O    -12.078    -8.482    -0.077
    160    H    -12.182    -9.297    0.419
    161    C    -10.824    -7.499    -1.952
    162    H    -9.914    -7.155    -2.185
    163    O    -11.645    -6.309    -1.981
    164    P    -11.155    -4.777    -1.721
    165    O    -12.249    -3.829    -1.971
    166    O    -9.858    -4.514    -2.349
    167    O    -10.899    -4.790    -0.150
    168    C    -11.996    -5.099    0.706
    169    H    -12.523    -5.847    0.303
    170    H    -12.480    -4.254    0.933
    171    C    -11.544    -5.644    2.053
    172    H    -12.294    -6.057    2.570
    173    O    -10.552    -6.634    1.804
    174    C    -9.825    -6.851    3.027
    175    H    -10.160    -7.700    3.436
    176    N    -8.384    -6.957    2.697
    177    C    -7.370    -7.289    3.568
    178    N    -6.304    -8.177    6.752
    179    H    -5.484    -8.406    7.296
    180    H    -7.187    -8.182    7.243
    181    N    -7.514    -7.588    4.881
    182    C    -6.346    -7.870    5.464
    183    N    -5.142    -7.858    4.809
    184    H    -4.302    -8.091    5.357
    185    C    -4.966    -7.558    3.470
    186    O    -3.842    -7.588    2.977
    187    C    -6.203    -7.255    2.836
    188    N    -6.467    -6.903    1.514
    189    C    -7.755    -6.744    1.503
    190    H    -8.043    -6.486    0.581
    191    C    -10.229    -5.670    3.924
    192    H    -9.396    -5.287    4.323
    193    O    -11.148    -6.083    4.941
    194    H    -11.031    -6.984    5.251
    195    C    -10.826    -4.657    2.957
    196    H    -10.106    -4.201    2.434
    197    O    -11.581    -3.570    3.544
    198    P    -11.074    -2.040    3.788
    199    O    -12.197    -1.170    4.162
    200    O    -10.205    -1.604    2.694
    201    O    -10.144    -2.163    5.078
    202    C    -10.710    -2.511    6.340
    203    H    -11.237    -3.355    6.239
    204    H    -11.174    -1.711    6.720
    205    C    -9.634    -2.852    7.362
    206    H    -10.029    -3.098    8.247
    207    O    -8.934    -3.965    6.846
    208    C    -7.604    -3.976    7.395
    209    H    -7.507    -4.794    7.962
    210    N    -6.633    -3.987    6.270
    211    C    -7.011    -3.571    5.021
    212    H    -7.909    -3.268    4.701
    213    C    -5.329    -4.381    6.525
    214    O    -4.958    -4.759    7.630
    215    N    -4.456    -4.318    5.457
    216    H    -3.482    -4.604    5.630
    217    C    -4.759    -3.909    4.175
    218    O    -3.894    -3.892    3.306
    219    C    -6.136    -3.519    3.992
    220    H    -6.271    -3.237    3.042
    221    C    -7.578    -2.738    8.296
    222    H    -6.662    -2.338    8.257
    223    O    -7.921    -3.096    9.639
    224    H    -7.640    -3.973    9.909
    225    C    -8.559    -1.798    7.612
    226    H    -8.205    -1.479    6.733
    227    O    -8.871    -0.507    8.197
    228    P    -8.303    1.000    7.888
    229    O    -9.005    2.032    8.656
    230    O    -8.130    1.256    6.465
    231    O    -6.837    0.938    8.492
    232    C    -6.706    0.691    9.889
    233    H    -7.267    -0.100    10.134
    234    H    -6.858    1.545    10.386
    235    C    -5.294    0.279    10.283
    236    H    -5.218    0.063    11.256
    237    O    -4.959    -0.867    9.530
    238    C    -3.521    -0.965    9.440
    239    H    -3.233    -1.740    10.003
    240    N    -3.166    -1.171    8.015
    241    C    -4.055    -0.857    7.022
    242    H    -4.990    -0.509    7.093
    243    C    -1.902    -1.649    7.718
    244    O    -1.088    -1.944    8.588
    245    N    -1.600    -1.780    6.379
    246    H    -0.662    -2.133    6.140
    247    C    -2.434    -1.483    5.321
    248    O    -2.051    -1.635    4.166
    249    C    -3.735    -0.996    5.715
    250    H    -4.275    -0.809    4.894
    251    C    -3.001    0.334    10.073
    252    H    -2.247    0.682    9.516
    253    O    -2.599    0.122    11.428
    254    H    -2.221    -0.742    11.608
    255    C    -4.197    1.270    9.931
    256    H    -4.307    1.553    8.978
    257    O    -4.167    2.497    10.692
    258    P    -3.622    3.957    10.221
    259    O    -3.802    4.932    11.309
    260    O    -4.082    4.326    8.878
    261    O    -2.063    3.665    10.088
    262    C    -1.393    3.152    11.239
    263    H    -1.901    2.364    11.587
    264    H    -1.207    3.905    11.870
    265    C    -0.023    2.599    10.892
    266    H    0.439    2.180    11.674
    267    O    -0.152    1.620    9.843
    268    C    1.111    1.431    9.181
    269    H    1.527    0.584    9.512
    270    N    0.848    1.401    7.725
    271    C    -0.303    1.922    7.208
    272    H    -1.080    2.355    7.665
    273    C    -0.531    1.901    5.884
    274    H    -1.288    2.219    5.314
    275    C    1.816    0.838    6.907
    276    O    2.849    0.380    7.392
    277    N    1.594    0.813    5.567
    278    C    0.469    1.320    5.047
    279    N    0.286    1.286    3.732
    280    H    1.003    0.877    3.150
    281    H    -0.555    1.663    3.319
    282    C    1.923    2.623    9.703
    283    H    2.382    3.034    8.916
    284    O    2.834    2.233    10.736
    285    H    3.175    1.339    10.659
    286    C    0.907    3.611    10.256
    287    H    0.424    4.075    9.514
    288    O    1.500    4.461    11.245
    289    P    2.025    5.935    10.868
    290    O    2.608    6.533    12.088
    291    O    0.967    6.658    10.124
    292    O    3.218    5.602    9.843
    293    C    4.360    4.858    10.284
    294    H    4.049    4.023    10.739
    295    H    4.970    5.468    10.790
    296    C    5.180    4.377    9.100
    297    H    5.968    3.822    9.364
    298    O    4.347    3.616    8.235
    299    C    4.844    3.724    6.888
    300    H    5.164    2.820    6.603
    301    N    3.726    4.226    6.056
    302    C    2.645    4.827    6.634
    303    H    2.452    5.020    7.596
    304    C    1.620    5.267    5.886
    305    H    0.757    5.721    6.106
    306    C    3.805    4.055    4.678
    307    O    4.791    3.521    4.178
    308    N    2.767    4.498    3.912
    309    C    1.703    5.087    4.473
    310    N    0.703    5.505    3.703
    311    H    0.766    5.369    2.704
    312    H    -0.108    5.951    4.108
    313    C    6.046    4.661    7.011
    314    H    6.082    5.246    6.201
    315    O    7.262    3.946    7.246
    316    H    7.324    3.095    6.805
    317    C    5.673    5.508    8.217
    318    H    4.905    6.112    8.003
    319    O    6.827    6.112    8.815
    320    P    7.207    7.647    8.520
    321    O    8.334    8.030    9.401
    322    O    5.964    8.461    8.516
    323    O    7.767    7.536    7.019
    324    C    8.969    6.802    6.770
    325    H    8.840    5.856    7.068
    326    H    9.744    7.310    7.145
    327    C    9.263    6.698    5.282
    328    H    10.128    6.235    5.088
    329    O    8.187    5.961    4.667
    330    C    8.065    6.411    3.306
    331    H    8.278    5.634    2.713
    332    N    6.670    6.885    3.117
    333    C    5.911    7.248    4.192
    334    H    6.136    7.257    5.166
    335    C    4.647    7.677    4.031
    336    H    3.940    7.981    4.669
    337    C    6.163    6.946    1.823
    338    O    6.862    6.625    0.865
    339    N    4.882    7.382    1.651
    340    C    4.132    7.741    2.702
    341    N    2.886    8.164    2.502
    342    H    2.530    8.206    1.558
    343    H    2.304    8.439    3.280
    344    C    9.150    7.482    3.135
    345    H    8.802    8.203    2.536
    346    O    10.369    6.918    2.642
    347    H    10.259    6.189    2.027
    348    C    9.274    8.030    4.551
    349    H    8.456    8.546    4.803
    350    O    10.448    8.827    4.796
    351    P    10.518    10.446    4.726
    352    O    11.856    10.916    5.126
    353    O    9.342    11.071    5.358
    354    O    10.394    10.680    3.150
    355    C    11.370    10.090    2.292
    356    H    11.420    9.109    2.482
    357    H    12.215    10.622    2.347
    358    C    10.951    10.180    0.832
    359    H    11.632    9.770    0.225
    360    O    9.698    9.502    0.654
    361    C    9.027    10.090    -0.472
    362    H    9.036    9.411    -1.206
    363    N    7.652    10.425    -0.034
    364    C    7.370    10.581    1.291
    365    H    7.969    10.519    2.090
    366    C    6.124    10.865    1.700
    367    H    5.716    11.014    2.601
    368    C    6.664    10.557    -1.002
    369    O    6.939    10.423    -2.193
    370    N    5.397    10.845    -0.595
    371    C    5.112    10.998    0.704
    372    N    3.866    11.270    1.075
    373    H    3.153    11.357    0.365
    374    H    3.633    11.389    2.050
    375    C    9.876    11.292    -0.894
    376    H    9.261    12.060    -1.076
    377    O    10.704    10.988    -2.020
    378    H    10.326    10.364    -2.644
    379    C    10.702    11.601    0.350
    380    H    10.140    12.080    1.025
    381    O    11.929    12.278    0.042
    382    P    12.053    13.887    -0.014
    383    O    13.416    14.256    -0.449
    384    O    11.514    14.480    1.227
    385    O    11.057    14.249    -1.217
    386    C    11.305    13.715    -2.520
    387    H    11.427    12.725    -2.448
    388    H    12.031    14.246    -2.957
    389    C    10.100    13.890    -3.427
    390    H    10.292    13.444    -4.301
    391    O    8.950    13.310    -2.859
    392    C    7.823    13.929    -3.499
    393    H    7.496    13.278    -4.184
    394    N    6.819    14.199    -2.449
    395    C    7.183    14.264    -1.132
    396    H    8.083    14.147    -0.712
    397    C    5.509    14.386    -2.847
    398    O    5.161    14.332    -4.023
    399    N    4.604    14.645    -1.840
    400    H    3.623    14.792    -2.116
    401    C    4.883    14.727    -0.492
    402    O    3.988    14.956    0.316
    403    C    6.275    14.519    -0.164
    404    H    6.392    14.599    0.826
    405    C    8.325    15.189    -4.208
    406    H    7.794    15.965    -3.867
    407    O    8.277    15.053    -5.633
    408    H    7.554    14.515    -5.965
    409    C    9.767    15.334    -3.743
    410    H    9.793    15.867    -2.897
    411    O    10.567    15.727    -4.868
    412    P    10.915    17.282    -5.107
    413    O    11.543    17.436    -6.444
    414    O    11.646    17.712    -3.888
    415    O    9.466    17.998    -5.158
    416    C    8.591    17.856    -6.286
    417    H    8.475    16.883    -6.488
    418    H    8.910    18.453    -7.022
    419    C    7.191    18.359    -5.946
    420    H    6.629    18.361    -6.773
    421    O    6.581    17.526    -4.977
    422    C    5.672    18.320    -4.191
    423    H    4.750    17.986    -4.387
    424    N    6.062    18.181    -2.774
    425    C    5.241    18.353    -1.682
    426    N    2.106    19.000    -0.337
    427    H    1.605    19.102    0.534
    428    H    1.566    19.109    -1.183
    429    N    3.919    18.633    -1.714
    430    C    3.397    18.739    -0.489
    431    N    4.121    18.582    0.665
    432    H    3.618    18.686    1.558
    433    C    5.471    18.295    0.724
    434    O    6.022    18.177    1.811
    435    C    6.038    18.179    -0.573
    436    N    7.348    17.900    -0.954
    437    C    7.292    17.916    -2.247
    438    H    8.202    17.722    -2.615
    439    C    5.799    19.749    -4.698
    440    H    5.827    20.359    -3.906
    441    O    4.764    20.074    -5.635
    442    H    3.917    19.655    -5.465
    443    C    7.157    19.769    -5.387
    444    H    7.880    19.866    -4.703
    445    O    7.108    20.662    -6.502
    446    P    7.932    22.036    -6.402
    447    O    7.771    22.780    -7.672
    448    O    9.287    21.717    -5.880
    449    O    7.066    22.769    -5.256
    450    C    7.625    23.817    -4.468
    451    H    7.790    24.611    -5.053
    452    H    8.394    23.454    -3.942
    453    C    6.630    24.304    -3.420
    454    H    7.072    24.917    -2.766
    455    O    5.599    25.014    -4.097
    456    C    4.326    24.386    -3.872
    457    H    3.733    25.093    -3.487
    458    N    3.834    23.900    -5.182
    459    C    4.534    22.971    -5.899
    460    H    5.392    22.504    -5.686
    461    C    4.089    22.546    -7.095
    462    H    4.441    21.891    -7.764
    463    C    2.644    24.431    -5.661
    464    O    2.027    25.260    -4.998
    465    N    2.187    24.004    -6.872
    466    C    2.868    23.095    -7.582
    467    N    2.397    22.705    -8.764
    468    H    1.533    23.105    -9.101
    469    H    2.894    22.021    -9.317
    470    C    4.513    23.273    -2.835
    471    H    4.206    22.420    -3.257
    472    O    3.827    23.550    -1.611
    473    H    3.021    24.063    -1.705
    474    C    6.013    23.191    -2.585
    475    H    6.325    22.309    -2.937
    476    O    6.309    23.452    -1.206
    477    P    5.969    22.357    -0.066
    478    O    6.875    22.593    1.082
    479    O    5.913    21.020    -0.695
    480    O    4.470    22.772    0.374
    481    C    4.209    24.057    0.970
    482    H    4.448    24.774    0.315
    483    H    4.634    24.088    1.875
    484    C    2.716    24.273    1.243
    485    H    2.592    25.092    1.803
    486    O    2.029    24.449    0.005
    487    C    0.903    23.571    -0.074
    488    H    0.099    24.140    0.099
    489    N    0.870    22.980    -1.425
    490    C    0.272    22.495    -3.478
    491    N    1.525    21.915    -3.290
    492    C    1.813    22.234    -2.067
    493    H    2.707    21.852    -1.833
    494    N    -1.759    23.185    -4.414
    495    C    -2.047    23.777    -3.255
    496    H    -2.896    24.276    -3.080
    497    N    -1.291    23.812    -2.161
    498    C    -0.134    23.142    -2.347
    499    C    -0.600    22.531    -4.569
    500    N    -0.309    21.985    -5.746
    501    H    -0.970    22.074    -6.504
    502    H    0.567    21.494    -5.855
    503    C    1.019    22.535    1.024
    504    H    1.401    21.703    0.621
    505    O    -0.241    22.312    1.663
    506    H    -1.007    22.402    1.091
    507    C    2.033    23.126    1.998
    508    H    2.709    22.414    2.190
    509    O    1.339    23.713    3.104
    510    P    0.609    22.758    4.181
    511    O    0.617    23.465    5.484
    512    O    1.223    21.412    4.052
    513    O    -0.915    22.691    3.643
    514    C    -2.035    22.885    4.527
    515    H    -1.975    23.797    4.934
    516    H    -2.103    22.100    5.143
    517    C    -3.372    22.894    3.780
    518    H    -4.146    22.848    4.412
    519    O    -3.445    24.123    3.039
    520    C    -3.720    23.831    1.664
    521    H    -4.710    23.896    1.540
    522    N    -3.036    24.843    0.799
    523    C    -1.912    25.497    1.245
    524    H    -1.440    25.419    2.123
    525    C    -3.550    25.101    -0.472
    526    O    -4.544    24.541    -0.918
    527    N    -2.865    26.030    -1.227
    528    H    -3.235    26.231    -2.167
    529    C    -1.733    26.719    -0.852
    530    O    -1.205    27.517    -1.621
    531    C    -1.262    26.401    0.474
    532    H    -0.442    26.940    0.666
    533    C    -3.284    22.372    1.450
    534    H    -2.300    22.360    1.271
    535    O    -4.013    21.751    0.385
    536    H    -4.262    22.339    -0.332
    537    C    -3.552    21.725    2.816
    538    H    -2.840    21.045    2.992
    539    O    -4.874    21.161    2.885
    540    P    -5.215    19.601    2.599
    541    O    -6.642    19.373    2.911
    542    O    -4.205    18.726    3.224
    543    O    -5.041    19.487    1.002
    544    C    -5.899    20.227    0.122
    545    H    -5.764    21.205    0.282
    546    H    -6.828    19.864    0.192
    547    C    -5.511    20.017    -1.339
    548    H    -6.178    20.472    -1.929
    549    O    -4.197    20.566    -1.602
    550    C    -3.767    19.990    -2.834
    551    H    -3.973    20.660    -3.547
    552    N    -2.316    19.750    -2.748
    553    C    -0.215    19.415    -3.283
    554    N    -0.257    19.467    -1.890
    555    C    -1.517    19.668    -1.643
    556    H    -1.650    19.724    -0.653
    557    N    0.518    19.228    -5.499
    558    C    -0.743    19.403    -5.890
    559    H    -1.035    19.415    -6.846
    560    N    -1.802    19.587    -5.113
    561    C    -1.462    19.584    -3.809
    562    C    0.827    19.227    -4.194
    563    N    2.088    19.049    -3.827
    564    H    2.791    18.918    -4.540
    565    H    2.316    19.049    -2.843
    566    C    -4.610    18.728    -3.075
    567    H    -3.984    17.954    -3.169
    568    O    -5.454    18.882    -4.224
    569    H    -5.090    19.429    -4.924
    570    C    -5.420    18.562    -1.781
    571    H    -4.883    18.051    -1.110
    572    O    -6.711    17.980    -2.043
    573    P    -6.992    16.390    -1.931
    574    O    -8.376    16.114    -2.373
    575    O    -6.565    15.894    -0.606
    576    O    -6.005    15.768    -3.041
    577    C    -6.183    16.117    -4.416
    578    H    -6.276    17.110    -4.490
    579    H    -6.907    15.548    -4.805
    580    C    -4.952    15.789    -5.254
    581    H    -5.195    15.986    -6.204
    582    O    -3.812    16.601    -4.881
    583    C    -2.628    15.839    -5.192
    584    H    -2.170    16.331    -5.933
    585    N    -1.814    15.778    -3.965
    586    C    -0.131    15.593    -2.570
    587    N    -1.265    15.796    -1.787
    588    C    -2.213    15.892    -2.665
    589    H    -3.082    16.036    -2.192
    590    N    2.077    15.232    -3.266
    591    C    1.638    15.239    -4.527
    592    H    2.229    15.113    -5.324
    593    N    0.385    15.408    -4.939
    594    C    -0.454    15.579    -3.896
    595    C    1.216    15.410    -2.251
    596    N    1.670    15.423    -1.001
    597    H    2.659    15.298    -0.838
    598    H    1.015    15.557    -0.244
    599    C    -3.061    14.454    -5.703
    600    H    -2.507    13.759    -5.244
    601    O    -3.007    14.379    -7.131
    602    H    -2.295    14.879    -7.536
    603    C    -4.501    14.346    -5.212
    604    H    -4.497    14.034    -4.262
    605    O    -5.300    13.717    -6.230
    606    P    -5.219    12.120    -6.449
    607    O    -6.060    11.757    -7.621
    608    O    -5.533    11.613    -5.090
    609    O    -3.670    11.792    -6.814
    610    C    -3.056    12.174    -8.056
    611    H    -3.149    13.163    -8.175
    612    H    -3.398    11.580    -8.784
    613    C    -1.555    11.918    -8.005
    614    H    -1.152    12.179    -8.882
    615    O    -0.909    12.655    -6.956