!*** FMO 5.2 (Gamess) INPUT generated by Facio 21.1.1.32 ***
 $CONTRL RUNTYP=OPTFMO NPRINT=-5 ISPHER=-1 MAXIT=50 $END
 $SYSTEM MWORDS=29 $END
 $GDDI NGROUP=1 $END
 $INTGRL NINTIC=-9000000 $END
 $SCF DIRSCF=.FALSE. NPUNCH=0 $END
!*** NumCPU : 2  MemPerNode : 512MB
 $FMOPRP
    NAODIR=210
    NGRFMO(1)=1, 1, 0, 0, 0,   0, 0, 0, 0, 0
    NPRINT=9
 $END
 $FMO
      SCFTYP(1)=RHF
      MODGRD=10
      MODMUL=0
      MAXCAO=5
      MAXBND=34
      NLAYER=1
      NFRAG=32
      ICHARG(1)=-1, -1, -1, -1, -1, -1, -1, -1, -1, -1, 
-1, -1, -1, -1, -1, -1, -1, -1, -1, -1, 
-1, -1, -1, -1, -1, -1, -1, -1, -1, -1, 
-1, 0
      FRGNAM(1)=Frag1, Frag2, Frag3, Frag4, Frag5, Frag6, Frag7, Frag8, Frag9, Frag10, Frag11, Frag12, Frag13, Frag14, Frag15, Frag16, Frag17, Frag18, Frag19, Frag20, Frag21, Frag22, Frag23, Frag24, Frag25, Frag26, Frag27, Frag28, Frag29, Frag30, Frag31, Frag32
      indat(1)=0
               1   -36   0
               37   -69   0
               70   -103   0
               104   -134   0
               135   -167   0
               168   -201   0
               202   -231   0
               232   -261   0
               262   -292   0
               293   -323   0
               324   -354   0
               355   -385   0
               386   -415   0
               416   -449   0
               450   -480   0
               481   -513   0
               514   -543   0
               544   -576   0
               577   -609   0
               610   -643   0
               644   -677   0
               678   -710   0
               711   -740   0
               741   -774   0
               775   -807   0
               808   -840   0
               841   -871   0
               872   -902   0
               903   -936   0
               937   -966   0
               967   -996   0
               997   -1024   0
 $END

 $FMOBND
   -37   36       3-21G    MINI
   -70   69       3-21G    MINI
   -104   103       3-21G    MINI
   -135   134       3-21G    MINI
   -168   167       3-21G    MINI
   -202   201       3-21G    MINI
   -232   231       3-21G    MINI
   -262   261       3-21G    MINI
   -293   292       3-21G    MINI
   -324   323       3-21G    MINI
   -355   354       3-21G    MINI
   -386   385       3-21G    MINI
   -416   415       3-21G    MINI
   -450   449       3-21G    MINI
   -481   480       3-21G    MINI
   -514   513       3-21G    MINI
   -544   543       3-21G    MINI
   -577   576       3-21G    MINI
   -610   609       3-21G    MINI
   -644   643       3-21G    MINI
   -678   677       3-21G    MINI
   -711   710       3-21G    MINI
   -741   740       3-21G    MINI
   -775   774       3-21G    MINI
   -808   807       3-21G    MINI
   -841   840       3-21G    MINI
   -872   871       3-21G    MINI
   -903   902       3-21G    MINI
   -937   936       3-21G    MINI
   -967   966       3-21G    MINI
   -997   996       3-21G    MINI
 $END
 $FMOHYB
 3-21G        9   5
   1 0  -0.070459   0.164841   0.000000   0.000000   0.502116
         0.466939   0.000000   0.000000   0.418036
   0 1  -0.070465   0.164857   0.473392   0.000000  -0.167359
         0.466967   0.394111   0.000000  -0.139327
   0 1  -0.070465   0.164857  -0.236695  -0.409969  -0.167359
         0.466967  -0.197055  -0.341311  -0.139327
   0 1  -0.070465   0.164857  -0.236695   0.409969  -0.167359
         0.466967  -0.197055   0.341311  -0.139327
   0 1   1.006716   0.074826   0.000000   0.000000   0.000000
        -0.143830   0.000000   0.000000  -0.000003
 MINI         5   5
   1 0  -0.104883   0.308874   0.000000   0.000000   0.521806
   0 1  -0.104883   0.308874   0.491961   0.000000  -0.173934
   0 1  -0.104883   0.308876  -0.245980  -0.426050  -0.173933
   0 1  -0.104883   0.308876  -0.245980   0.426050  -0.173933
   0 1   0.988209   0.063992   0.000000   0.000000   0.000000
 $END

 $DATA
 FMO calculation : XXNAMEXX
 C1 
 C.1-1    6
      N21 3
   
 O.1-1    8
      N21 3
   
 N.1-1    7
      N21 3
   
 H.1-1    1
      N21 3
   
 P.1-1   15
      N21 3
   
 $END
 $FMOXYZ
    1    H    6.775    -24.854    3.780
    2    O    6.129    -24.836    3.017
    3    C    6.455    -25.891    2.104
    4    H    6.314    -26.770    2.559
    5    H    7.353    -25.709    1.704
    6    C    5.505    -25.924    0.908
    7    H    5.826    -26.602    0.247
    8    O    4.187    -26.252    1.300
    9    C    3.315    -25.831    0.231
    10    H    3.186    -26.626    -0.361
    11    N    2.050    -25.372    0.846
    12    C    0.826    -25.288    0.222
    13    N    -1.158    -25.737    -2.590
    14    H    -2.100    -25.632    -2.940
    15    H    -0.476    -26.109    -3.235
    16    N    0.561    -25.635    -1.059
    17    C    -0.721    -25.439    -1.375
    18    N    -1.657    -24.944    -0.503
    19    H    -2.619    -24.833    -0.853
    20    C    -1.413    -24.582    0.808
    21    O    -2.326    -24.146    1.503
    22    C    -0.050    -24.786    1.160
    23    N    0.606    -24.555    2.367
    24    C    1.826    -24.917    2.116
    25    H    2.380    -24.785    2.938
    26    C    4.050    -24.740    -0.553
    27    H    3.533    -23.889    -0.460
    28    O    4.259    -25.109    -1.922
    29    H    3.567    -25.653    -2.305
    30    C    5.375    -24.596    0.179
    31    H    5.287    -23.862    0.853
    32    O    6.457    -24.391    -0.740
    33    P    6.942    -22.901    -1.106
    34    O    8.135    -23.018    -1.972
    35    O    7.020    -22.053    0.109
    36    O    5.735    -22.344    -2.012
    37    C    5.423    -22.995    -3.248
    38    H    5.279    -23.969    -3.075
    39    H    6.104    -22.736    -3.933
    40    C    4.101    -22.523    -3.841
    41    H    3.964    -22.952    -4.734
    42    O    2.999    -22.878    -2.973
    43    C    1.894    -22.059    -3.406
    44    H    1.434    -22.560    -4.139
    45    N    1.011    -21.837    -2.243
    46    C    -0.762    -21.557    -0.977
    47    N    0.339    -21.425    -0.136
    48    C    1.345    -21.598    -0.939
    49    H    2.195    -21.518    -0.418
    50    N    -2.954    -21.654    -1.802
    51    C    -2.445    -21.893    -3.012
    52    H    -3.000    -22.031    -3.832
    53    N    -1.158    -21.988    -3.338
    54    C    -0.366    -21.807    -2.260
    55    C    -2.138    -21.478    -0.750
    56    N    -2.660    -21.244    0.451
    57    H    -3.664    -21.203    0.549
    58    H    -2.040    -21.113    1.237
    59    C    2.493    -20.775    -3.981
    60    H    2.308    -20.041    -3.328
    61    O    1.999    -20.499    -5.294
    62    H    1.098    -20.788    -5.457
    63    C    3.993    -21.019    -4.040
    64    H    4.420    -20.556    -3.263
    65    O    4.510    -20.647    -5.331
    66    P    4.593    -19.112    -5.823
    67    O    5.432    -19.034    -7.044
    68    O    4.934    -18.267    -4.657
    69    O    3.078    -18.778    -6.257
    70    C    2.495    -19.414    -7.400
    71    H    2.577    -20.405    -7.298
    72    H    2.865    -18.996    -8.229
    73    C    0.994    -19.166    -7.489
    74    H    0.575    -19.617    -8.277
    75    O    0.366    -19.638    -6.294
    76    C    -0.980    -19.117    -6.254
    77    H    -1.602    -19.799    -6.640
    78    N    -1.291    -18.792    -4.847
    79    C    -2.517    -18.414    -4.353
    80    N    -5.882    -17.724    -4.854
    81    H    -6.726    -17.434    -4.381
    82    H    -5.959    -17.902    -5.845
    83    N    -3.658    -18.284    -5.070
    84    C    -4.684    -17.896    -4.314
    85    N    -4.595    -17.659    -2.966
    86    H    -5.454    -17.367    -2.478
    87    C    -3.445    -17.781    -2.211
    88    O    -3.476    -17.540    -1.008
    89    C    -2.338    -18.193    -3.005
    90    N    -1.014    -18.431    -2.643
    91    C    -0.458    -18.777    -3.764
    92    H    0.509    -18.971    -3.601
    93    C    -0.889    -17.923    -7.215
    94    H    -1.255    -17.129    -6.730
    95    O    -1.557    -18.183    -8.454
    96    H    -2.315    -18.768    -8.391
    97    C    0.591    -17.701    -7.482
    98    H    1.031    -17.246    -6.707
    99    O    0.810    -17.045    -8.749
    100    P    1.051    -15.457    -8.935
    101    O    1.252    -15.086    -10.360
    102    O    2.086    -15.078    -7.949
    103    O    -0.342    -14.795    -8.470
    104    C    -1.504    -14.924    -9.296
    105    H    -1.680    -15.894    -9.461
    106    H    -1.407    -14.324    -10.090
    107    C    -2.770    -14.427    -8.604
    108    H    -3.545    -14.458    -9.235
    109    O    -3.062    -15.249    -7.466
    110    C    -3.890    -14.468    -6.587
    111    H    -4.817    -14.833    -6.669
    112    N    -3.344    -14.602    -5.221
    113    C    -2.028    -14.900    -5.016
    114    H    -1.298    -15.094    -5.672
    115    C    -1.527    -14.969    -3.771
    116    H    -0.617    -15.168    -3.408
    117    C    -4.206    -14.368    -4.162
    118    O    -5.390    -14.118    -4.370
    119    N    -3.706    -14.433    -2.899
    120    C    -2.416    -14.719    -2.684
    121    N    -1.950    -14.743    -1.441
    122    H    -2.582    -14.544    -0.679
    123    H    -0.980    -14.957    -1.258
    124    C    -3.873    -13.026    -7.110
    125    H    -3.688    -12.416    -6.339
    126    O    -5.083    -12.698    -7.805
    127    H    -5.874    -13.120    -7.463
    128    C    -2.681    -13.004    -8.056
    129    H    -1.833    -12.909    -7.534
    130    O    -2.879    -12.027    -9.119
    131    P    -2.713    -10.416    -9.090
    132    O    -2.999    -9.709    -10.375
    133    O    -1.355    -10.318    -8.530
    134    O    -3.753    -9.818    -8.011
    135    C    -5.151    -9.715    -8.314
    136    H    -5.507    -10.626    -8.521
    137    H    -5.284    -8.994    -8.994
    138    C    -5.965    -9.254    -7.107
    139    H    -6.922    -9.128    -7.367
    140    O    -5.889    -10.250    -6.027
    141    C    -6.238    -9.541    -4.823
    142    H    -7.173    -9.811    -4.594
    143    N    -5.271    -9.945    -3.781
    144    C    -4.335    -10.398    -1.847
    145    N    -3.402    -10.750    -2.821
    146    C    -4.012    -10.458    -3.930
    147    H    -3.412    -10.677    -4.699
    148    N    -5.397    -10.028    0.206
    149    C    -6.451    -9.567    -0.466
    150    H    -7.288    -9.234    -0.032
    151    N    -6.580    -9.469    -1.787
    152    C    -5.473    -9.906    -2.419
    153    C    -4.311    -10.458    -0.452
    154    N    -3.271    -10.916    0.238
    155    H    -3.321    -10.931    1.247
    156    H    -2.455    -11.239    -0.262
    157    C    -6.218    -8.042    -5.157
    158    H    -5.678    -7.584    -4.451
    159    O    -7.540    -7.510    -5.293
    160    H    -8.202    -7.921    -4.732
    161    C    -5.484    -7.942    -6.486
    162    H    -4.496    -7.993    -6.342
    163    O    -5.957    -6.795    -7.253
    164    P    -5.787    -5.204    -6.982
    165    O    -6.557    -4.235    -7.825
    166    O    -4.332    -5.265    -7.146
    167    O    -6.121    -4.825    -5.449
    168    C    -7.472    -4.662    -5.001
    169    H    -8.034    -5.391    -5.391
    170    H    -7.756    -3.716    -5.159
    171    C    -7.604    -4.849    -3.491
    172    H    -8.559    -4.948    -3.211
    173    O    -6.889    -6.020    -3.119
    174    C    -6.644    -5.951    -1.703
    175    H    -7.314    -6.540    -1.251
    176    N    -5.254    -6.399    -1.471
    177    C    -4.663    -6.612    -0.246
    178    N    -4.829    -6.608    3.222
    179    H    -4.293    -6.798    4.057
    180    H    -5.778    -6.291    3.358
    181    N    -5.249    -6.440    0.962
    182    C    -4.420    -6.730    1.967
    183    N    -3.127    -7.152    1.794
    184    H    -2.574    -7.346    2.641
    185    C    -2.506    -7.338    0.573
    186    O    -1.344    -7.733    0.529
    187    C    -3.378    -7.032    -0.508
    188    N    -3.150    -7.082    -1.882
    189    C    -4.284    -6.700    -2.384
    190    H    -4.216    -6.703    -3.382
    191    C    -6.928    -4.490    -1.325
    192    H    -6.147    -4.161    -0.795
    193    O    -8.173    -4.352    -0.631
    194    H    -8.418    -5.103    -0.086
    195    C    -6.984    -3.734    -2.646
    196    H    -6.062    -3.544    -2.983
    197    O    -7.870    -2.575    -2.541
    198    P    -7.679    -1.122    -1.841
    199    O    -8.830    -0.165    -1.877
    200    O    -6.476    -0.774    -2.604
    201    O    -7.261    -1.229    -0.281
    202    C    -8.235    -1.433    0.756
    203    H    -8.802    -2.222    0.519
    204    H    -8.694    -0.565    0.946
    205    C    -7.588    -1.818    2.085
    206    H    -8.261    -1.967    2.809
    207    O    -6.848    -2.999    1.898
    208    C    -5.763    -3.030    2.845
    209    H    -5.936    -3.783    3.480
    210    N    -4.507    -3.199    2.077
    211    C    -4.458    -2.899    0.742
    212    H    -5.182    -2.567    0.138
    213    C    -3.391    -3.653    2.754
    214    O    -3.408    -3.927    3.948
    215    N    -2.241    -3.779    2.003
    216    H    -1.397    -4.114    2.490
    217    C    -2.106    -3.500    0.659
    218    O    -1.026    -3.647    0.098
    219    C    -3.317    -3.032    0.030
    220    H    -3.133    -2.852    -0.936
    221    C    -5.868    -1.710    3.600
    222    H    -4.945    -1.363    3.765
    223    O    -6.640    -1.833    4.800
    224    H    -6.555    -2.676    5.252
    225    C    -6.563    -0.807    2.598
    226    H    -5.942    -0.566    1.852
    227    O    -7.230    0.272    3.290
    228    P    -6.543    1.572    3.982
    229    O    -7.458    2.452    4.760
    230    O    -6.055    1.986    2.666
    231    O    -5.276    1.217    4.923
    232    C    -5.454    0.825    6.291
    233    H    -6.063    0.033    6.326
    234    H    -5.700    1.630    6.831
    235    C    -4.159    0.329    6.928
    236    H    -4.289    0.025    7.872
    237    O    -3.660    -0.744    6.166
    238    C    -2.233    -0.839    6.360
    239    H    -2.060    -1.653    6.914
    240    N    -1.612    -0.922    5.019
    241    C    -2.299    -0.526    3.904
    242    H    -3.232    -0.174    3.823
    243    C    -0.312    -1.387    4.935
    244    O    0.323    -1.752    5.920
    245    N    0.238    -1.422    3.672
    246    H    1.206    -1.765    3.590
    247    C    -0.382    -1.041    2.500
    248    O    0.213    -1.111    1.430
    249    C    -1.737    -0.572    2.675
    250    H    -2.113    -0.321    1.783
    251    C    -1.849    0.405    7.168
    252    H    -1.023    0.804    6.770
    253    O    -1.712    0.114    8.560
    254    H    -1.358    -0.756    8.759
    255    C    -3.025    1.338    6.907
    256    H    -2.952    1.727    5.989
    257    O    -3.219    2.218    8.030
    258    P    -2.341    3.552    8.325
    259    O    -2.666    4.191    9.626
    260    O    -2.742    4.154    7.050
    261    O    -0.767    3.208    8.288
    262    C    -0.120    2.576    9.400
    263    H    -0.579    1.709    9.594
    264    H    -0.033    3.237    10.145
    265    C    1.312    2.187    9.061
    266    H    1.776    1.687    9.793
    267    O    1.305    1.374    7.868
    268    C    2.601    1.384    7.244
    269    H    3.073    0.530    7.464
    270    N    2.393    1.557    5.789
    271    C    1.222    2.061    5.302
    272    H    0.396    2.359    5.781
    273    C    1.044    2.224    3.979
    274    H    0.283    2.565    3.427
    275    C    3.433    1.200    4.942
    276    O    4.483    0.754    5.402
    277    N    3.261    1.363    3.604
    278    C    2.117    1.857    3.114
    279    N    1.984    2.010    1.801
    280    H    2.752    1.749    1.199
    281    H    1.130    2.381    1.409
    282    C    3.293    2.540    7.976
    283    H    3.742    3.101    7.280
    284    O    4.197    2.069    8.980
    285    H    4.613    1.225    8.787
    286    C    2.183    3.353    8.627
    287    H    1.690    3.890    7.943
    288    O    2.702    4.079    9.754
    289    P    3.235    5.597    9.634
    290    O    3.823    6.049    10.917
    291    O    2.083    6.315    9.054
    292    O    4.414    5.563    8.535
    293    C    5.671    4.930    8.810
    294    H    5.502    4.001    9.140
    295    H    6.223    5.537    9.381
    296    C    6.484    4.748    7.538
    297    H    7.348    4.264    7.675
    298    O    5.699    4.035    6.589
    299    C    6.102    4.413    5.259
    300    H    6.511    3.612    4.821
    301    N    4.887    4.891    4.557
    302    C    3.774    5.250    5.262
    303    H    3.613    5.264    6.249
    304    C    2.663    5.666    4.632
    305    H    1.764    5.965    4.952
    306    C    4.910    4.948    3.168
    307    O    5.924    4.631    2.553
    308    N    3.785    5.369    2.521
    309    C    2.690    5.721    3.206
    310    N    1.605    6.121    2.550
    311    H    1.628    6.152    1.541
    312    H    0.770    6.390    3.050
    313    C    7.188    5.465    5.485
    314    H    7.111    6.169    4.779
    315    O    8.493    4.884    5.561
    316    H    8.635    4.130    4.985
    317    C    6.771    6.056    6.821
    318    H    5.919    6.571    6.729
    319    O    7.855    6.771    7.433
    320    P    8.077    8.350    7.210
    321    O    9.235    8.803    8.018
    322    O    6.748    8.967    7.409
    323    O    8.474    8.492    5.659
    324    C    9.735    8.000    5.196
    325    H    9.796    7.022    5.394
    326    H    10.462    8.594    5.540
    327    C    9.860    8.087    3.684
    328    H    10.750    7.774    3.353
    329    O    8.831    7.305    3.066
    330    C    8.517    7.904    1.794
    331    H    8.766    7.241    1.088
    332    N    7.065    8.206    1.802
    333    C    6.386    8.320    2.980
    334    H    6.711    8.241    3.922
    335    C    5.067    8.579    2.992
    336    H    4.398    8.697    3.726
    337    C    6.421    8.353    0.579
    338    O    7.051    8.257    -0.472
    339    N    5.084    8.617    0.582
    340    C    4.409    8.731    1.735
    341    N    3.104    8.991    1.705
    342    H    2.648    9.097    0.810
    343    H    2.576    9.081    2.561
    344    C    9.421    9.130    1.667
    345    H    8.922    9.873    1.221
    346    O    10.657    8.830    1.014
    347    H    10.593    8.192    0.299
    348    C    9.606    9.470    3.137
    349    H    8.748    9.818    3.516
    350    O    10.851    10.142    3.313
    351    P    10.949    11.742    3.036
    352    O    12.352    12.135    3.267
    353    O    9.843    12.018    3.960
    354    O    10.502    11.996    1.511
    355    C    11.379    11.702    0.421
    356    H    11.570    10.720    0.412
    357    H    12.156    12.330    0.450
    358    C    10.688    11.985    -0.907
    359    H    11.271    11.776    -1.692
    360    O    9.479    11.220    -1.006
    361    C    8.563    11.921    -1.865
    362    H    8.497    11.393    -2.712
    363    N    7.273    12.005    -1.144
    364    C    7.232    11.879    0.213
    365    H    7.972    11.746    0.872
    366    C    6.064    11.927    0.872
    367    H    5.820    11.857    1.839
    368    C    6.114    12.190    -1.888
    369    O    6.173    12.312    -3.110
    370    N    4.925    12.240    -1.226
    371    C    4.876    12.115    0.106
    372    N    3.702    12.159    0.725
    373    H    2.865    12.287    0.175
    374    H    3.645    12.067    1.729
    375    C    9.204    13.274    -2.171
    376    H    8.508    13.986    -2.081
    377    O    9.839    13.294    -3.452
    378    H    9.405    12.769    -4.128
    379    C    10.212    13.420    -1.039
    380    H    9.736    13.684    -0.200
    381    O    11.299    14.256    -1.436
    382    P    11.234    15.817    -1.050
    383    O    12.458    16.477    -1.552
    384    O    10.888    15.835    0.387
    385    O    9.973    16.344    -1.898
    386    C    10.010    16.317    -3.328
    387    H    10.223    15.388    -3.631
    388    H    10.594    17.061    -3.653
    389    C    8.646    16.611    -3.936
    390    H    8.674    16.522    -4.932
    391    O    7.678    15.719    -3.422
    392    C    6.397    16.342    -3.611
    393    H    5.993    15.917    -4.421
    394    N    5.599    16.092    -2.392
    395    C    6.207    15.762    -1.211
    396    H    7.178    15.643    -1.006
    397    C    4.225    16.209    -2.487
    398    O    3.658    16.503    -3.535
    399    N    3.517    15.979    -1.326
    400    H    2.492    16.066    -1.375
    401    C    4.048    15.642    -0.099
    402    O    3.314    15.452    0.867
    403    C    5.490    15.541    -0.087
    404    H    5.792    15.299    0.835
    405    C    6.642    17.827    -3.897
    406    H    6.123    18.363    -3.231
    407    O    6.323    18.171    -5.250
    408    H    5.593    17.679    -5.632
    409    C    8.129    18.003    -3.623
    410    H    8.266    18.190    -2.650
    411    O    8.725    19.064    -4.385
    412    P    9.107    20.438    -3.654
    413    O    9.590    21.378    -4.686
    414    O    9.935    20.311    -2.426
    415    O    7.682    20.997    -3.157
    416    C    6.660    21.299    -4.117
    417    H    6.563    20.526    -4.743
    418    H    6.839    22.201    -4.510
    419    C    5.279    21.438    -3.480
    420    H    4.607    21.752    -4.151
    421    O    4.861    20.185    -2.957
    422    C    4.007    20.413    -1.817
    423    H    3.093    20.094    -2.068
    424    N    4.578    19.683    -0.667
    425    C    3.892    19.239    0.443
    426    N    0.916    18.829    2.183
    427    H    0.523    18.462    3.038
    428    H    0.267    19.249    1.532
    429    N    2.561    19.346    0.653
    430    C    2.192    18.819    1.823
    431    N    3.064    18.238    2.708
    432    H    2.671    17.863    3.583
    433    C    4.427    18.117    2.516
    434    O    5.117    17.581    3.374
    435    C    4.832    18.672    1.274
    436    N    6.099    18.753    0.703
    437    C    5.879    19.352    -0.425
    438    H    6.746    19.456    -0.913
    439    C    3.967    21.922    -1.610
    440    H    4.043    22.107    -0.630
    441    O    2.800    22.509    -2.198
    442    H    2.014    21.959    -2.174
    443    C    5.233    22.405    -2.305
    444    H    6.024    22.239    -1.716
    445    O    5.196    23.803    -2.622
    446    P    6.011    24.823    -1.691
    447    O    5.825    26.187    -2.223
    448    O    7.403    24.378    -1.446
    449    O    5.281    24.774    -0.247
    450    C    5.865    25.270    0.970
    451    H    5.954    26.264    0.907
    452    H    6.686    24.738    1.178
    453    C    4.949    25.045    2.176
    454    H    5.438    25.232    3.028
    455    O    3.848    25.941    2.068
    456    C    2.613    25.211    1.962
    457    H    2.027    25.549    2.698
    458    N    2.043    25.494    0.624
    459    C    2.719    25.161    -0.516
    460    H    3.605    24.712    -0.632
    461    C    2.204    25.434    -1.728
    462    H    2.528    25.279    -2.661
    463    C    0.805    26.120    0.568
    464    O    0.211    26.406    1.604
    465    N    0.277    26.400    -0.657
    466    C    0.934    26.078    -1.778
    467    N    0.392    26.371    -2.958
    468    H    -0.507    26.832    -2.982
    469    H    0.869    26.138    -3.817
    470    C    2.910    23.727    2.202
    471    H    2.604    23.228    1.391
    472    O    2.303    23.240    3.403
    473    H    1.476    23.665    3.640
    474    C    4.426    23.621    2.306
    475    H    4.740    23.086    1.522
    476    O    4.801    23.126    3.601
    477    P    4.524    21.584    4.010
    478    O    5.472    21.227    5.090
    479    O    4.503    20.809    2.752
    480    O    3.028    21.594    4.630
    481    C    2.718    22.292    5.853
    482    H    2.872    23.271    5.717
    483    H    3.190    21.844    6.612
    484    C    1.231    22.197    6.230
    485    H    1.090    22.560    7.151
    486    O    0.477    22.979    5.301
    487    C    -0.600    22.211    4.759
    488    H    -1.426    22.524    5.228
    489    N    -0.674    22.467    3.308
    490    C    -1.355    23.154    1.339
    491    N    -0.062    22.667    1.155
    492    C    0.274    22.277    2.346
    493    H    1.200    21.900    2.316
    494    N    -3.470    24.086    0.973
    495    C    -3.728    23.913    2.269
    496    H    -4.593    24.164    2.704
    497    N    -2.916    23.396    3.187
    498    C    -1.734    23.033    2.644
    499    C    -2.285    23.719    0.464
    500    N    -2.029    23.941    -0.822
    501    H    -2.735    24.384    -1.393
    502    H    -1.134    23.662    -1.198
    503    C    -0.366    20.752    5.094
    504    H    0.052    20.321    4.294
    505    O    -1.576    20.117    5.515
    506    H    -2.374    20.450    5.099
    507    C    0.646    20.770    6.233
    508    H    1.370    20.121    6.002
    509    O    -0.032    20.469    7.465
    510    P    -0.689    19.023    7.769
    511    O    -0.675    18.779    9.230
    512    O    -0.092    17.989    6.888
    513    O    -2.240    19.174    7.331
    514    C    -3.332    18.780    8.188
    515    H    -3.263    19.278    9.053
    516    H    -3.374    17.782    8.224
    517    C    -4.688    19.197    7.616
    518    H    -5.433    18.766    8.126
    519    O    -4.813    20.622    7.722
    520    C    -5.127    21.173    6.436
    521    H    -6.122    21.264    6.390
    522    N    -4.477    22.515    6.309
    523    C    -3.347    22.813    7.031
    524    H    -2.849    22.250    7.690
    525    C    -5.029    23.450    5.433
    526    O    -6.031    23.230    4.763
    527    N    -4.375    24.661    5.347
    528    H    -4.773    25.363    4.707
    529    C    -3.238    25.030    6.033
    530    O    -2.740    26.139    5.861
    531    C    -2.727    24.013    6.918
    532    H    -1.907    24.360    7.373
    533    C    -4.672    20.128    5.406
    534    H    -3.693    20.247    5.239
    535    O    -5.436    20.213    4.196
    536    H    -5.711    21.100    3.952
    537    C    -4.893    18.810    6.158
    538    H    -4.174    18.170    5.887
    539    O    -6.261    18.409    5.989
    540    P    -6.675    17.337    4.845
    541    O    -8.108    17.015    5.034
    542    O    -5.635    16.296    4.950
    543    O    -6.493    18.141    3.455
    544    C    -7.383    19.204    3.078
    545    H    -7.278    19.961    3.724
    546    H    -8.299    18.828    2.941
    547    C    -6.996    19.792    1.722
    548    H    -7.671    20.473    1.437
    549    O    -5.692    20.414    1.772
    550    C    -5.263    20.551    0.418
    551    H    -5.494    21.485    0.144
    552    N    -3.808    20.327    0.377
    553    C    -1.705    20.355    -0.241
    554    N    -1.739    19.695    0.988
    555    C    -3.001    19.715    1.294
    556    H    -3.130    19.259    2.175
    557    N    -0.981    21.332    -2.243
    558    C    -2.249    21.652    -2.499
    559    H    -2.548    22.139    -3.320
    560    N    -3.306    21.393    -1.742
    561    C    -2.958    20.739    -0.617
    562    C    -0.665    20.678    -1.115
    563    N    0.603    20.368    -0.881
    564    H    1.304    20.631    -1.558
    565    H    0.838    19.876    -0.031
    566    C    -6.071    19.566    -0.436
    567    H    -5.432    18.953    -0.901
    568    O    -6.936    20.252    -1.351
    569    H    -6.591    21.081    -1.691
    570    C    -6.857    18.767    0.610
    571    H    -6.293    18.008    0.935
    572    O    -8.140    18.440    0.069
    573    P    -8.319    16.999    -0.636
    574    O    -9.694    16.939    -1.177
    575    O    -7.867    16.060    0.409
    576    O    -7.270    16.966    -1.866
    577    C    -7.455    17.816    -3.004
    578    H    -7.564    18.760    -2.691
    579    H    -8.170    17.430    -3.586
    580    C    -6.226    17.866    -3.911
    581    H    -6.440    18.412    -4.721
    582    O    -5.101    18.475    -3.212
    583    C    -3.889    17.922    -3.766
    584    H    -3.434    18.672    -4.245
    585    N    -3.080    17.405    -2.647
    586    C    -1.403    16.721    -1.406
    587    N    -2.548    16.583    -0.625
    588    C    -3.491    16.996    -1.411
    589    H    -4.367    16.929    -0.933
    590    N    0.818    16.701    -2.150
    591    C    0.390    17.190    -3.316
    592    H    0.990    17.395    -4.090
    593    N    -0.863    17.483    -3.650
    594    C    -1.715    17.220    -2.638
    595    C    -0.055    16.453    -1.161
    596    N    0.388    15.986    0.003
    597    H    1.378    15.826    0.121
    598    H    -0.276    15.802    0.742
    599    C    -4.281    16.839    -4.788
    600    H    -3.712    16.031    -4.632
    601    O    -4.209    17.329    -6.129
    602    H    -3.504    17.960    -6.293
    603    C    -5.718    16.518    -4.393
    604    H    -5.706    15.880    -3.623
    605    O    -6.463    15.895    -5.455
    606    P    -6.553    14.295    -5.529
    607    O    -7.487    13.921    -6.608
    608    O    -6.712    13.551    -4.252
    609    O    -5.084    13.904    -6.057
    610    C    -4.567    14.566    -7.220
    611    H    -4.660    15.554    -7.100
    612    H    -4.971    14.153    -8.036
    613    C    -3.069    14.356    -7.403
    614    H    -2.746    14.805    -8.236
    615    O    -2.345    14.888    -6.270
    616    C    -1.078    14.202    -6.221
    617    H    -0.396    14.839    -6.581
    618    N    -0.833    13.846    -4.807