!*** FMO 5.2 (Gamess) INPUT generated by Facio 21.1.1.32 ***
 $CONTRL RUNTYP=OPTFMO NPRINT=-5 ISPHER=-1 MAXIT=50 $END
 $SYSTEM MWORDS=29 $END
 $GDDI NGROUP=1 $END
 $INTGRL NINTIC=-9000000 $END
 $SCF DIRSCF=.FALSE. NPUNCH=0 $END
!*** NumCPU : 2  MemPerNode : 512MB
 $FMOPRP
    NAODIR=210
    NGRFMO(1)=1, 1, 0, 0, 0,   0, 0, 0, 0, 0
    NPRINT=9
 $END
 $FMO
      SCFTYP(1)=RHF
      MODGRD=10
      MODMUL=0
      MAXCAO=5
      MAXBND=34
      NLAYER=1
      NFRAG=32
      ICHARG(1)=-1, -1, -1, -1, -1, -1, -1, -1, -1, -1, 
-1, -1, -1, -1, -1, -1, -1, -1, -1, -1, 
-1, -1, -1, -1, -1, -1, -1, -1, -1, -1, 
-1, 0
      FRGNAM(1)=Frag1, Frag2, Frag3, Frag4, Frag5, Frag6, Frag7, Frag8, Frag9, Frag10, Frag11, Frag12, Frag13, Frag14, Frag15, Frag16, Frag17, Frag18, Frag19, Frag20, Frag21, Frag22, Frag23, Frag24, Frag25, Frag26, Frag27, Frag28, Frag29, Frag30, Frag31, Frag32
      indat(1)=0
               1   -36   0
               37   -69   0
               70   -103   0
               104   -134   0
               135   -167   0
               168   -201   0
               202   -231   0
               232   -261   0
               262   -292   0
               293   -323   0
               324   -354   0
               355   -385   0
               386   -415   0
               416   -449   0
               450   -480   0
               481   -513   0
               514   -543   0
               544   -576   0
               577   -609   0
               610   -643   0
               644   -677   0
               678   -710   0
               711   -740   0
               741   -774   0
               775   -807   0
               808   -840   0
               841   -871   0
               872   -902   0
               903   -936   0
               937   -966   0
               967   -996   0
               997   -1024   0
 $END

 $FMOBND
   -37   36       3-21G    MINI
   -70   69       3-21G    MINI
   -104   103       3-21G    MINI
   -135   134       3-21G    MINI
   -168   167       3-21G    MINI
   -202   201       3-21G    MINI
   -232   231       3-21G    MINI
   -262   261       3-21G    MINI
   -293   292       3-21G    MINI
   -324   323       3-21G    MINI
   -355   354       3-21G    MINI
   -386   385       3-21G    MINI
   -416   415       3-21G    MINI
   -450   449       3-21G    MINI
   -481   480       3-21G    MINI
   -514   513       3-21G    MINI
   -544   543       3-21G    MINI
   -577   576       3-21G    MINI
   -610   609       3-21G    MINI
   -644   643       3-21G    MINI
   -678   677       3-21G    MINI
   -711   710       3-21G    MINI
   -741   740       3-21G    MINI
   -775   774       3-21G    MINI
   -808   807       3-21G    MINI
   -841   840       3-21G    MINI
   -872   871       3-21G    MINI
   -903   902       3-21G    MINI
   -937   936       3-21G    MINI
   -967   966       3-21G    MINI
   -997   996       3-21G    MINI
 $END
 $FMOHYB
 3-21G        9   5
   1 0  -0.070459   0.164841   0.000000   0.000000   0.502116
         0.466939   0.000000   0.000000   0.418036
   0 1  -0.070465   0.164857   0.473392   0.000000  -0.167359
         0.466967   0.394111   0.000000  -0.139327
   0 1  -0.070465   0.164857  -0.236695  -0.409969  -0.167359
         0.466967  -0.197055  -0.341311  -0.139327
   0 1  -0.070465   0.164857  -0.236695   0.409969  -0.167359
         0.466967  -0.197055   0.341311  -0.139327
   0 1   1.006716   0.074826   0.000000   0.000000   0.000000
        -0.143830   0.000000   0.000000  -0.000003
 MINI         5   5
   1 0  -0.104883   0.308874   0.000000   0.000000   0.521806
   0 1  -0.104883   0.308874   0.491961   0.000000  -0.173934
   0 1  -0.104883   0.308876  -0.245980  -0.426050  -0.173933
   0 1  -0.104883   0.308876  -0.245980   0.426050  -0.173933
   0 1   0.988209   0.063992   0.000000   0.000000   0.000000
 $END

 $DATA
 FMO calculation : XXNAMEXX
 C1 
 C.1-1    6
      N21 3
   
 O.1-1    8
      N21 3
   
 N.1-1    7
      N21 3
   
 H.1-1    1
      N21 3
   
 P.1-1   15
      N21 3
   
 $END
 $FMOXYZ
    1    H    8.987    -19.527    0.566
    2    O    8.287    -19.711    -0.124
    3    C    8.885    -20.419    -1.217
    4    H    9.192    -21.315    -0.896
    5    H    9.556    -19.825    -1.661
    6    C    7.870    -20.735    -2.314
    7    H    8.342    -21.133    -3.101
    8    O    6.882    -21.639    -1.865
    9    C    5.768    -21.527    -2.774
    10    H    5.897    -22.234    -3.470
    11    N    4.531    -21.727    -1.986
    12    C    3.306    -22.116    -2.479
    13    N    1.302    -23.082    -5.143
    14    H    0.362    -23.359    -5.389
    15    H    1.975    -23.053    -5.895
    16    N    3.026    -22.407    -3.771
    17    C    1.747    -22.753    -3.938
    18    N    0.829    -22.806    -2.921
    19    H    -0.132    -23.087    -3.164
    20    C    1.089    -22.513    -1.596
    21    O    0.190    -22.590    -0.764
    22    C    2.449    -22.143    -1.401
    23    N    3.118    -21.779    -0.235
    24    C    4.327    -21.550    -0.646
    25    H    4.890    -21.278    0.134
    26    C    5.857    -20.151    -3.439
    27    H    5.050    -19.624    -3.172
    28    O    5.999    -20.247    -4.862
    29    H    5.551    -20.994    -5.264
    30    C    7.090    -19.523    -2.807
    31    H    6.801    -18.979    -2.019
    32    O    7.870    -18.844    -3.792
    33    P    7.767    -17.339    -4.301
    34    O    8.757    -16.952    -5.332
    35    O    7.737    -16.660    -2.999
    36    O    6.306    -17.298    -4.958
    37    C    6.062    -17.928    -6.219
    38    H    6.341    -18.887    -6.163
    39    H    6.458    -17.366    -6.946
    40    C    4.579    -17.989    -6.559
    41    H    4.461    -18.368    -7.477
    42    O    3.871    -18.821    -5.611
    43    C    2.478    -18.487    -5.775
    44    H    2.125    -19.075    -6.503
    45    N    1.799    -18.729    -4.486
    46    C    0.310    -19.284    -2.970
    47    N    1.405    -18.782    -2.272
    48    C    2.240    -18.474    -3.217
    49    H    3.071    -18.097    -2.807
    50    N    -1.783    -20.196    -3.502
    51    C    -1.444    -20.118    -4.790
    52    H    -2.038    -20.407    -5.541
    53    N    -0.300    -19.660    -5.294
    54    C    0.538    -19.256    -4.316
    55    C    -0.926    -19.785    -2.553
    56    N    -1.276    -19.872    -1.273
    57    H    -2.184    -20.247    -1.038
    58    H    -0.626    -19.561    -0.565
    59    C    2.422    -17.031    -6.239
    60    H    2.085    -16.485    -5.472
    61    O    1.636    -16.881    -7.425
    62    H    0.903    -17.495    -7.506
    63    C    3.863    -16.646    -6.524
    64    H    4.206    -16.114    -5.750
    65    O    3.988    -16.058    -7.807
    66    P    3.362    -14.737    -8.367
    67    O    3.845    -14.315    -9.692
    68    O    3.720    -13.999    -7.153
    69    O    1.781    -14.950    -8.424
    70    C    1.167    -15.627    -9.525
    71    H    1.574    -16.536    -9.616
    72    H    1.179    -15.026    -10.324
    73    C    -0.310    -15.897    -9.277
    74    H    -0.748    -16.383    -10.033
    75    O    -0.460    -16.665    -8.082
    76    C    -1.850    -16.636    -7.692
    77    H    -2.306    -17.445    -8.062
    78    N    -1.897    -16.576    -6.216
    79    C    -3.023    -16.685    -5.435
    80    N    -6.455    -17.124    -5.146
    81    H    -7.208    -17.184    -4.475
    82    H    -6.710    -17.218    -6.119
    83    N    -4.287    -16.877    -5.884
    84    C    -5.169    -16.935    -4.887
    85    N    -4.836    -16.818    -3.562
    86    H    -5.600    -16.884    -2.874
    87    C    -3.557    -16.619    -3.077
    88    O    -3.370    -16.524    -1.868
    89    C    -2.603    -16.552    -4.130
    90    N    -1.223    -16.365    -4.080
    91    C    -0.875    -16.389    -5.330
    92    H    0.115    -16.260    -5.395
    93    C    -2.363    -15.393    -8.429
    94    H    -2.826    -14.819    -7.754
    95    O    -3.195    -15.736    -9.543
    96    H    -3.704    -16.543    -9.435
    97    C    -1.127    -14.669    -8.929
    98    H    -0.677    -14.179    -8.182
    99    O    -1.418    -13.902    -10.088
    100    P    -1.788    -12.365    -10.069
    101    O    -2.067    -11.831    -11.414
    102    O    -0.635    -11.895    -9.288
    103    O    -3.113    -12.245    -9.176
    104    C    -4.383    -12.599    -9.729
    105    H    -4.351    -13.551    -10.035
    106    H    -4.655    -11.902    -10.393
    107    C    -5.497    -12.578    -8.690
    108    H    -6.384    -12.751    -9.118
    109    O    -5.262    -13.572    -7.687
    110    C    -5.986    -13.168    -6.511
    111    H    -6.783    -13.768    -6.447
    112    N    -5.075    -13.307    -5.356
    113    C    -3.721    -13.243    -5.516
    114    H    -3.171    -13.143    -6.345
    115    C    -2.901    -13.317    -4.454
    116    H    -1.907    -13.292    -4.352
    117    C    -5.648    -13.457    -4.104
    118    O    -6.868    -13.528    -3.986
    119    N    -4.826    -13.530    -3.024
    120    C    -3.497    -13.463    -3.166
    121    N    -2.721    -13.504    -2.089
    122    H    -3.152    -13.585    -1.179
    123    H    -1.716    -13.455    -2.175
    124    C    -6.461    -11.730    -6.741
    125    H    -6.228    -11.184    -5.936
    126    O    -7.855    -11.674    -7.068
    127    H    -8.401    -12.332    -6.631
    128    C    -5.600    -11.282    -7.909
    129    H    -4.692    -11.029    -7.576
    130    O    -6.275    -10.281    -8.683
    131    P    -6.145    -8.724    -8.314
    132    O    -6.830    -7.915    -9.348
    133    O    -4.698    -8.544    -8.073
    134    O    -6.926    -8.521    -6.923
    135    C    -8.353    -8.635    -6.878
    136    H    -8.615    -9.556    -7.167
    137    H    -8.757    -7.859    -7.362
    138    C    -8.888    -8.516    -5.457
    139    H    -9.888    -8.523    -5.455
    140    O    -8.400    -9.622    -4.622
    141    C    -8.522    -9.167    -3.259
    142    H    -9.322    -9.628    -2.875
    143    N    -7.275    -9.543    -2.561
    144    C    -5.823    -10.102    -1.012
    145    N    -5.132    -10.138    -2.221
    146    C    -6.039    -9.799    -3.087
    147    H    -5.632    -9.794    -4.000
    148    N    -6.364    -10.230    1.263
    149    C    -7.607    -9.868    0.947
    150    H    -8.341    -9.754    1.616
    151    N    -8.082    -9.602    -0.267
    152    C    -7.125    -9.740    -1.206
    153    C    -5.435    -10.360    0.305
    154    N    -4.201    -10.724    0.641
    155    H    -3.989    -10.895    1.613
    156    H    -3.504    -10.821    -0.084
    157    C    -8.791    -7.658    -3.306
    158    H    -8.156    -7.211    -2.676
    159    O    -10.162    -7.351    -3.034
    160    H    -10.593    -7.940    -2.411
    161    C    -8.432    -7.266    -4.731
    162    H    -7.440    -7.181    -4.821
    163    O    -9.169    -6.100    -5.149
    164    P    -8.517    -4.620    -4.910
    165    O    -9.460    -3.616    -5.460
    166    O    -7.102    -4.615    -5.367
    167    O    -8.520    -4.467    -3.305
    168    C    -9.764    -4.491    -2.599
    169    H    -10.340    -5.216    -2.978
    170    H    -10.138    -3.564    -2.567
    171    C    -9.587    -4.877    -1.137
    172    H    -10.456    -5.090    -0.691
    173    O    -8.739    -6.010    -1.059
    174    C    -8.223    -6.088    0.284
    175    H    -8.754    -6.780    0.772
    176    N    -6.791    -6.443    0.187
    177    C    -5.958    -6.750    1.239
    178    N    -5.434    -7.168    4.645
    179    H    -4.734    -7.410    5.331
    180    H    -6.355    -6.949    4.998
    181    N    -6.302    -6.770    2.548
    182    C    -5.275    -7.107    3.331
    183    N    -4.020    -7.397    2.863
    184    H    -3.300    -7.643    3.558
    185    C    -3.643    -7.386    1.532
    186    O    -2.492    -7.674    1.218
    187    C    -4.728    -7.027    0.686
    188    N    -4.774    -6.896    -0.701
    189    C    -6.006    -6.552    -0.924
    190    H    -6.137    -6.431    -1.908
    191    C    -8.511    -4.713    0.898
    192    H    -7.665    -4.375    1.309
    193    O    -9.601    -4.759    1.825
    194    H    -9.680    -5.580    2.317
    195    C    -8.862    -3.843    -0.299
    196    H    -8.029    -3.563    -0.777
    197    O    -9.738    -2.768    0.086
    198    P    -9.117    -1.294    0.390
    199    O    -10.254    -0.361    0.561
    200    O    -8.046    -0.970    -0.589
    201    O    -8.421    -1.498    1.830
    202    C    -9.223    -1.790    2.980
    203    H    -9.804    -2.579    2.780
    204    H    -9.665    -0.949    3.291
    205    C    -8.372    -2.234    4.164
    206    H    -8.917    -2.432    4.978
    207    O    -7.656    -3.387    3.801
    208    C    -6.434    -3.447    4.561
    209    H    -6.497    -4.233    5.176
    210    N    -5.316    -3.556    3.595
    211    C    -5.483    -3.190    2.287
    212    H    -6.297    -2.840    1.824
    213    C    -4.101    -4.026    4.061
    214    O    -3.925    -4.358    5.227
    215    N    -3.085    -4.094    3.131
    216    H    -2.171    -4.437    3.460
    217    C    -3.169    -3.747    1.799
    218    O    -2.192    -3.848    1.066
    219    C    -4.470    -3.269    1.396
    220    H    -4.445    -3.039    0.423
    221    C    -6.429    -2.167    5.390
    222    H    -5.496    -1.807    5.421
    223    O    -6.996    -2.363    6.689
    224    H    -6.824    -3.223    7.081
    225    C    -7.289    -1.239    4.553
    226    H    -6.797    -0.955    3.730
    227    O    -7.802    -0.162    5.347
    228    P    -7.063    1.275    5.376
    229    O    -7.873    2.202    6.198
    230    O    -6.704    1.640    3.987
    231    O    -5.708    0.943    6.178
    232    C    -5.775    0.538    7.549
    233    H    -6.385    -0.251    7.626
    234    H    -5.971    1.338    8.116
    235    C    -4.439    0.027    8.078
    236    H    -4.492    -0.272    9.031
    237    O    -4.019    -1.056    7.280
    238    C    -2.583    -1.169    7.351
    239    H    -2.373    -1.982    7.895
    240    N    -2.081    -1.268    5.961
    241    C    -2.858    -0.870    4.907
    242    H    -3.790    -0.508    4.903
    243    C    -0.800    -1.751    5.768
    244    O    -0.087    -2.119    6.697
    245    N    -0.362    -1.801    4.463
    246    H    0.590    -2.157    4.300
    247    C    -1.076    -1.419    3.346
    248    O    -0.578    -1.503    2.229
    249    C    -2.404    -0.930    3.635
    250    H    -2.852    -0.678    2.777
    251    C    -2.116    0.076    8.114
    252    H    -1.325    0.464    7.641
    253    O    -1.860    -0.210    9.490
    254    H    -1.499    -1.083    9.662
    255    C    -3.300    1.020    7.955
    256    H    -3.303    1.407    7.033
    257    O    -3.363    1.963    9.027
    258    P    -2.688    3.412    8.961
    259    O    -2.950    4.146    10.219
    260    O    -3.105    3.972    7.663
    261    O    -1.125    3.060    8.892
    262    C    -0.478    2.427    10.003
    263    H    -0.965    1.582    10.225
    264    H    -0.350    3.100    10.732
    265    C    0.931    1.973    9.654
    266    H    1.390    1.482    10.394
    267    O    0.874    1.122    8.490
    268    C    2.157    1.065    7.843
    269    H    2.604    0.203    8.084
    270    N    1.928    1.196    6.386
    271    C    0.766    1.724    5.903
    272    H    -0.039    2.066    6.387
    273    C    0.568    1.850    4.580
    274    H    -0.190    2.201    4.031
    275    C    2.938    0.774    5.534
    276    O    3.981    0.307    5.990
    277    N    2.747    0.898    4.194
    278    C    1.611    1.414    3.708
    279    N    1.458    1.528    2.393
    280    H    2.205    1.222    1.786
    281    H    0.610    1.914    2.004
    282    C    2.903    2.220    8.521
    283    H    3.357    2.742    7.799
    284    O    3.809    1.751    9.525
    285    H    4.193    0.888    9.353
    286    C    1.833    3.089    9.162
    287    H    1.346    3.618    8.467
    288    O    2.382    3.837    10.251
    289    P    2.882    5.349    10.109
    290    O    3.457    5.823    11.386
    291    O    1.750    6.064    9.488
    292    O    4.065    5.232    9.029
    293    C    5.289    4.558    9.346
    294    H    5.077    3.649    9.704
    295    H    5.857    5.161    9.906
    296    C    6.114    4.299    8.096
    297    H    6.958    3.789    8.263
    298    O    5.318    3.583    7.158
    299    C    5.754    3.899    5.823
    300    H    6.140    3.069    5.420
    301    N    4.567    4.396    5.085
    302    C    3.459    4.819    5.759
    303    H    3.284    4.874    6.742
    304    C    2.373    5.252    5.097
    305    H    1.481    5.594    5.392
    306    C    4.613    4.402    3.696
    307    O    5.624    4.027    3.109
    308    N    3.514    4.840    3.016
    309    C    2.423    5.255    3.671
    310    N    1.364    5.671    2.983
    311    H    1.405    5.665    1.974
    312    H    0.532    5.988    3.459
    313    C    6.874    4.919    6.029
    314    H    6.833    5.601    5.299
    315    O    8.156    4.295    6.146
    316    H    8.280    3.517    5.597
    317    C    6.457    5.569    7.336
    318    H    5.624    6.109    7.211
    319    O    7.548    6.264    7.947
    320    P    7.814    7.831    7.756
    321    O    8.954    8.256    8.599
    322    O    6.495    8.481    7.901
    323    O    8.262    7.923    6.219
    324    C    9.517    7.370    5.813
    325    H    9.528    6.394    6.031
    326    H    10.256    7.939    6.174
    327    C    9.702    7.423    4.305
    328    H    10.590    7.066    4.017
    329    O    8.662    6.661    3.668
    330    C    8.412    7.241    2.374
    331    H    8.663    6.556    1.690
    332    N    6.973    7.594    2.325
    333    C    6.259    7.758    3.476
    334    H    6.549    7.689    4.431
    335    C    4.950    8.063    3.437
    336    H    4.261    8.221    4.145
    337    C    6.376    7.737    1.077
    338    O    7.037    7.595    0.051
    339    N    5.049    8.047    1.028
    340    C    4.341    8.210    2.155
    341    N    3.048    8.515    2.075
    342    H    2.626    8.618    1.163
    343    H    2.496    8.642    2.911
    344    C    9.366    8.435    2.258
    345    H    8.903    9.182    1.782
    346    O    10.609    8.075    1.648
    347    H    10.543    7.418    0.952
    348    C    9.539    8.812    3.719
    349    H    8.695    9.217    4.072
    350    O    10.727    9.563    3.914
    351    P    10.804    11.136    3.773
    352    O    12.177    11.593    4.055
    353    O    9.669    11.582    4.596
    354    O    10.471    11.409    2.230
    355    C    11.378    11.001    1.201
    356    H    11.520    10.013    1.265
    357    H    12.184    11.593    1.224
    358    C    10.785    11.214    -0.188
    359    H    11.405    10.927    -0.919
    360    O    9.553    10.488    -0.308
    361    C    8.721    11.158    -1.270
    362    H    8.684    10.573    -2.080
    363    N    7.394    11.343    -0.639
    364    C    7.267    11.317    0.718
    365    H    7.960    11.203    1.429
    366    C    6.065    11.458    1.298
    367    H    5.761    11.468    2.251
    368    C    6.291    11.518    -1.465
    369    O    6.428    11.548    -2.687
    370    N    5.068    11.661    -0.885
    371    C    4.933    11.635    0.448
    372    N    3.728    11.768    0.987
    373    H    2.931    11.887    0.378
    374    H    3.607    11.751    1.990
    375    C    9.437    12.462    -1.629
    376    H    8.766    13.204    -1.634
    377    O    10.146    12.364    -2.866
    378    H    9.731    11.805    -3.528
    379    C    10.382    12.656    -0.450
    380    H    9.870    12.999    0.338
    381    O    11.522    13.412    -0.822
    382    P    11.561    14.987    -0.752
    383    O    12.839    15.485    -1.292
    384    O    11.161    15.259    0.636
    385    O    10.376    15.419    -1.738
    386    C    10.467    15.143    -3.139
    387    H    10.640    14.167    -3.268
    388    H    11.103    15.791    -3.558
    389    C    9.148    15.391    -3.855
    390    H    9.212    15.134    -4.819
    391    O    8.112    14.651    -3.250
    392    C    6.878    15.294    -3.609
    393    H    6.486    14.755    -4.355
    394    N    6.016    15.298    -2.408
    395    C    6.554    15.148    -1.159
    396    H    7.507    15.018    -0.887
    397    C    4.656    15.464    -2.592
    398    O    4.152    15.600    -3.703
    399    N    3.888    15.473    -1.447
    400    H    2.872    15.599    -1.563
    401    C    4.346    15.329    -0.155
    402    O    3.562    15.345    0.790
    403    C    5.778    15.161    -0.052
    404    H    6.026    15.068    0.912
    405    C    7.217    16.692    -4.129
    406    H    6.698    17.360    -3.595
    407    O    6.979    16.814    -5.537
    408    H    6.239    16.300    -5.869
    409    C    8.697    16.838    -3.802
    410    H    8.797    17.176    -2.866
    411    O    9.357    17.601    -4.811
    412    P    9.708    19.143    -4.597
    413    O    10.217    19.704    -5.866
    414    O    10.520    19.215    -3.367
    415    O    8.264    19.779    -4.300
    416    C    7.275    19.869    -5.333
    417    H    7.161    18.969    -5.754
    418    H    7.496    20.641    -5.929
    419    C    5.898    20.205    -4.765
    420    H    5.243    20.380    -5.500
    421    O    5.424    19.132    -3.970
    422    C    4.573    19.657    -2.931
    423    H    3.649    19.323    -3.114
    424    N    5.106    19.200    -1.631
    425    C    4.394    19.058    -0.460
    426    N    1.391    19.187    1.279
    427    H    0.978    19.049    2.190
    428    H    0.764    19.464    0.537
    429    N    3.067    19.262    -0.303
    430    C    2.668    19.043    0.952
    431    N    3.509    18.656    1.964
    432    H    3.095    18.516    2.897
    433    C    4.868    18.440    1.829
    434    O    5.529    18.097    2.801
    435    C    5.304    18.669    0.497
    436    N    6.577    18.563    -0.056
    437    C    6.390    18.886    -1.296
    438    H    7.264    18.838    -1.780
    439    C    4.592    21.170    -3.086
    440    H    4.666    21.581    -2.177
    441    O    3.455    21.647    -3.818
    442    H    2.645    21.151    -3.677
    443    C    5.888    21.418    -3.849
    444    H    6.664    21.358    -3.221
    445    O    5.822    22.639    -4.587
    446    P    6.658    23.914    -4.082
    447    O    6.442    25.020    -5.036
    448    O    8.032    23.477    -3.753
    449    O    5.892    24.246    -2.707
    450    C    6.493    25.053    -1.697
    451    H    6.599    25.984    -2.045
    452    H    7.306    24.587    -1.349
    453    C    5.583    25.198    -0.481
    454    H    6.080    25.615    0.280
    455    O    4.495    26.042    -0.842
    456    C    3.248    25.334    -0.729
    457    H    2.673    25.880    -0.119
    458    N    2.672    25.229    -2.091
    459    C    3.335    24.570    -3.087
    460    H    4.213    24.091    -3.071
    461    C    2.815    24.491    -4.325
    462    H    3.129    24.068    -5.175
    463    C    1.444    25.834    -2.321
    464    O    0.862    26.416    -1.410
    465    N    0.911    25.758    -3.573
    466    C    1.555    25.115    -4.556
    467    N    1.009    25.065    -5.768
    468    H    0.118    25.515    -5.921
    469    H    1.476    24.586    -6.525
    470    C    3.524    23.977    -0.072
    471    H    3.205    23.271    -0.705
    472    O    2.918    23.868    1.220
    473    H    2.099    24.357    1.326
    474    C    5.038    23.881    0.056
    475    H    5.339    23.137    -0.540
    476    O    5.414    23.755    1.437
    477    P    5.147    22.377    2.244
    478    O    6.109    22.311    3.369
    479    O    5.077    21.261    1.274
    480    O    3.668    22.604    2.859
    481    C    3.406    23.644    3.823
    482    H    3.585    24.532    3.400
    483    H    3.882    23.426    4.675
    484    C    1.927    23.716    4.230
    485    H    1.813    24.335    5.007
    486    O    1.173    24.213    3.125
    487    C    0.062    23.356    2.850
    488    H    -0.743    23.822    3.218
    489    N    -0.039    23.175    1.389
    490    C    -0.746    23.273    -0.685
    491    N    0.527    22.710    -0.735
    492    C    0.880    22.677    0.513
    493    H    1.793    22.276    0.582
    494    N    -2.843    24.126    -1.280
    495    C    -3.075    24.352    0.013
    496    H    -3.922    24.749    0.367
    497    N    -2.256    24.101    1.031
    498    C    -1.098    23.555    0.603
    499    C    -1.681    23.586    -1.675
    500    N    -1.449    23.409    -2.972
    501    H    -2.156    23.686    -3.638
    502    H    -0.571    23.002    -3.261
    503    C    0.262    22.054    3.597
    504    H    0.641    21.389    2.953
    505    O    -0.954    21.613    4.205
    506    H    -1.753    21.837    3.722
    507    C    1.311    22.373    4.655
    508    H    2.012    21.662    4.603
    509    O    0.667    22.538    5.923
    510    P    -0.006    21.288    6.687
    511    O    0.062    21.554    8.141
    512    O    0.592    20.052    6.135
    513    O    -1.553    21.354    6.232
    514    C    -2.620    21.259    7.192
    515    H    -2.528    22.002    7.855
    516    H    -2.662    20.323    7.540
    517    C    -3.989    21.489    6.547
    518    H    -4.722    21.248    7.183
    519    O    -4.104    22.879    6.207
    520    C    -4.446    23.005    4.821
    521    H    -5.441    23.088    4.770
    522    N    -3.796    24.236    4.269
    523    C    -2.648    24.733    4.839
    524    H    -2.136    24.398    5.630
    525    C    -4.365    24.858    3.158
    526    O    -5.382    24.449    2.611
    527    N    -3.710    25.975    2.686
    528    H    -4.121    26.446    1.868
    529    C    -2.557    26.528    3.199
    530    O    -2.060    27.524    2.681
    531    C    -2.029    25.831    4.346
    532    H    -1.198    26.294    4.654
    533    C    -4.019    21.687    4.158
    534    H    -3.043    21.735    3.946
    535    O    -4.808    21.400    2.996
    536    H    -5.083    22.170    2.492
    537    C    -4.235    20.670    5.286
    538    H    -3.530    19.965    5.213
    539    O    -5.591    20.190    5.255
    540    P    -5.968    18.786    4.544
    541    O    -7.391    18.501    4.841
    542    O    -4.937    17.776    4.878
    543    O    -5.844    19.132    2.970
    544    C    -6.741    20.064    2.343
    545    H    -6.609    20.967    2.751
    546    H    -7.664    19.679    2.345
    547    C    -6.404    20.255    0.864
    548    H    -7.088    20.841    0.430
    549    O    -5.097    20.854    0.698
    550    C    -4.717    20.611    -0.656
    551    H    -4.955    21.438    -1.166
    552    N    -3.265    20.367    -0.684
    553    C    -1.186    20.201    -1.359
    554    N    -1.176    19.900    0.003
    555    C    -2.427    20.018    0.336
    556    H    -2.524    19.821    1.312
    557    N    -0.534    20.587    -3.575
    558    C    -1.809    20.841    -3.864
    559    H    -2.136    21.090    -4.776
    560    N    -2.839    20.811    -3.029
    561    C    -2.451    20.483    -1.781
    562    C    -0.178    20.261    -2.323
    563    N    1.097    20.011    -2.058
    564    H    1.773    20.072    -2.806
    565    H    1.362    19.766    -1.115
    566    C    -5.560    19.441    -1.180
    567    H    -4.939    18.717    -1.482
    568    O    -6.454    19.864    -2.218
    569    H    -6.119    20.566    -2.780
    570    C    -6.315    18.963    0.067
    571    H    -5.746    18.310    0.568
    572    O    -7.611    18.468    -0.307
    573    P    -7.841    16.876    -0.514
    574    O    -9.243    16.675    -0.954
    575    O    -7.339    16.138    0.672
    576    O    -6.874    16.535    -1.763
    577    C    -7.115    17.141    -3.038
    578    H    -7.210    18.129    -2.916
    579    H    -7.857    16.652    -3.496
    580    C    -5.934    17.000    -3.997
    581    H    -6.191    17.367    -4.891
    582    O    -4.779    17.727    -3.502
    583    C    -3.597    17.062    -3.996
    584    H    -3.170    17.696    -4.641
    585    N    -2.727    16.776    -2.840
    586    C    -0.984    16.345    -1.578
    587    N    -2.085    16.377    -0.725
    588    C    -3.070    16.630    -1.527
    589    H    -3.918    16.669    -0.999
    590    N    1.194    16.155    -2.420
    591    C    0.702    16.402    -3.636
    592    H    1.259    16.442    -4.465
    593    N    -0.568    16.631    -3.956
    594    C    -1.364    16.586    -2.867
    595    C    0.376    16.120    -1.356
    596    N    0.883    15.895    -0.147
    597    H    1.879    15.754    -0.052
    598    H    0.261    15.870    0.648
    599    C    -4.038    15.800    -4.753
    600    H    -3.458    15.036    -4.472
    601    O    -4.043    16.006    -6.169
    602    H    -3.350    16.583    -6.497
    603    C    -5.446    15.580    -4.211
    604    H    -5.381    15.121    -3.325
    605    O    -6.267    14.913    -5.189
    606    P    -6.308    13.291    -5.297
    607    O    -7.275    12.910    -6.354
    608    O    -6.449    12.720    -3.936
    609    O    -4.828    12.948    -5.834
    610    C    -4.354    13.513    -7.063
    611    H    -4.460    14.507    -7.027
    612    H    -4.773    13.025    -7.829
    613    C    -2.858    13.294    -7.243
    614    H    -2.549    13.661    -8.121
    615    O    -2.116    13.926    -6.184
    616    C    -0.846    13.251    -6.095
    617    H    -0.174    13.854    -6.526
    618    N    -0.576    13.028    -4.658