!*** FMO 5.2 (Gamess) INPUT generated by Facio 21.1.1.32 ***
 $CONTRL RUNTYP=OPTFMO NPRINT=-5 ISPHER=-1 MAXIT=50 $END
 $SYSTEM MWORDS=29 $END
 $GDDI NGROUP=1 $END
 $INTGRL NINTIC=-9000000 $END
 $SCF DIRSCF=.FALSE. NPUNCH=0 $END
!*** NumCPU : 2  MemPerNode : 512MB
 $FMOPRP
    NAODIR=210
    NGRFMO(1)=1, 1, 0, 0, 0,   0, 0, 0, 0, 0
    NPRINT=9
 $END
 $FMO
      SCFTYP(1)=RHF
      MODGRD=10
      MODMUL=0
      MAXCAO=5
      MAXBND=34
      NLAYER=1
      NFRAG=32
      ICHARG(1)=-1, -1, -1, -1, -1, -1, -1, -1, -1, -1, 
-1, -1, -1, -1, -1, -1, -1, -1, -1, -1, 
-1, -1, -1, -1, -1, -1, -1, -1, -1, -1, 
-1, 0
      FRGNAM(1)=Frag1, Frag2, Frag3, Frag4, Frag5, Frag6, Frag7, Frag8, Frag9, Frag10, Frag11, Frag12, Frag13, Frag14, Frag15, Frag16, Frag17, Frag18, Frag19, Frag20, Frag21, Frag22, Frag23, Frag24, Frag25, Frag26, Frag27, Frag28, Frag29, Frag30, Frag31, Frag32
      indat(1)=0
               1   -36   0
               37   -69   0
               70   -103   0
               104   -134   0
               135   -167   0
               168   -201   0
               202   -231   0
               232   -261   0
               262   -292   0
               293   -323   0
               324   -354   0
               355   -385   0
               386   -415   0
               416   -449   0
               450   -480   0
               481   -513   0
               514   -543   0
               544   -576   0
               577   -609   0
               610   -643   0
               644   -677   0
               678   -710   0
               711   -740   0
               741   -774   0
               775   -807   0
               808   -840   0
               841   -871   0
               872   -902   0
               903   -936   0
               937   -966   0
               967   -996   0
               997   -1024   0
 $END

 $FMOBND
   -37   36       3-21G    MINI
   -70   69       3-21G    MINI
   -104   103       3-21G    MINI
   -135   134       3-21G    MINI
   -168   167       3-21G    MINI
   -202   201       3-21G    MINI
   -232   231       3-21G    MINI
   -262   261       3-21G    MINI
   -293   292       3-21G    MINI
   -324   323       3-21G    MINI
   -355   354       3-21G    MINI
   -386   385       3-21G    MINI
   -416   415       3-21G    MINI
   -450   449       3-21G    MINI
   -481   480       3-21G    MINI
   -514   513       3-21G    MINI
   -544   543       3-21G    MINI
   -577   576       3-21G    MINI
   -610   609       3-21G    MINI
   -644   643       3-21G    MINI
   -678   677       3-21G    MINI
   -711   710       3-21G    MINI
   -741   740       3-21G    MINI
   -775   774       3-21G    MINI
   -808   807       3-21G    MINI
   -841   840       3-21G    MINI
   -872   871       3-21G    MINI
   -903   902       3-21G    MINI
   -937   936       3-21G    MINI
   -967   966       3-21G    MINI
   -997   996       3-21G    MINI
 $END
 $FMOHYB
 3-21G        9   5
   1 0  -0.070459   0.164841   0.000000   0.000000   0.502116
         0.466939   0.000000   0.000000   0.418036
   0 1  -0.070465   0.164857   0.473392   0.000000  -0.167359
         0.466967   0.394111   0.000000  -0.139327
   0 1  -0.070465   0.164857  -0.236695  -0.409969  -0.167359
         0.466967  -0.197055  -0.341311  -0.139327
   0 1  -0.070465   0.164857  -0.236695   0.409969  -0.167359
         0.466967  -0.197055   0.341311  -0.139327
   0 1   1.006716   0.074826   0.000000   0.000000   0.000000
        -0.143830   0.000000   0.000000  -0.000003
 MINI         5   5
   1 0  -0.104883   0.308874   0.000000   0.000000   0.521806
   0 1  -0.104883   0.308874   0.491961   0.000000  -0.173934
   0 1  -0.104883   0.308876  -0.245980  -0.426050  -0.173933
   0 1  -0.104883   0.308876  -0.245980   0.426050  -0.173933
   0 1   0.988209   0.063992   0.000000   0.000000   0.000000
 $END

 $DATA
 FMO calculation : XXNAMEXX
 C1 
 C.1-1    6
      N21 3
   
 O.1-1    8
      N21 3
   
 N.1-1    7
      N21 3
   
 H.1-1    1
      N21 3
   
 P.1-1   15
      N21 3
   
 $END
 $FMOXYZ
    1    H    12.038    -17.488    -0.381
    2    O    11.344    -17.203    -1.042
    3    C    11.975    -16.968    -2.309
    4    H    12.342    -17.831    -2.655
    5    H    12.602    -16.194    -2.222
    6    C    10.966    -16.528    -3.368
    7    H    11.412    -16.223    -4.209
    8    O    10.144    -17.642    -3.660
    9    C    8.961    -17.149    -4.326
    10    H    9.115    -17.255    -5.308
    11    N    7.784    -17.959    -3.921
    12    C    6.591    -18.081    -4.605
    13    N    4.617    -17.355    -7.372
    14    H    3.706    -17.509    -7.779
    15    H    5.260    -16.790    -7.908
    16    N    6.299    -17.522    -5.804
    17    C    5.060    -17.814    -6.209
    18    N    4.184    -18.589    -5.495
    19    H    3.252    -18.750    -5.903
    20    C    4.451    -19.172    -4.271
    21    O    3.589    -19.847    -3.714
    22    C    5.769    -18.869    -3.826
    23    N    6.428    -19.255    -2.662
    24    C    7.593    -18.695    -2.783
    25    H    8.148    -18.922    -1.983
    26    C    8.866    -15.656    -3.994
    27    H    7.974    -15.487    -3.575
    28    O    8.988    -14.849    -5.175
    29    H    8.656    -15.255    -5.979
    30    C    9.963    -15.447    -2.937
    31    H    9.605    -15.677    -2.032
    32    O    10.534    -14.114    -2.819
    33    P    10.026    -12.816    -1.964
    34    O    10.939    -11.673    -2.257
    35    O    9.818    -13.275    -0.576
    36    O    8.581    -12.475    -2.585
    37    C    8.533    -12.148    -3.969
    38    H    9.022    -12.850    -4.487
    39    H    8.815    -11.196    -4.089
    40    C    7.100    -12.211    -4.454
    41    H    7.169    -11.966    -5.421
    42    O    6.531    -13.533    -4.343
    43    C    5.121    -13.329    -4.535
    44    H    4.953    -13.396    -5.519
    45    N    4.427    -14.396    -3.785
    46    C    2.990    -15.944    -3.181
    47    N    3.906    -15.838    -2.138
    48    C    4.719    -14.915    -2.554
    49    H    5.423    -14.765    -1.860
    50    N    1.177    -16.596    -4.515
    51    C    1.578    -15.708    -5.425
    52    H    1.110    -15.551    -6.295
    53    N    2.632    -14.899    -5.348
    54    C    3.297    -15.073    -4.187
    55    C    1.862    -16.746    -3.369
    56    N    1.452    -17.638    -2.473
    57    H    0.629    -18.189    -2.672
    58    H    1.973    -17.744    -1.614
    59    C    4.805    -11.901    -4.070
    60    H    4.328    -11.980    -3.195
    61    O    4.072    -11.178    -5.061
    62    H    3.491    -11.713    -5.606
    63    C    6.143    -11.211    -3.844
    64    H    6.319    -11.150    -2.861
    65    O    6.299    -10.022    -4.632
    66    P    5.347    -8.744    -4.406
    67    O    5.888    -7.657    -5.245
    68    O    5.133    -8.489    -2.961
    69    O    3.946    -9.179    -5.071
    70    C    3.770    -9.319    -6.485
    71    H    4.475    -9.932    -6.842
    72    H    3.688    -8.410    -6.894
    73    C    2.456    -10.010    -6.808
    74    H    2.394    -10.129    -7.799
    75    O    2.320    -11.279    -6.180
    76    C    0.938    -11.666    -6.293
    77    H    0.837    -12.246    -7.101
    78    N    0.616    -12.328    -5.015
    79    C    -0.539    -13.014    -4.737
    80    N    -3.651    -14.187    -5.720
    81    H    -4.453    -14.712    -5.401
    82    H    -3.688    -13.839    -6.667
    83    N    -1.576    -13.199    -5.587
    84    C    -2.556    -13.906    -5.029
    85    N    -2.516    -14.391    -3.747
    86    H    -3.330    -14.930    -3.419
    87    C    -1.471    -14.214    -2.860
    88    O    -1.540    -14.690    -1.731
    89    C    -0.416    -13.459    -3.439
    90    N    0.805    -13.058    -2.899
    91    C    1.358    -12.399    -3.871
    92    H    2.251    -12.064    -3.571
    93    C    0.226    -10.331    -6.545
    94    H    -0.471    -10.242    -5.834
    95    O    -0.253    -10.222    -7.888
    96    H    -0.515    -11.052    -8.293
    97    C    1.253    -9.233    -6.369
    98    H    1.353    -8.996    -5.403
    99    O    1.100    -8.302    -7.442
    100    P    0.063    -7.121    -7.204
    101    O    -0.026    -6.417    -8.499
    102    O    0.540    -6.450    -5.971
    103    O    -1.341    -7.894    -6.961
    104    C    -2.230    -8.354    -7.999
    105    H    -1.751    -9.027    -8.563
    106    H    -2.635    -7.562    -8.456
    107    C    -3.421    -9.114    -7.430
    108    H    -4.036    -9.348    -8.183
    109    O    -3.080    -10.303    -6.723
    110    C    -4.177    -10.548    -5.830
    111    H    -4.693    -11.307    -6.227
    112    N    -3.558    -10.833    -4.525
    113    C    -2.329    -10.337    -4.196
    114    H    -1.691    -9.776    -4.723
    115    C    -1.797    -10.586    -2.987
    116    H    -0.935    -10.331    -2.549
    117    C    -4.295    -11.600    -3.643
    118    O    -5.391    -12.040    -3.977
    119    N    -3.766    -11.854    -2.418
    120    C    -2.564    -11.374    -2.078
    121    N    -2.089    -11.613    -0.861
    122    H    -2.648    -12.154    -0.216
    123    H    -1.184    -11.261    -0.582
    124    C    -5.066    -9.300    -5.804
    125    H    -5.210    -9.033    -4.851
    126    O    -6.273    -9.477    -6.554
    127    H    -6.644    -10.362    -6.522
    128    C    -4.204    -8.258    -6.483
    129    H    -3.579    -7.858    -5.813
    130    O    -5.020    -7.626    -7.462
    131    P    -5.970    -6.473    -6.924
    132    O    -6.745    -5.928    -8.065
    133    O    -4.971    -5.698    -6.156
    134    O    -6.993    -7.154    -5.860
    135    C    -8.354    -7.589    -6.111
    136    H    -8.332    -8.442    -6.632
    137    H    -8.876    -6.823    -6.486
    138    C    -9.149    -7.969    -4.861
    139    H    -10.088    -8.261    -5.045
    140    O    -8.449    -9.038    -4.139
    141    C    -8.919    -8.962    -2.779
    142    H    -9.589    -9.696    -2.668
    143    N    -7.745    -9.134    -1.900
    144    C    -6.461    -9.627    -0.190
    145    N    -5.607    -9.199    -1.205
    146    C    -6.422    -8.923    -2.178
    147    H    -5.894    -8.600    -2.963
    148    N    -7.295    -10.412    1.851
    149    C    -8.521    -10.332    1.337
    150    H    -9.353    -10.575    1.837
    151    N    -8.853    -9.930    0.112
    152    C    -7.762    -9.589    -0.601
    153    C    -6.229    -10.068    1.115
    154    N    -5.014    -10.157    1.646
    155    H    -4.918    -10.483    2.597
    156    H    -4.215    -9.896    1.086
    157    C    -9.626    -7.612    -2.616
    158    H    -9.260    -7.160    -1.803
    159    O    -11.051    -7.743    -2.612
    160    H    -11.383    -8.544    -2.200
    161    C    -9.186    -6.844    -3.848
    162    H    -8.258    -6.496    -3.714
    163    O    -10.149    -5.835    -4.175
    164    P    -9.813    -4.318    -3.755
    165    O    -10.831    -3.418    -4.343
    166    O    -8.372    -4.112    -4.025
    167    O    -10.028    -4.382    -2.162
    168    C    -11.334    -4.596    -1.610
    169    H    -11.773    -5.352    -2.095
    170    H    -11.818    -3.722    -1.570
    171    C    -11.292    -5.063    -0.158
    172    H    -12.163    -5.396    0.202
    173    O    -10.328    -6.101    -0.070
    174    C    -9.934    -6.249    1.311
    175    H    -10.412    -7.047    1.679
    176    N    -8.465    -6.439    1.360
    177    C    -7.720    -6.744    2.477
    178    N    -7.529    -7.413    5.880
    179    H    -6.885    -7.633    6.626
    180    H    -8.504    -7.338    6.134
    181    N    -8.201    -6.927    3.729
    182    C    -7.233    -7.212    4.604
    183    N    -5.907    -7.308    4.273
    184    H    -5.245    -7.531    5.030
    185    C    -5.388    -7.129    3.003
    186    O    -4.182    -7.250    2.810
    187    C    -6.410    -6.824    2.060
    188    N    -6.317    -6.571    0.693
    189    C    -7.550    -6.355    0.349
    190    H    -7.585    -6.162    -0.631
    191    C    -10.460    -4.988    2.006
    192    H    -9.738    -4.606    2.584
    193    O    -11.642    -5.257    2.773
    194    H    -11.669    -6.124    3.185
    195    C    -10.685    -4.060    0.812
    196    H    -9.807    -3.747    0.450
    197    O    -11.494    -2.896    1.086
    198    P    -10.894    -1.404    1.270
    199    O    -12.016    -0.424    1.275
    200    O    -9.783    -1.312    0.295
    201    O    -10.251    -1.491    2.744
    202    C    -11.115    -1.618    3.877
    203    H    -11.708    -2.413    3.747
    204    H    -11.548    -0.735    4.057
    205    C    -10.310    -1.926    5.133
    206    H    -10.884    -2.032    5.945
    207    O    -9.611    -3.126    4.906
    208    C    -8.430    -3.150    5.733
    209    H    -8.536    -3.888    6.399
    210    N    -7.255    -3.368    4.852
    211    C    -7.329    -3.107    3.511
    212    H    -8.108    -2.791    2.970
    213    C    -6.078    -3.812    5.429
    214    O    -5.979    -4.055    6.627
    215    N    -5.003    -3.959    4.577
    216    H    -4.117    -4.283    4.991
    217    C    -4.995    -3.715    3.219
    218    O    -3.973    -3.880    2.562
    219    C    -6.261    -3.261    2.697
    220    H    -6.171    -3.107    1.713
    221    C    -8.458    -1.812    6.465
    222    H    -7.522    -1.475    6.569
    223    O    -9.120    -1.926    7.732
    224    H    -8.988    -2.762    8.184
    225    C    -9.192    -0.935    5.457
    226    H    -8.637    -0.791    4.638
    227    O    -9.627    0.340    5.975
    228    P    -8.842    1.736    5.709
    229    O    -9.644    2.859    6.257
    230    O    -8.412    1.741    4.292
    231    O    -7.528    1.569    6.626
    232    C    -7.681    1.506    8.045
    233    H    -8.339    0.787    8.270
    234    H    -7.855    2.426    8.395
    235    C    -6.389    1.073    8.725
    236    H    -6.549    0.979    9.708
    237    O    -6.012    -0.180    8.199
    238    C    -4.596    -0.358    8.387
    239    H    -4.470    -1.057    9.091
    240    N    -4.021    -0.771    7.086
    241    C    -4.705    -0.555    5.920
    242    H    -5.611    -0.156    5.779
    243    C    -2.763    -1.346    7.083
    244    O    -2.131    -1.557    8.114
    245    N    -2.250    -1.677    5.848
    246    H    -1.313    -2.105    5.827
    247    C    -2.870    -1.491    4.629
    248    O    -2.310    -1.820    3.589
    249    C    -4.180    -0.890    4.721
    250    H    -4.559    -0.793    3.801
    251    C    -4.098    0.989    8.926
    252    H    -3.261    1.222    8.431
    253    O    -3.942    0.953    10.345
    254    H    -3.672    0.103    10.702
    255    C    -5.186    1.985    8.556
    256    H    -5.107    2.245    7.594
    257    O    -5.190    3.063    9.507
    258    P    -4.351    4.417    9.218
    259    O    -4.606    5.361    10.327
    260    O    -4.590    4.868    7.823
    261    O    -2.813    3.951    9.339
    262    C    -2.157    3.664    10.585
    263    H    -2.636    2.913    11.040
    264    H    -2.034    4.517    11.092
    265    C    -0.739    3.138    10.384
    266    H    -0.395    2.811    11.264
    267    O    -0.837    2.020    9.473
    268    C    0.437    1.733    8.882
    269    H    0.822    0.916    9.312
    270    N    0.242    1.526    7.427
    271    C    -0.876    1.992    6.798
    272    H    -1.672    2.472    7.167
    273    C    -1.036    1.835    5.473
    274    H    -1.761    2.096    4.836
    275    C    1.245    0.875    6.720
    276    O    2.249    0.465    7.300
    277    N    1.091    0.711    5.379
    278    C    -0.002    1.167    4.752
    279    N    -0.119    0.997    3.440
    280    H    0.622    0.526    2.941
    281    H    -0.934    1.333    2.947
    282    C    1.251    2.959    9.319
    283    H    1.723    3.268    8.493
    284    O    2.101    2.640    10.423
    285    H    2.387    1.724    10.463
    286    C    0.325    4.063    9.802
    287    H    -0.068    4.569    9.034
    288    O    1.069    4.811    10.780
    289    P    1.940    6.114    10.361
    290    O    2.625    6.582    11.579
    291    O    1.074    7.094    9.649
    292    O    3.089    5.611    9.335
    293    C    4.387    5.093    9.690
    294    H    4.268    4.279    10.258
    295    H    4.947    5.838    10.051
    296    C    5.141    4.601    8.458
    297    H    5.933    4.067    8.754
    298    O    4.248    3.750    7.743
    299    C    4.577    3.765    6.346
    300    H    4.857    2.843    6.080
    301    N    3.371    4.204    5.601
    302    C    2.350    4.834    6.250
    303    H    2.252    5.076    7.215
    304    C    1.254    5.236    5.585
    305    H    0.415    5.702    5.866
    306    C    3.314    3.960    4.233
    307    O    4.247    3.400    3.663
    308    N    2.203    4.364    3.551
    309    C    1.197    4.982    4.182
    310    N    0.124    5.361    3.496
    311    H    0.088    5.174    2.504
    312    H    -0.644    5.828    3.956
    313    C    5.792    4.693    6.279
    314    H    5.717    5.218    5.431
    315    O    7.014    3.969    6.428
    316    H    7.004    3.079    6.069
    317    C    5.655    5.638    7.459
    318    H    4.938    6.316    7.295
    319    O    6.971    6.133    7.755
    320    P    7.588    7.433    7.011
    321    O    8.938    7.652    7.570
    322    O    6.619    8.564    7.065
    323    O    7.781    7.015    5.464
    324    C    8.956    6.388    4.922
    325    H    9.051    5.475    5.319
    326    H    9.729    7.017    5.005
    327    C    8.849    6.129    3.420
    328    H    9.627    5.558    3.158
    329    O    7.631    5.433    3.108
    330    C    7.216    5.800    1.780
    331    H    7.234    4.966    1.228
    332    N    5.865    6.396    1.895
    333    C    5.423    6.887    3.089
    334    H    5.882    6.942    3.976
    335    C    4.188    7.403    3.203
    336    H    3.680    7.802    3.966
    337    C    5.065    6.418    0.760
    338    O    5.487    5.983    -0.309
    339    N    3.811    6.941    0.866
    340    C    3.366    7.423    2.036
    341    N    2.138    7.930    2.109
    342    H    1.564    7.941    1.278
    343    H    1.783    8.298    2.980
    344    C    8.272    6.770    1.250
    345    H    7.809    7.498    0.744
    346    O    9.323    6.107    0.540
    347    H    9.046    5.347    0.023
    348    C    8.862    7.350    2.520
    349    H    8.238    8.036    2.893
    350    O    10.215    7.552    2.140
    351    P    10.597    8.648    1.031
    352    O    12.044    8.508    0.720
    353    O    10.059    9.897    1.631
    354    O    9.698    8.401    -0.298
    355    C    10.135    7.780    -1.523
    356    H    10.222    6.795    -1.376
    357    H    10.932    8.274    -1.872
    358    C    9.128    7.877    -2.674
    359    H    9.401    7.248    -3.402
    360    O    7.798    7.552    -2.251
    361    C    6.856    8.268    -3.067
    362    H    6.397    7.588    -3.639
    363    N    5.952    8.978    -2.138
    364    C    6.341    9.233    -0.857
    365    H    7.204    9.038    -0.391
    366    C    5.508    9.840    0.003
    367    H    5.592    10.111    0.962
    368    C    4.694    9.339    -2.601
    369    O    4.370    9.109    -3.764
    370    N    3.844    9.955    -1.734
    371    C    4.215    10.207    -0.472
    372    N    3.362    10.801    0.354
    373    H    2.446    11.052    0.012
    374    H    3.623    11.000    1.309
    375    C    7.661    9.206    -3.961
    376    H    7.240    10.112    -3.924
    377    O    7.833    8.686    -5.284
    378    H    7.090    8.180    -5.620
    379    C    9.017    9.263    -3.282
    380    H    8.981    9.939    -2.546
    381    O    9.891    9.276    -4.397
    382    P    9.985    10.613    -5.265
    383    O    10.773    10.314    -6.489
    384    O    10.426    11.618    -4.264
    385    O    8.464    11.006    -5.662
    386    C    7.778    10.678    -6.887
    387    H    7.608    9.693    -6.911
    388    H    8.270    11.088    -7.655
    389    C    6.378    11.281    -7.001
    390    H    5.898    10.821    -7.748
    391    O    5.650    11.101    -5.807
    392    C    4.619    12.099    -5.785
    393    H    3.776    11.638    -6.062
    394    N    4.557    12.630    -4.408
    395    C    5.617    12.490    -3.555
    396    H    6.504    12.052    -3.705
    397    C    3.398    13.274    -4.021
    398    O    2.436    13.411    -4.772
    399    N    3.380    13.761    -2.732
    400    H    2.526    14.247    -2.424
    401    C    4.399    13.661    -1.808
    402    O    4.265    14.129    -0.681
    403    C    5.574    12.976    -2.295
    404    H    6.261    12.951    -1.569
    405    C    4.972    13.159    -6.827
    406    H    5.032    14.040    -6.358
    407    O    4.070    13.136    -7.940
    408    H    3.165    12.901    -7.723
    409    C    6.353    12.766    -7.317
    410    H    7.041    13.229    -6.759
    411    O    6.314    12.977    -8.729
    412    P    6.827    14.385    -9.300
    413    O    6.439    14.443    -10.726
    414    O    8.250    14.551    -8.907
    415    O    5.935    15.477    -8.508
    416    C    4.589    15.844    -8.854
    417    H    4.017    15.024    -8.852
    418    H    4.607    16.401    -9.684
    419    C    3.947    16.753    -7.803
    420    H    3.033    17.033    -8.098
    421    O    3.844    16.078    -6.560
    422    C    3.950    17.037    -5.489
    423    H    3.063    17.058    -5.028
    424    N    5.059    16.613    -4.611
    425    C    5.211    16.929    -3.279
    426    N    4.033    18.443    -0.385
    427    H    4.251    18.608    0.587
    428    H    3.162    18.826    -0.723
    429    N    4.345    17.643    -2.525
    430    C    4.768    17.778    -1.266
    431    N    5.945    17.254    -0.796
    432    H    6.176    17.420    0.194
    433    C    6.845    16.521    -1.546
    434    O    7.870    16.099    -1.027
    435    C    6.406    16.368    -2.887
    436    N    7.006    15.707    -3.954
    437    C    6.170    15.889    -4.927
    438    H    6.524    15.442    -5.748
    439    C    4.200    18.387    -6.142
    440    H    4.918    18.856    -5.627
    441    O    2.994    19.152    -6.274
    442    H    2.359    19.033    -5.564
    443    C    4.736    18.019    -7.517
    444    H    5.706    17.788    -7.443
    445    O    4.402    19.052    -8.444
    446    P    5.590    20.012    -8.940
    447    O    5.022    20.988    -9.891
    448    O    6.750    19.182    -9.333
    449    O    5.971    20.786    -7.581
    450    C    7.231    21.439    -7.420
    451    H    7.281    22.210    -8.055
    452    H    7.959    20.755    -7.455
    453    C    7.380    22.076    -6.041
    454    H    8.323    22.369    -5.886
    455    O    6.526    23.214    -5.985
    456    C    5.539    23.051    -4.951
    457    H    5.631    23.847    -4.353
    458    N    4.214    22.997    -5.610
    459    C    3.912    22.013    -6.508
    460    H    4.461    21.242    -6.831
    461    C    2.711    21.980    -7.115
    462    H    2.298    21.365    -7.787
    463    C    3.296    23.989    -5.292
    464    O    3.587    24.861    -4.478
    465    N    2.078    23.961    -5.903
    466    C    1.774    23.002    -6.785
    467    N    0.577    23.008    -7.368
    468    H    -0.078    23.739    -7.131
    469    H    0.326    22.294    -8.037
    470    C    5.879    21.787    -4.154
    471    H    5.086    21.180    -4.206
    472    O    6.256    22.081    -2.805
    473    H    5.831    22.853    -2.425
    474    C    7.046    21.141    -4.889
    475    H    6.717    20.272    -5.260
    476    O    8.191    21.067    -4.028
    477    P    8.235    20.000    -2.815
    478    O    9.654    19.718    -2.502
    479    O    7.319    18.887    -3.152
    480    O    7.594    20.829    -1.583
    481    C    8.241    22.000    -1.045
    482    H    8.280    22.705    -1.753
    483    H    9.098    21.727    -0.608
    484    C    7.439    22.655    0.087
    485    H    7.986    23.359    0.540
    486    O    6.274    23.260    -0.471
    487    C    5.103    22.843    0.235
    488    H    4.847    23.611    0.823
    489    N    4.044    22.543    -0.747
    490    C    2.202    22.653    -1.933
    491    N    2.984    21.661    -2.521
    492    C    4.045    21.647    -1.775
    493    H    4.676    20.952    -2.120
    494    N    0.458    24.138    -1.450
    495    C    1.174    24.581    -0.417
    496    H    0.866    25.299    0.208
    497    N    2.381    24.168    -0.041
    498    C    2.838    23.191    -0.852
    499    C    0.941    23.168    -2.241
    500    N    0.233    22.770    -3.294
    501    H    -0.658    23.208    -3.478
    502    H    0.603    22.039    -3.885
    503    C    5.463    21.656    1.103
    504    H    5.181    20.829    0.617
    505    O    4.874    21.762    2.401
    506    H    4.023    22.207    2.425
    507    C    6.984    21.686    1.191
    508    H    7.314    20.767    0.974
    509    O    7.385    22.204    2.467
    510    P    7.143    21.363    3.828
    511    O    8.199    21.745    4.793
    512    O    6.969    19.939    3.458
    513    O    5.728    21.922    4.372
    514    C    5.559    22.343    5.737
    515    H    6.213    23.073    5.936
    516    H    5.562    21.537    6.329
    517    C    4.187    22.982    5.964
    518    H    3.997    23.101    6.939
    519    O    4.179    24.268    5.326
    520    C    3.056    24.356    4.439
    521    H    2.313    24.791    4.947
    522    N    3.432    25.192    3.255
    523    C    4.746    25.295    2.864
    524    H    5.563    24.887    3.272
    525    C    2.426    25.850    2.549
    526    O    1.241    25.783    2.854
    527    N    2.834    26.589    1.459
    528    H    2.101    27.082    0.929
    529    C    4.126    26.736    1.004
    530    O    4.362    27.415    0.009
    531    C    5.110    26.027    1.785
    532    H    6.015    26.185    1.389
    533    C    2.659    22.908    4.114
    534    H    3.239    22.577    3.370
    535    O    1.267    22.801    3.789
    536    H    0.898    23.560    3.330
    537    C    3.028    22.164    5.404
    538    H    3.361    21.254    5.157
    539    O    1.911    22.171    6.310
    540    P    0.894    20.919    6.428
    541    O    -0.007    21.172    7.578
    542    O    1.685    19.670    6.374
    543    O    0.027    21.024    5.068
    544    C    -0.866    22.127    4.840
    545    H    -0.332    22.970    4.772
    546    H    -1.604    22.093    5.514
    547    C    -1.569    22.005    3.489
    548    H    -2.242    22.738    3.390
    549    O    -0.606    22.100    2.412
    550    C    -1.256    21.593    1.248
    551    H    -1.598    22.387    0.746
    552    N    -0.262    20.862    0.441
    553    C    0.774    19.904    -1.240
    554    N    1.617    19.768    -0.137
    555    C    0.950    20.353    0.813
    556    H    1.482    20.310    1.659
    557    N    -0.133    19.794    -3.397
    558    C    -1.199    20.447    -2.939
    559    H    -1.986    20.696    -3.503
    560    N    -1.405    20.871    -1.699
    561    C    -0.368    20.565    -0.895
    562    C    0.884    19.501    -2.573
    563    N    1.936    18.850    -3.050
    564    H    1.949    18.588    -4.025
    565    H    2.700    18.631    -2.427
    566    C    -2.448    20.746    1.717
    567    H    -2.341    19.827    1.338
    568    O    -3.691    21.348    1.330
    569    H    -3.666    21.832    0.501
    570    C    -2.282    20.680    3.242
    571    H    -1.666    19.929    3.482
    572    O    -3.567    20.599    3.883
    573    P    -4.203    19.180    4.332
    574    O    -5.544    19.433    4.908
    575    O    -3.201    18.441    5.135
    576    O    -4.413    18.390    2.937
    577    C    -5.361    18.839    1.962
    578    H    -5.180    19.800    1.750
    579    H    -6.281    18.591    2.264
    580    C    -5.210    18.130    0.618
    581    H    -5.942    18.477    0.031
    582    O    -3.928    18.533    0.064
    583    C    -3.479    17.482    -0.810
    584    H    -3.467    17.863    -1.735
    585    N    -2.111    17.081    -0.415
    586    C    -0.082    16.229    -0.406
    587    N    -0.304    16.722    0.878
    588    C    -1.505    17.202    0.802
    589    H    -1.760    17.583    1.691
    590    N    0.901    15.227    -2.283
    591    C    -0.219    15.491    -2.958
    592    H    -0.361    15.251    -3.918
    593    N    -1.310    16.098    -2.498
    594    C    -1.173    16.443    -1.200
    595    C    1.011    15.586    -0.993
    596    N    2.141    15.337    -0.338
    597    H    2.899    14.880    -0.825
    598    H    2.215    15.610    0.632
    599    C    -4.533    16.362    -0.743
    600    H    -4.042    15.494    -0.671
    601    O    -5.408    16.430    -1.870
    602    H    -5.003    16.754    -2.678
    603    C    -5.305    16.606    0.555
    604    H    -4.805    16.216    1.328
    605    O    -6.660    16.102    0.459
    606    P    -7.078    14.546    0.727
    607    O    -8.540    14.443    0.558
    608    O    -6.500    14.045    2.002
    609    O    -6.432    13.698    -0.489
    610    C    -6.873    13.771    -1.855
    611    H    -6.799    14.717    -2.171
    612    H    -7.761    13.319    -1.935
    613    C    -5.956    12.983    -2.784
    614    H    -6.313    13.214    -3.689
    615    O    -4.646    13.567    -2.633
    616    C    -3.688    12.608    -3.099
    617    H    -3.333    12.946    -3.971
    618    N    -2.565    12.534    -2.128
    619    C    -1.303    12.018    -2.349
    620    N    1.029    10.542    -4.467