!*** FMO 5.2 (Gamess) INPUT generated by Facio 21.1.1.32 ***
 $CONTRL RUNTYP=OPTFMO NPRINT=-5 ISPHER=-1 MAXIT=50 $END
 $SYSTEM MWORDS=29 $END
 $GDDI NGROUP=1 $END
 $INTGRL NINTIC=-9000000 $END
 $SCF DIRSCF=.FALSE. NPUNCH=0 $END
!*** NumCPU : 2  MemPerNode : 512MB
 $FMOPRP
    NAODIR=210
    NGRFMO(1)=1, 1, 0, 0, 0,   0, 0, 0, 0, 0
    NPRINT=9
 $END
 $FMO
      SCFTYP(1)=RHF
      MODGRD=10
      MODMUL=0
      MAXCAO=5
      MAXBND=34
      NLAYER=1
      NFRAG=32
      ICHARG(1)=-1, -1, -1, -1, -1, -1, -1, -1, -1, -1, 
-1, -1, -1, -1, -1, -1, -1, -1, -1, -1, 
-1, -1, -1, -1, -1, -1, -1, -1, -1, -1, 
-1, 0
      FRGNAM(1)=Frag1, Frag2, Frag3, Frag4, Frag5, Frag6, Frag7, Frag8, Frag9, Frag10, Frag11, Frag12, Frag13, Frag14, Frag15, Frag16, Frag17, Frag18, Frag19, Frag20, Frag21, Frag22, Frag23, Frag24, Frag25, Frag26, Frag27, Frag28, Frag29, Frag30, Frag31, Frag32
      indat(1)=0
               1   -36   0
               37   -69   0
               70   -103   0
               104   -134   0
               135   -167   0
               168   -201   0
               202   -231   0
               232   -261   0
               262   -292   0
               293   -323   0
               324   -354   0
               355   -385   0
               386   -415   0
               416   -449   0
               450   -480   0
               481   -513   0
               514   -543   0
               544   -576   0
               577   -609   0
               610   -643   0
               644   -677   0
               678   -710   0
               711   -740   0
               741   -774   0
               775   -807   0
               808   -840   0
               841   -871   0
               872   -902   0
               903   -936   0
               937   -966   0
               967   -996   0
               997   -1024   0
 $END

 $FMOBND
   -37   36       3-21G    MINI
   -70   69       3-21G    MINI
   -104   103       3-21G    MINI
   -135   134       3-21G    MINI
   -168   167       3-21G    MINI
   -202   201       3-21G    MINI
   -232   231       3-21G    MINI
   -262   261       3-21G    MINI
   -293   292       3-21G    MINI
   -324   323       3-21G    MINI
   -355   354       3-21G    MINI
   -386   385       3-21G    MINI
   -416   415       3-21G    MINI
   -450   449       3-21G    MINI
   -481   480       3-21G    MINI
   -514   513       3-21G    MINI
   -544   543       3-21G    MINI
   -577   576       3-21G    MINI
   -610   609       3-21G    MINI
   -644   643       3-21G    MINI
   -678   677       3-21G    MINI
   -711   710       3-21G    MINI
   -741   740       3-21G    MINI
   -775   774       3-21G    MINI
   -808   807       3-21G    MINI
   -841   840       3-21G    MINI
   -872   871       3-21G    MINI
   -903   902       3-21G    MINI
   -937   936       3-21G    MINI
   -967   966       3-21G    MINI
   -997   996       3-21G    MINI
 $END
 $FMOHYB
 3-21G        9   5
   1 0  -0.070459   0.164841   0.000000   0.000000   0.502116
         0.466939   0.000000   0.000000   0.418036
   0 1  -0.070465   0.164857   0.473392   0.000000  -0.167359
         0.466967   0.394111   0.000000  -0.139327
   0 1  -0.070465   0.164857  -0.236695  -0.409969  -0.167359
         0.466967  -0.197055  -0.341311  -0.139327
   0 1  -0.070465   0.164857  -0.236695   0.409969  -0.167359
         0.466967  -0.197055   0.341311  -0.139327
   0 1   1.006716   0.074826   0.000000   0.000000   0.000000
        -0.143830   0.000000   0.000000  -0.000003
 MINI         5   5
   1 0  -0.104883   0.308874   0.000000   0.000000   0.521806
   0 1  -0.104883   0.308874   0.491961   0.000000  -0.173934
   0 1  -0.104883   0.308876  -0.245980  -0.426050  -0.173933
   0 1  -0.104883   0.308876  -0.245980   0.426050  -0.173933
   0 1   0.988209   0.063992   0.000000   0.000000   0.000000
 $END

 $DATA
 FMO calculation : XXNAMEXX
 C1 
 C.1-1    6
      N21 3
   
 O.1-1    8
      N21 3
   
 N.1-1    7
      N21 3
   
 H.1-1    1
      N21 3
   
 P.1-1   15
      N21 3
   
 $END
 $FMOXYZ
    1    H    10.172    -12.705    -2.467
    2    O    9.400    -13.092    -2.970
    3    C    9.877    -13.644    -4.205
    4    H    10.484    -14.413    -4.005
    5    H    10.231    -12.904    -4.777
    6    C    8.754    -14.258    -5.037
    7    H    9.100    -14.542    -5.931
    8    O    8.185    -15.378    -4.386
    9    C    6.890    -15.603    -4.984
    10    H    7.027    -16.272    -5.715
    11    N    5.990    -16.108    -3.923
    12    C    4.833    -16.830    -4.112
    13    N    2.568    -18.386    -6.232
    14    H    1.708    -18.915    -6.249
    15    H    2.999    -18.199    -7.126
    16    N    4.329    -17.226    -5.305
    17    C    3.192    -17.911    -5.163
    18    N    2.605    -18.179    -3.954
    19    H    1.726    -18.717    -3.962
    20    C    3.097    -17.786    -2.724
    21    O    2.488    -18.078    -1.698
    22    C    4.311    -17.055    -2.857
    23    N    5.124    -16.487    -1.880
    24    C    6.085    -15.951    -2.568
    25    H    6.729    -15.512    -1.941
    26    C    6.434    -14.279    -5.600
    27    H    5.607    -13.979    -5.125
    28    O    6.240    -14.376    -7.014
    29    H    5.920    -15.227    -7.322
    30    C    7.570    -13.332    -5.261
    31    H    7.347    -12.874    -4.400
    32    O    7.754    -12.300    -6.235
    33    P    7.051    -10.877    -5.990
    34    O    7.568    -10.005    -7.054
    35    O    7.060    -10.344    -4.616
    36    O    5.518    -11.196    -6.322
    37    C    5.203    -11.771    -7.586
    38    H    5.771    -12.582    -7.725
    39    H    5.229    -11.056    -8.284
    40    C    3.782    -12.309    -7.677
    41    H    3.595    -12.641    -8.601
    42    O    3.580    -13.389    -6.739
    43    C    2.150    -13.530    -6.614
    44    H    1.857    -14.147    -7.344
    45    N    1.863    -14.077    -5.272
    46    C    0.972    -15.207    -3.613
    47    N    1.973    -14.420    -3.052
    48    C    2.454    -13.782    -4.076
    49    H    3.190    -13.179    -3.768
    50    N    -0.791    -16.726    -3.898
    51    C    -0.768    -16.446    -5.202
    52    H    -1.383    -16.861    -5.873
    53    N    0.045    -15.596    -5.827
    54    C    0.896    -15.007    -4.962
    55    C    0.071    -16.122    -3.063
    56    N    0.038    -16.414    -1.765
    57    H    -0.637    -17.087    -1.431
    58    H    0.689    -15.956    -1.143
    59    C    1.544    -12.150    -6.857
    60    H    1.216    -11.802    -5.979
    61    O    0.524    -12.183    -7.860
    62    H    0.015    -12.996    -7.894
    63    C    2.710    -11.298    -7.321
    64    H    3.023    -10.752    -6.544
    65    O    2.325    -10.507    -8.444
    66    P    1.389    -9.234    -8.138
    67    O    1.490    -8.380    -9.335
    68    O    1.579    -8.636    -6.796
    69    O    -0.030    -9.981    -8.139
    70    C    -0.450    -10.662    -9.322
    71    H    0.259    -11.313    -9.592
    72    H    -0.749    -9.988    -9.997
    73    C    -1.680    -11.523    -9.077
    74    H    -1.981    -12.007    -9.899
    75    O    -1.394    -12.478    -8.054
    76    C    -2.641    -13.060    -7.615
    77    H    -2.797    -13.909    -8.120
    78    N    -2.545    -13.271    -6.156
    79    C    -3.454    -13.940    -5.372
    80    N    -6.413    -15.726    -5.049
    81    H    -7.009    -16.186    -4.376
    82    H    -6.719    -15.748    -6.011
    83    N    -4.593    -14.533    -5.803
    84    C    -5.273    -15.096    -4.805
    85    N    -4.865    -15.082    -3.496
    86    H    -5.467    -15.555    -2.807
    87    C    -3.710    -14.484    -3.029
    88    O    -3.441    -14.527    -1.832
    89    C    -2.973    -13.875    -4.082
    90    N    -1.769    -13.175    -4.046
    91    C    -1.577    -12.851    -5.288
    92    H    -0.722    -12.337    -5.362
    93    C    -3.661    -12.010    -8.075
    94    H    -4.226    -11.784    -7.281
    95    O    -4.420    -12.461    -9.202
    96    H    -4.570    -13.409    -9.237
    97    C    -2.859    -10.784    -8.476
    98    H    -2.550    -10.280    -7.669
    99    O    -3.564    -9.994    -9.447
    100    P    -4.259    -8.596    -9.024
    101    O    -4.844    -7.894    -10.192
    102    O    -3.263    -7.906    -8.177
    103    O    -5.475    -9.090    -8.093
    104    C    -6.621    -9.718    -8.679
    105    H    -6.324    -10.522    -9.194
    106    H    -7.161    -9.027    -9.160
    107    C    -7.574    -10.275    -7.631
    108    H    -8.396    -10.632    -8.075
    109    O    -6.930    -11.339    -6.915
    110    C    -7.613    -11.470    -5.654
    111    H    -8.169    -12.299    -5.712
    112    N    -6.587    -11.554    -4.592
    113    C    -5.347    -11.010    -4.768
    114    H    -4.948    -10.553    -5.563
    115    C    -4.439    -11.038    -3.778
    116    H    -3.499    -10.707    -3.700
    117    C    -6.948    -12.155    -3.397
    118    O    -8.063    -12.653    -3.267
    119    N    -6.036    -12.186    -2.389
    120    C    -4.819    -11.651    -2.548
    121    N    -3.961    -11.666    -1.534
    122    H    -4.246    -12.083    -0.659
    123    H    -3.038    -11.268    -1.633
    124    C    -8.540    -10.256    -5.524
    125    H    -8.402    -9.865    -4.614
    126    O    -9.903    -10.606    -5.781
    127    H    -10.149    -11.496    -5.519
    128    C    -8.036    -9.267    -6.572
    129    H    -7.240    -8.770    -6.226
    130    O    -9.061    -8.325    -6.979
    131    P    -9.278    -6.826    -6.376
    132    O    -10.218    -5.945    -7.095
    133    O    -7.902    -6.322    -6.215
    134    O    -9.902    -6.963    -4.903
    135    C    -11.282    -7.303    -4.689
    136    H    -11.469    -8.189    -5.114
    137    H    -11.853    -6.526    -4.953
    138    C    -11.628    -7.525    -3.223
    139    H    -12.607    -7.707    -3.131
    140    O    -10.873    -8.687    -2.713
    141    C    -10.860    -8.544    -1.277
    142    H    -11.515    -9.206    -0.914
    143    N    -9.482    -8.829    -0.814
    144    C    -7.756    -9.412    0.413
    145    N    -7.246    -9.087    -0.843
    146    C    -8.308    -8.753    -1.512
    147    H    -8.041    -8.497    -2.441
    148    N    -7.942    -10.074    2.651
    149    C    -9.258    -9.886    2.557
    150    H    -9.899    -10.037    3.310
    151    N    -9.936    -9.478    1.486
    152    C    -9.112    -9.257    0.443
    153    C    -7.150    -9.848    1.594
    154    N    -5.840    -10.043    1.709
    155    H    -5.468    -10.358    2.593
    156    H    -5.247    -9.871    0.909
    157    C    -11.362    -7.127    -0.973
    158    H    -10.716    -6.726    -0.323
    159    O    -12.705    -7.140    -0.487
    160    H    -12.950    -7.927    0.006
    161    C    -11.300    -6.344    -2.283
    162    H    -10.369    -6.030    -2.468
    163    O    -12.060    -5.100    -2.262
    164    P    -11.563    -3.620    -1.829
    165    O    -12.548    -2.530    -1.953
    166    O    -10.276    -3.320    -2.478
    167    O    -11.226    -3.593    -0.260
    168    C    -12.245    -3.736    0.735
    169    H    -12.910    -4.415    0.425
    170    H    -12.584    -2.829    0.987
    171    C    -11.766    -4.305    2.062
    172    H    -12.524    -4.628    2.630
    173    O    -10.899    -5.402    1.777
    174    C    -10.105    -5.663    2.952
    175    H    -10.501    -6.454    3.419
    176    N    -8.716    -5.925    2.508
    177    C    -7.674    -6.342    3.305
    178    N    -6.439    -7.253    6.420
    179    H    -5.605    -7.558    6.901
    180    H    -7.270    -7.145    6.983
    181    N    -7.736    -6.585    4.635
    182    C    -6.560    -6.980    5.129
    183    N    -5.423    -7.121    4.375
    184    H    -4.568    -7.430    4.859
    185    C    -5.333    -6.881    3.016
    186    O    -4.267    -7.051    2.433
    187    C    -6.580    -6.459    2.477
    188    N    -6.918    -6.117    1.169
    189    C    -8.177    -5.815    1.259
    190    H    -8.514    -5.551    0.355
    191    C    -10.297    -4.417    3.829
    192    H    -9.389    -4.114    4.119
    193    O    -11.160    -4.681    4.936
    194    H    -11.125    -5.580    5.272
    195    C    -10.902    -3.363    2.913
    196    H    -10.198    -2.954    2.333
    197    O    -11.386    -2.149    3.560
    198    P    -10.597    -0.772    3.767
    199    O    -11.473    0.292    4.294
    200    O    -9.740    -0.295    2.674
    201    O    -9.544    -1.001    4.955
    202    C    -9.996    -1.359    6.256
    203    H    -10.663    -2.100    6.177
    204    H    -10.272    -0.531    6.744
    205    C    -8.924    -1.953    7.160
    206    H    -9.278    -2.226    8.055
    207    O    -8.377    -3.082    6.520
    208    C    -7.016    -3.267    6.958
    209    H    -6.978    -4.116    7.484
    210    N    -6.159    -3.302    5.748
    211    C    -6.603    -2.784    4.561
    212    H    -7.481    -2.360    4.341
    213    C    -4.897    -3.857    5.863
    214    O    -4.475    -4.326    6.914
    215    N    -4.129    -3.849    4.718
    216    H    -3.185    -4.256    4.784
    217    C    -4.499    -3.349    3.487
    218    O    -3.724    -3.395    2.538
    219    C    -5.828    -2.791    3.454
    220    H    -6.016    -2.453    2.532
    221    C    -6.750    -2.091    7.893
    222    H    -5.815    -1.770    7.745
    223    O    -7.010    -2.422    9.259
    224    H    -6.806    -3.328    9.502
    225    C    -7.718    -1.041    7.385
    226    H    -7.413    -0.681    6.503
    227    O    -7.856    0.100    8.245
    228    P    -7.027    1.465    8.007
    229    O    -7.508    2.453    8.986
    230    O    -6.883    1.936    6.620
    231    O    -5.553    1.041    8.465
    232    C    -5.370    0.525    9.780
    233    H    -6.023    -0.216    9.933
    234    H    -5.363    1.285    10.430
    235    C    -4.019    -0.144    10.006
    236    H    -3.918    -0.527    10.924
    237    O    -3.860    -1.174    9.060
    238    C    -2.452    -1.410    8.840
    239    H    -2.225    -2.285    9.268
    240    N    -2.232    -1.423    7.375
    241    C    -3.149    -0.868    6.525
    242    H    -4.025    -0.432    6.730
    243    C    -1.062    -1.988    6.902
    244    O    -0.227    -2.496    7.644
    245    N    -0.883    -1.953    5.536
    246    H    -0.017    -2.369    5.165
    247    C    -1.752    -1.414    4.611
    248    O    -1.481    -1.435    3.416
    249    C    -2.949    -0.848    5.188
    250    H    -3.523    -0.483    4.455
    251    C    -1.730    -0.285    9.590
    252    H    -1.006    0.083    9.006
    253    O    -1.253    -0.715    10.865
    254    H    -0.947    -1.624    10.898
    255    C    -2.832    0.753    9.725
    256    H    -2.970    1.210    8.846
    257    O    -2.597    1.722    10.746
    258    P    -2.022    3.171    10.337
    259    O    -2.049    3.958    11.581
    260    O    -2.537    3.788    9.097
    261    O    -0.518    2.726    10.034
    262    C    0.178    1.986    11.037
    263    H    -0.369    1.188    11.291
    264    H    0.462    2.611    11.764
    265    C    1.481    1.395    10.526
    266    H    1.970    0.833    11.193
    267    O    1.202    0.598    9.356
    268    C    2.391    0.431    8.561
    269    H    2.766    -0.481    8.728
    270    N    2.012    0.629    7.143
    271    C    0.865    1.290    6.809
    272    H    0.160    1.698    7.390
    273    C    0.533    1.478    5.520
    274    H    -0.241    1.923    5.070
    275    C    2.868    0.133    6.171
    276    O    3.900    -0.453    6.493
    277    N    2.540    0.319    4.865
    278    C    1.417    0.966    4.525
    279    N    1.129    1.137    3.239
    280    H    1.765    0.774    2.544
    281    H    0.288    1.622    2.959
    282    C    3.331    1.477    9.171
    283    H    3.755    1.976    8.415
    284    O    4.288    0.884    10.053
    285    H    4.561    -0.005    9.816
    286    C    2.427    2.424    9.944
    287    H    1.920    3.013    9.315
    288    O    3.101    3.230    10.910
    289    P    3.259    4.808    10.635
    290    O    3.868    5.373    11.848
    291    O    2.129    5.531    10.016
    292    O    4.380    4.677    9.502
    293    C    5.565    3.940    9.800
    294    H    5.309    3.053    10.185
    295    H    6.184    4.520    10.329
    296    C    6.346    3.597    8.544
    297    H    7.169    3.051    8.701
    298    O    5.485    2.893    7.654
    299    C    5.897    3.142    6.295
    300    H    6.226    2.280    5.909
    301    N    4.713    3.670    5.572
    302    C    3.647    4.173    6.260
    303    H    3.504    4.270    7.245
    304    C    2.566    4.639    5.613
    305    H    1.701    5.037    5.920
    306    C    4.719    3.628    4.182
    307    O    5.693    3.182    3.581
    308    N    3.625    4.099    3.518
    309    C    2.575    4.592    4.187
    310    N    1.519    5.038    3.514
    311    H    1.530    4.996    2.505
    312    H    0.718    5.413    4.001
    313    C    7.076    4.107    6.436
    314    H    7.052    4.764    5.683
    315    O    8.322    3.418    6.538
    316    H    8.386    2.617    6.012
    317    C    6.726    4.825    7.731
    318    H    5.916    5.398    7.609
    319    O    7.739    5.672    8.284
    320    P    7.625    7.277    8.229
    321    O    8.644    7.870    9.112
    322    O    6.287    7.893    8.251
    323    O    8.146    7.422    6.730
    324    C    9.425    6.879    6.430
    325    H    9.438    5.913    6.690
    326    H    10.130    7.476    6.812
    327    C    9.718    6.866    4.939
    328    H    10.635    6.524    4.732
    329    O    8.747    6.033    4.280
    330    C    8.570    6.536    2.942
    331    H    8.886    5.825    2.314
    332    N    7.126    6.837    2.775
    333    C    6.330    7.039    3.865
    334    H    6.554    7.028    4.840
    335    C    5.019    7.302    3.720
    336    H    4.279    7.476    4.369
    337    C    6.614    6.896    1.484
    338    O    7.349    6.722    0.514
    339    N    5.286    7.163    1.328
    340    C    4.497    7.362    2.393
    341    N    3.205    7.622    2.209
    342    H    2.845    7.664    1.266
    343    H    2.592    7.775    2.997
    344    C    9.498    7.750    2.829
    345    H    9.048    8.452    2.277
    346    O    10.785    7.394    2.322
    347    H    10.783    6.692    1.667
    348    C    9.569    8.225    4.274
    349    H    8.698    8.630    4.552
    350    O    10.660    9.127    4.526
    351    P    10.527    10.739    4.514
    352    O    11.794    11.372    4.930
    353    O    9.281    11.227    5.142
    354    O    10.383    10.980    2.937
    355    C    11.427    10.552    2.064
    356    H    11.606    9.581    2.222
    357    H    12.195    11.189    2.138
    358    C    11.009    10.628    0.599
    359    H    11.739    10.328    -0.015
    360    O    9.849    9.813    0.380
    361    C    9.119    10.356    -0.731
    362    H    9.221    9.712    -1.489
    363    N    7.714    10.506    -0.293
    364    C    7.409    10.573    1.034
    365    H    8.007    10.556    1.835
    366    C    6.135    10.681    1.442
    367    H    5.707    10.742    2.344
    368    C    6.722    10.550    -1.265
    369    O    7.018    10.498    -2.457
    370    N    5.427    10.659    -0.859
    371    C    5.119    10.724    0.442
    372    N    3.847    10.822    0.811
    373    H    3.132    10.846    0.098
    374    H    3.596    10.872    1.788
    375    C    9.807    11.673    -1.099
    376    H    9.102    12.366    -1.250
    377    O    10.681    11.527    -2.224
    378    H    10.390    10.893    -2.883
    379    C    10.582    12.020    0.167
    380    H    9.959    12.397    0.852
    381    O    11.767    12.763    -0.162
    382    P    11.768    14.351    -0.423
    383    O    13.093    14.836    -0.901
    384    O    11.215    14.810    0.865
    385    O    10.687    14.595    -1.597
    386    C    10.956    14.183    -2.942
    387    H    11.187    13.210    -2.944
    388    H    11.608    14.820    -3.354
    389    C    9.709    14.289    -3.808
    390    H    9.899    13.933    -4.723
    391    O    8.652    13.550    -3.239
    392    C    7.437    14.078    -3.795
    393    H    7.154    13.441    -4.512
    394    N    6.449    14.165    -2.699
    395    C    6.853    14.183    -1.392
    396    H    7.776    14.139    -1.009
    397    C    5.113    14.233    -3.042
    398    O    4.727    14.218    -4.207
    399    N    4.223    14.323    -1.991
    400    H    3.221    14.379    -2.225
    401    C    4.544    14.346    -0.651
    402    O    3.660    14.421    0.199
    403    C    5.961    14.271    -0.381
    404    H    6.106    14.297    0.608
    405    C    7.769    15.431    -4.432
    406    H    7.163    16.118    -4.031
    407    O    7.682    15.383    -5.864
    408    H    7.012    14.789    -6.210
    409    C    9.199    15.709    -3.984
    410    H    9.189    16.164    -3.094
    411    O    9.920    16.303    -5.085
    412    P    9.939    17.876    -5.443
    413    O    10.451    18.218    -6.806
    414    O    10.709    18.258    -4.249
    415    O    8.421    18.421    -5.324
    416    C    7.485    18.294    -6.403
    417    H    7.452    17.338    -6.695
    418    H    7.688    18.988    -7.094
    419    C    6.070    18.612    -5.924
    420    H    5.437    18.632    -6.698
    421    O    5.633    17.634    -4.995
    422    C    4.711    18.245    -4.073
    423    H    3.818    17.824    -4.232
    424    N    5.222    18.028    -2.706
    425    C    4.476    18.011    -1.548
    426    N    1.405    18.181    0.065
    427    H    0.966    18.150    0.974
    428    H    0.791    18.301    -0.728
    429    N    3.133    18.141    -1.462
    430    C    2.701    18.081    -0.200
    431    N    3.526    17.909    0.882
    432    H    3.087    17.879    1.813
    433    C    4.899    17.773    0.821
    434    O    5.544    17.624    1.851
    435    C    5.372    17.833    -0.517
    436    N    6.669    17.737    -1.011
    437    C    6.510    17.859    -2.291
    438    H    7.403    17.802    -2.737
    439    C    4.639    19.719    -4.451
    440    H    4.651    20.263    -3.612
    441    O    3.502    20.002    -5.282
    442    H    2.721    19.478    -5.092
    443    C    5.944    19.939    -5.202
    444    H    6.696    20.027    -4.548
    445    O    5.732    20.950    -6.197
    446    P    6.295    22.429    -5.973
    447    O    5.929    23.300    -7.125
    448    O    7.704    22.152    -5.620
    449    O    5.468    22.881    -4.663
    450    C    6.017    23.883    -3.813
    451    H    6.047    24.751    -4.309
    452    H    6.868    23.542    -3.415
    453    C    5.105    24.145    -2.621
    454    H    5.570    24.715    -1.944
    455    O    3.952    24.832    -3.090
    456    C    2.767    24.056    -2.837
    457    H    2.156    24.646    -2.309
    458    N    2.189    23.689    -4.151
    459    C    2.892    22.932    -5.044
    460    H    3.806    22.532    -4.972
    461    C    2.368    22.614    -6.242
    462    H    2.706    22.085    -7.021
    463    C    0.914    24.152    -4.447
    464    O    0.297    24.826    -3.627
    465    N    0.376    23.834    -5.658
    466    C    1.059    23.094    -6.540
    467    N    0.507    22.807    -7.716
    468    H    -0.419    23.155    -7.918
    469    H    1.004    22.250    -8.397
    470    C    3.158    22.848    -1.979
    471    H    2.889    22.027    -2.482
    472    O    2.577    22.901    -0.672
    473    H    1.722    23.335    -0.626
    474    C    4.677    22.892    -1.876
    475    H    5.030    22.090    -2.358
    476    O    5.076    23.047    -0.506
    477    P    4.951    21.799    0.512
    478    O    5.933    21.997    1.605
    479    O    4.988    20.572    -0.315
    480    O    3.460    21.962    1.125
    481    C    3.102    23.082    1.961
    482    H    3.178    23.924    1.427
    483    H    3.612    23.024    2.819
    484    C    1.630    23.048    2.398
    485    H    1.458    23.745    3.094
    486    O    0.812    23.316    1.259
    487    C    -0.202    22.317    1.124
    488    H    -1.048    22.737    1.453
    489    N    -0.304    21.942    -0.300
    490    C    -1.047    21.701    -2.350
    491    N    0.279    21.275    -2.365
    492    C    0.652    21.439    -1.133
    493    H    1.605    21.151    -1.040
    494    N    -3.233    22.243    -2.988
    495    C    -3.469    22.604    -1.727
    496    H    -4.350    22.949    -1.402
    497    N    -2.614    22.574    -0.709
    498    C    -1.410    22.105    -1.098
    499    C    -2.024    21.784    -3.344
    500    N    -1.793    21.470    -4.615
    501    H    -2.535    21.584    -5.290
    502    H    -0.880    21.125    -4.876
    503    C    0.149    21.150    2.021
    504    H    0.590    20.454    1.455
    505    O    -1.002    20.661    2.713
    506    H    -1.828    20.735    2.229
    507    C    1.169    21.710    3.003
    508    H    1.943    21.077    3.022
    509    O    0.536    21.922    4.272
    510    P    0.086    20.673    5.198
    511    O    0.150    21.094    6.614
    512    O    0.819    19.456    4.777
    513    O    -1.466    20.474    4.805
    514    C    -2.496    20.367    5.803
    515    H    -2.486    21.190    6.371
    516    H    -2.416    19.481    6.260
    517    C    -3.896    20.350    5.182
    518    H    -4.578    20.102    5.870
    519    O    -4.185    21.669    4.692
    520    C    -4.567    21.590    3.313
    521    H    -5.566    21.550    3.285
    522    N    -4.085    22.816    2.601
    523    C    -2.996    23.511    3.071
    524    H    -2.431    23.336    3.878
    525    C    -4.749    23.231    1.447
    526    O    -5.719    22.642    0.985
    527    N    -4.245    24.354    0.828
    528    H    -4.727    24.672    -0.025
    529    C    -3.159    25.098    1.234
    530    O    -2.798    26.078    0.588
    531    C    -2.526    24.610    2.434
    532    H    -1.752    25.202    2.658
    533    C    -3.999    20.260    2.794
    534    H    -3.039    20.397    2.549
    535    O    -4.767    19.751    1.698
    536    H    -5.141    20.420    1.120
    537    C    -4.075    19.358    4.034
    538    H    -3.296    18.732    4.020
    539    O    -5.345    18.677    4.090
    540    P    -5.589    17.173    3.535
    541    O    -6.954    16.732    3.895
    542    O    -4.454    16.301    3.904
    543    O    -5.559    17.355    1.932
    544    C    -6.571    18.114    1.250
    545    H    -6.536    19.062    1.567
    546    H    -7.443    17.629    1.318
    547    C    -6.298    18.202    -0.251
    548    H    -7.061    18.665    -0.703
    549    O    -5.078    18.938    -0.513
    550    C    -4.707    18.623    -1.854
    551    H    -5.053    19.368    -2.424
    552    N    -3.237    18.546    -1.914
    553    C    -1.171    18.560    -2.648
    554    N    -1.091    18.384    -1.266
    555    C    -2.337    18.386    -0.899
    556    H    -2.385    18.265    0.093
    557    N    -0.627    18.821    -4.911
    558    C    -1.930    18.901    -5.174
    559    H    -2.307    19.030    -6.091
    560    N    -2.928    18.827    -4.303
    561    C    -2.471    18.657    -3.046
    562    C    -0.203    18.649    -3.650
    563    N    1.099    18.572    -3.411
    564    H    1.744    18.645    -4.185
    565    H    1.416    18.442    -2.461
    566    C    -5.422    17.321    -2.244
    567    H    -4.724    16.654    -2.506
    568    O    -6.384    17.547    -3.283
    569    H    -6.151    18.238    -3.908
    570    C    -6.096    16.856    -0.944
    571    H    -5.453    16.308    -0.409
    572    O    -7.351    16.219    -1.254
    573    P    -7.511    14.630    -1.525
    574    O    -8.882    14.268    -1.970
    575    O    -6.972    14.006    -0.301
    576    O    -6.514    14.304    -2.755
    577    C    -6.801    14.771    -4.079
    578    H    -7.008    15.749    -4.042
    579    H    -7.476    14.165    -4.499
    580    C    -5.591    14.682    -5.009
    581    H    -5.880    14.949    -5.928
    582    O    -4.534    15.574    -4.569
    583    C    -3.281    15.007    -5.002
    584    H    -2.917    15.633    -5.692
    585    N    -2.405    14.906    -3.821
    586    C    -0.646    14.766    -2.516
    587    N    -1.757    14.742    -1.676
    588    C    -2.751    14.824    -2.503
    589    H    -3.607    14.810    -1.986
    590    N    1.553    14.752    -3.325
    591    C    1.057    14.849    -4.560
    592    H    1.619    14.885    -5.386
    593    N    -0.225    14.913    -4.906
    594    C    -1.028    14.865    -3.822
    595    C    0.727    14.710    -2.267
    596    N    1.236    14.635    -1.040
    597    H    2.239    14.611    -0.927
    598    H    0.607    14.604    -0.250
    599    C    -3.568    13.647    -5.661
    600    H    -2.911    12.977    -5.315
    601    O    -3.577    13.743    -7.090
    602    H    -2.949    14.369    -7.458
    603    C    -4.953    13.310    -5.119
    604    H    -4.856    12.922    -4.203
    605    O    -5.710    12.607    -6.130
    606    P    -5.411    11.095    -6.600
    607    O    -6.234    10.673    -7.773
    608    O    -5.650    10.534    -5.263
    609    O    -3.844    10.931    -6.988
    610    C    -3.298    11.460    -8.204
    611    H    -3.489    12.441    -8.247
    612    H    -3.596    10.890    -8.970
    613    C    -1.776    11.354    -8.202
    614    H    -1.403    11.705    -9.061
    615    O    -1.207    12.095    -7.108
    616    C    0.093    11.532    -6.851
    617    H    0.758    12.169    -7.241