!*** FMO 5.2 (Gamess) INPUT generated by Facio 21.1.1.32 ***
 $CONTRL RUNTYP=OPTFMO NPRINT=-5 ISPHER=-1 MAXIT=50 $END
 $SYSTEM MWORDS=29 $END
 $GDDI NGROUP=1 $END
 $INTGRL NINTIC=-9000000 $END
 $SCF DIRSCF=.FALSE. NPUNCH=0 $END
!*** NumCPU : 2  MemPerNode : 512MB
 $FMOPRP
    NAODIR=210
    NGRFMO(1)=1, 1, 0, 0, 0,   0, 0, 0, 0, 0
    NPRINT=9
 $END
 $FMO
      SCFTYP(1)=RHF
      MODGRD=10
      MODMUL=0
      MAXCAO=5
      MAXBND=34
      NLAYER=1
      NFRAG=32
      ICHARG(1)=-1, -1, -1, -1, -1, -1, -1, -1, -1, -1, 
-1, -1, -1, -1, -1, -1, -1, -1, -1, -1, 
-1, -1, -1, -1, -1, -1, -1, -1, -1, -1, 
-1, 0
      FRGNAM(1)=Frag1, Frag2, Frag3, Frag4, Frag5, Frag6, Frag7, Frag8, Frag9, Frag10, Frag11, Frag12, Frag13, Frag14, Frag15, Frag16, Frag17, Frag18, Frag19, Frag20, Frag21, Frag22, Frag23, Frag24, Frag25, Frag26, Frag27, Frag28, Frag29, Frag30, Frag31, Frag32
      indat(1)=0
               1   -36   0
               37   -69   0
               70   -103   0
               104   -134   0
               135   -167   0
               168   -201   0
               202   -231   0
               232   -261   0
               262   -292   0
               293   -323   0
               324   -354   0
               355   -385   0
               386   -415   0
               416   -449   0
               450   -480   0
               481   -513   0
               514   -543   0
               544   -576   0
               577   -609   0
               610   -643   0
               644   -677   0
               678   -710   0
               711   -740   0
               741   -774   0
               775   -807   0
               808   -840   0
               841   -871   0
               872   -902   0
               903   -936   0
               937   -966   0
               967   -996   0
               997   -1024   0
 $END

 $FMOBND
   -37   36       3-21G    MINI
   -70   69       3-21G    MINI
   -104   103       3-21G    MINI
   -135   134       3-21G    MINI
   -168   167       3-21G    MINI
   -202   201       3-21G    MINI
   -232   231       3-21G    MINI
   -262   261       3-21G    MINI
   -293   292       3-21G    MINI
   -324   323       3-21G    MINI
   -355   354       3-21G    MINI
   -386   385       3-21G    MINI
   -416   415       3-21G    MINI
   -450   449       3-21G    MINI
   -481   480       3-21G    MINI
   -514   513       3-21G    MINI
   -544   543       3-21G    MINI
   -577   576       3-21G    MINI
   -610   609       3-21G    MINI
   -644   643       3-21G    MINI
   -678   677       3-21G    MINI
   -711   710       3-21G    MINI
   -741   740       3-21G    MINI
   -775   774       3-21G    MINI
   -808   807       3-21G    MINI
   -841   840       3-21G    MINI
   -872   871       3-21G    MINI
   -903   902       3-21G    MINI
   -937   936       3-21G    MINI
   -967   966       3-21G    MINI
   -997   996       3-21G    MINI
 $END
 $FMOHYB
 3-21G        9   5
   1 0  -0.070459   0.164841   0.000000   0.000000   0.502116
         0.466939   0.000000   0.000000   0.418036
   0 1  -0.070465   0.164857   0.473392   0.000000  -0.167359
         0.466967   0.394111   0.000000  -0.139327
   0 1  -0.070465   0.164857  -0.236695  -0.409969  -0.167359
         0.466967  -0.197055  -0.341311  -0.139327
   0 1  -0.070465   0.164857  -0.236695   0.409969  -0.167359
         0.466967  -0.197055   0.341311  -0.139327
   0 1   1.006716   0.074826   0.000000   0.000000   0.000000
        -0.143830   0.000000   0.000000  -0.000003
 MINI         5   5
   1 0  -0.104883   0.308874   0.000000   0.000000   0.521806
   0 1  -0.104883   0.308874   0.491961   0.000000  -0.173934
   0 1  -0.104883   0.308876  -0.245980  -0.426050  -0.173933
   0 1  -0.104883   0.308876  -0.245980   0.426050  -0.173933
   0 1   0.988209   0.063992   0.000000   0.000000   0.000000
 $END

 $DATA
 FMO calculation : XXNAMEXX
 C1 
 C.1-1    6
      N21 3
   
 O.1-1    8
      N21 3
   
 N.1-1    7
      N21 3
   
 H.1-1    1
      N21 3
   
 P.1-1   15
      N21 3
   
 $END
 $FMOXYZ
    1    H    8.790    -18.695    -3.507
    2    O    7.922    -18.700    -4.003
    3    C    8.119    -19.317    -5.282
    4    H    8.360    -20.278    -5.146
    5    H    8.739    -18.751    -5.825
    6    C    6.829    -19.359    -6.098
    7    H    7.027    -19.698    -7.018
    8    O    5.861    -20.195    -5.499
    9    C    4.585    -19.830    -6.065
    10    H    4.431    -20.445    -6.838
    11    N    3.567    -19.991    -5.004
    12    C    2.215    -20.164    -5.193
    13    N    -0.508    -20.516    -7.318
    14    H    -1.510    -20.645    -7.334
    15    H    -0.046    -20.462    -8.215
    16    N    1.583    -20.240    -6.388
    17    C    0.266    -20.409    -6.247
    18    N    -0.369    -20.493    -5.034
    19    H    -1.391    -20.623    -5.042
    20    C    0.252    -20.417    -3.802
    21    O    -0.414    -20.502    -2.774
    22    C    1.657    -20.238    -3.936
    23    N    2.640    -20.118    -2.957
    24    C    3.730    -19.976    -3.647
    25    H    4.503    -19.880    -3.019
    26    C    4.710    -18.396    -6.586
    27    H    4.083    -17.819    -6.063
    28    O    4.479    -18.313    -7.998
    29    H    3.838    -18.940    -8.341
    30    C    6.141    -18.012    -6.241
    31    H    6.140    -17.551    -5.354
    32    O    6.739    -17.277    -7.316
    33    P    6.717    -15.665    -7.312
    34    O    7.489    -15.198    -8.485
    35    O    7.076    -15.198    -5.954
    36    O    5.162    -15.347    -7.571
    37    C    4.554    -15.732    -8.807
    38    H    4.700    -16.711    -8.951
    39    H    4.851    -15.103    -9.526
    40    C    3.039    -15.580    -8.778
    41    H    2.665    -15.788    -9.682
    42    O    2.454    -16.479    -7.807
    43    C    1.121    -15.979    -7.577
    44    H    0.533    -16.398    -8.269
    45    N    0.725    -16.358    -6.206
    46    C    -0.445    -16.998    -4.460
    47    N    0.839    -16.736    -3.991
    48    C    1.473    -16.364    -5.062
    49    H    2.419    -16.149    -4.822
    50    N    -2.711    -17.586    -4.581
    51    C    -2.665    -17.332    -5.890
    52    H    -3.448    -17.429    -6.504
    53    N    -1.612    -16.919    -6.592
    54    C    -0.526    -16.772    -5.805
    55    C    -1.612    -17.430    -3.825
    56    N    -1.672    -17.690    -2.522
    57    H    -2.547    -18.001    -2.125
    58    H    -0.841    -17.570    -1.960
    59    C    1.167    -14.469    -7.811
    60    H    1.095    -14.024    -6.918
    61    O    0.162    -14.043    -8.736
    62    H    -0.651    -14.554    -8.715
    63    C    2.547    -14.198    -8.389
    64    H    3.129    -13.839    -7.659
    65    O    2.444    -13.363    -9.551
    66    P    2.083    -11.800    -9.381
    67    O    2.370    -11.129    -10.668
    68    O    2.679    -11.274    -8.131
    69    O    0.486    -11.855    -9.192
    70    C    -0.350    -12.293    -10.267
    71    H    -0.043    -13.194    -10.572
    72    H    -0.413    -11.564    -10.948
    73    C    -1.788    -12.516    -9.819
    74    H    -2.380    -12.835    -10.559
    75    O    -1.814    -13.472    -8.759
    76    C    -3.117    -13.430    -8.138
    77    H    -3.695    -14.133    -8.552
    78    N    -2.926    -13.629    -6.687
    79    C    -3.921    -13.807    -5.754
    80    N    -7.289    -14.086    -4.961
    81    H    -7.928    -14.219    -4.191
    82    H    -7.702    -13.992    -5.878
    83    N    -5.251    -13.842    -6.007
    84    C    -5.966    -14.022    -4.898
    85    N    -5.420    -14.161    -3.648
    86    H    -6.069    -14.303    -2.861
    87    C    -4.069    -14.126    -3.361
    88    O    -3.686    -14.258    -2.203
    89    C    -3.290    -13.932    -4.536
    90    N    -1.908    -13.838    -4.691
    91    C    -1.765    -13.662    -5.969
    92    H    -0.791    -13.583    -6.180
    93    C    -3.630    -12.048    -8.563
    94    H    -3.927    -11.574    -7.734
    95    O    -4.654    -12.140    -9.560
    96    H    -5.210    -12.920    -9.499
    97    C    -2.429    -11.325    -9.142
    98    H    -1.826    -11.001    -8.413
    99    O    -2.825    -10.314    -10.074
    100    P    -2.799    -8.765    -9.623
    101    O    -3.186    -7.951    -10.794
    102    O    -1.536    -8.474    -8.902
    103    O    -4.004    -8.724    -8.558
    104    C    -5.347    -8.920    -9.009
    105    H    -5.407    -9.801    -9.479
    106    H    -5.647    -8.104    -9.503
    107    C    -6.337    -9.043    -7.858
    108    H    -7.274    -9.098    -8.202
    109    O    -6.056    -10.212    -7.081
    110    C    -6.619    -10.000    -5.774
    111    H    -7.440    -10.568    -5.722
    112    N    -5.598    -10.386    -4.779
    113    C    -4.269    -10.351    -5.085
    114    H    -3.809    -10.123    -5.943
    115    C    -3.343    -10.653    -4.159
    116    H    -2.344    -10.689    -4.173
    117    C    -6.038    -10.738    -3.513
    118    O    -7.241    -10.778    -3.265
    119    N    -5.109    -11.042    -2.569
    120    C    -3.802    -11.007    -2.856
    121    N    -2.917    -11.277    -1.903
    122    H    -3.251    -11.504    -0.977
    123    H    -1.926    -11.256    -2.098
    124    C    -7.026    -8.525    -5.687
    125    H    -6.671    -8.145    -4.833
    126    O    -8.440    -8.351    -5.831
    127    H    -8.975    -9.053    -5.454
    128    C    -6.273    -7.909    -6.854
    129    H    -5.319    -7.759    -6.593
    130    O    -6.940    -6.737    -7.339
    131    P    -6.479    -5.297    -6.788
    132    O    -7.157    -4.266    -7.601
    133    O    -5.005    -5.239    -6.623
    134    O    -7.142    -5.292    -5.324
    135    C    -8.567    -5.338    -5.194
    136    H    -8.906    -6.177    -5.619
    137    H    -8.950    -4.468    -5.504
    138    C    -9.006    -5.448    -3.740
    139    H    -10.002    -5.403    -3.668
    140    O    -8.540    -6.711    -3.150
    141    C    -8.546    -6.505    -1.723
    142    H    -9.349    -6.984    -1.368
    143    N    -7.285    -7.068    -1.196
    144    C    -5.780    -7.977    0.119
    145    N    -5.170    -7.831    -1.126
    146    C    -6.104    -7.291    -1.849
    147    H    -5.755    -7.142    -2.774
    148    N    -6.185    -8.484    2.368
    149    C    -7.418    -8.004    2.214
    150    H    -8.100    -7.973    2.945
    151    N    -7.949    -7.497    1.104
    152    C    -7.064    -7.515    0.088
    153    C    -5.328    -8.489    1.337
    154    N    -4.102    -8.974    1.512
    155    H    -3.841    -9.330    2.421
    156    H    -3.460    -8.976    0.732
    157    C    -8.716    -4.999    -1.484
    158    H    -8.013    -4.708    -0.835
    159    O    -10.044    -4.674    -1.061
    160    H    -10.472    -5.342    -0.521
    161    C    -8.426    -4.376    -2.839
    162    H    -7.438    -4.327    -2.986
    163    O    -9.054    -3.097    -2.990
    164    P    -8.168    -1.780    -2.710
    165    O    -9.000    -0.608    -3.047
    166    O    -6.785    -1.847    -3.252
    167    O    -8.054    -1.853    -1.109
    168    C    -9.253    -1.863    -0.329
    169    H    -9.922    -2.463    -0.768
    170    H    -9.525    -0.920    -0.137
    171    C    -9.050    -2.478    1.049
    172    H    -9.914    -2.671    1.514
    173    O    -8.321    -3.688    0.908
    174    C    -7.750    -4.015    2.188
    175    H    -8.327    -4.718    2.605
    176    N    -6.371    -4.491    1.949
    177    C    -5.523    -5.031    2.889
    178    N    -4.876    -6.003    6.159
    179    H    -4.172    -6.412    6.756
    180    H    -5.749    -5.750    6.600
    181    N    -5.801    -5.213    4.201
    182    C    -4.778    -5.762    4.859
    183    N    -3.586    -6.101    4.274
    184    H    -2.863    -6.517    4.878
    185    C    -3.277    -5.928    2.936
    186    O    -2.181    -6.278    2.509
    187    C    -4.359    -5.343    2.222
    188    N    -4.461    -5.002    0.875
    189    C    -5.658    -4.510    0.784
    190    H    -5.825    -4.232    -0.162
    191    C    -7.859    -2.725    3.012
    192    H    -6.961    -2.534    3.408
    193    O    -8.899    -2.802    3.992
    194    H    -9.039    -3.675    4.366
    195    C    -8.181    -1.657    1.980
    196    H    -7.349    -1.387    1.495
    197    O    -8.832    -0.513    2.546
    198    P    -7.949    0.820    2.751
    199    O    -8.880    1.916    3.081
    200    O    -6.905    1.091    1.724
    201    O    -7.162    0.436    4.099
    202    C    -7.908    0.153    5.289
    203    H    -8.609    -0.529    5.080
    204    H    -8.202    1.015    5.702
    205    C    -7.054    -0.506    6.366
    206    H    -7.566    -0.700    7.203
    207    O    -6.539    -1.714    5.853
    208    C    -5.289    -2.011    6.504
    209    H    -5.423    -2.832    7.059
    210    N    -4.268    -2.189    5.444
    211    C    -4.471    -1.688    4.187
    212    H    -5.256    -1.188    3.820
    213    C    -3.106    -2.863    5.772
    214    O    -2.900    -3.319    6.890
    215    N    -2.178    -2.990    4.760
    216    H    -1.304    -3.487    4.985
    217    C    -2.302    -2.517    3.471
    218    O    -1.403    -2.688    2.655
    219    C    -3.544    -1.828    3.213
    220    H    -3.553    -1.518    2.262
    221    C    -5.041    -0.820    7.428
    222    H    -4.066    -0.598    7.407
    223    O    -5.538    -1.053    8.749
    224    H    -5.468    -1.961    9.054
    225    C    -5.815    0.293    6.749
    226    H    -5.346    0.586    5.916
    227    O    -6.017    1.452    7.574
    228    P    -5.143    2.782    7.280
    229    O    -5.669    3.886    8.109
    230    O    -4.817    3.120    5.865
    231    O    -3.751    2.327    7.942
    232    C    -3.753    1.938    9.321
    233    H    -4.465    1.250    9.464
    234    H    -3.773    2.759    9.891
    235    C    -2.474    1.230    9.753
    236    H    -2.496    0.946    10.711
    237    O    -2.294    0.091    8.940
    238    C    -0.890    -0.244    8.896
    239    H    -0.763    -1.077    9.435
    240    N    -0.527    -0.427    7.472
    241    C    -1.317    0.082    6.477
    242    H    -2.179    0.585    6.543
    243    C    0.645    -1.103    7.185
    244    O    1.366    -1.573    8.059
    245    N    0.960    -1.227    5.849
    246    H    1.829    -1.728    5.615
    247    C    0.223    -0.744    4.788
    248    O    0.609    -0.910    3.636
    249    C    -0.985    -0.054    5.174
    250    H    -1.458    0.260    4.351
    251    C    -0.176    0.919    9.598
    252    H    0.621    1.179    9.053
    253    O    0.146    0.601    10.953
    254    H    0.381    -0.317    11.109
    255    C    -1.209    2.034    9.529
    256    H    -1.228    2.421    8.607
    257    O    -0.994    3.083    10.486
    258    P    -0.325    4.467    9.994
    259    O    -0.360    5.411    11.130
    260    O    -0.733    4.997    8.661
    261    O    1.197    3.984    9.824
    262    C    1.848    3.371    10.944
    263    H    1.279    2.621    11.281
    264    H    2.118    4.082    11.593
    265    C    3.158    2.701    10.561
    266    H    3.603    2.222    11.317
    267    O    2.906    1.762    9.492
    268    C    4.120    1.475    8.776
    269    H    4.470    0.587    9.074
    270    N    3.802    1.500    7.331
    271    C    2.684    2.133    6.869
    272    H    1.967    2.624    7.364
    273    C    2.406    2.161    5.555
    274    H    1.659    2.558    5.021
    275    C    4.684    0.870    6.465
    276    O    5.689    0.311    6.901
    277    N    4.410    0.894    5.134
    278    C    3.317    1.512    4.669
    279    N    3.082    1.523    3.361
    280    H    3.736    1.063    2.744
    281    H    2.264    1.983    2.988
    282    C    5.056    2.577    9.288
    283    H    5.516    2.967    8.490
    284    O    5.967    2.084    10.275
    285    H    6.225    1.166    10.166
    286    C    4.157    3.634    9.907
    287    H    3.693    4.161    9.195
    288    O    4.873    4.455    10.837
    289    P    5.269    5.947    10.384
    290    O    5.946    6.597    11.524
    291    O    4.141    6.650    9.721
    292    O    6.376    5.658    9.252
    293    C    7.587    4.969    9.586
    294    H    7.358    4.128    10.077
    295    H    8.217    5.611    10.024
    296    C    8.323    4.498    8.341
    297    H    9.150    3.970    8.533
    298    O    7.435    3.703    7.558
    299    C    7.801    3.810    6.169
    300    H    8.123    2.913    5.865
    301    N    6.594    4.263    5.437
    302    C    5.550    4.834    6.106
    303    H    5.439    5.033    7.080
    304    C    4.446    5.229    5.451
    305    H    3.591    5.655    5.745
    306    C    6.553    4.078    4.059
    307    O    7.507    3.572    3.475
    308    N    5.435    4.476    3.388
    309    C    4.406    5.035    4.038
    310    N    3.326    5.408    3.359
    311    H    3.303    5.261    2.360
    312    H    2.540    5.831    3.832
    313    C    8.978    4.788    6.169
    314    H    8.919    5.366    5.355
    315    O    10.234    4.117    6.299
    316    H    10.286    3.265    5.859
    317    C    8.683    5.631    7.396
    318    H    7.874    6.200    7.246
    319    O    9.798    6.435    7.809
    320    P    9.763    8.015    7.500
    321    O    10.859    8.694    8.226
    322    O    8.393    8.575    7.629
    323    O    10.135    8.067    5.938
    324    C    11.428    7.621    5.517
    325    H    11.558    6.675    5.813
    326    H    12.111    8.297    5.793
    327    C    11.562    7.557    4.002
    328    H    12.474    7.269    3.711
    329    O    10.586    6.623    3.486
    330    C    10.228    7.046    2.157
    331    H    10.531    6.331    1.527
    332    N    8.757    7.234    2.140
    333    C    8.069    7.430    3.302
    334    H    8.398    7.484    4.245
    335    C    6.734    7.587    3.294
    336    H    6.057    7.737    4.015
    337    C    8.105    7.192    0.913
    338    O    8.742    7.025    -0.125
    339    N    6.751    7.352    0.895
    340    C    6.068    7.544    2.032
    341    N    4.747    7.699    1.983
    342    H    4.285    7.668    1.085
    343    H    4.213    7.845    2.828
    344    C    11.041    8.324    1.893
    345    H    10.475    8.964    1.373
    346    O    12.291    8.037    1.259
    347    H    12.272    7.306    0.638
    348    C    11.244    8.872    3.299
    349    H    10.385    9.234    3.660
    350    O    12.118    10.029    3.436
    351    P    11.546    11.537    3.664
    352    O    12.611    12.507    4.011
    353    O    10.287    11.805    4.430
    354    O    11.125    11.934    2.165
    355    C    12.121    11.809    1.142
    356    H    12.524    10.895    1.190
    357    H    12.736    12.596    1.189
    358    C    11.547    11.879    -0.269
    359    H    12.246    11.773    -0.976
    360    O    10.554    10.850    -0.434
    361    C    9.606    11.289    -1.423
    362    H    9.752    10.727    -2.237
    363    N    8.257    11.106    -0.841
    364    C    8.095    11.029    0.510
    365    H    8.769    11.093    1.246
    366    C    6.879    10.838    1.046
    367    H    6.551    10.754    1.987
    368    C    7.177    10.993    -1.706
    369    O    7.342    11.076    -2.922
    370    N    5.940    10.799    -1.170
    371    C    5.772    10.720    0.156
    372    N    4.556    10.521    0.652
    373    H    3.777    10.433    0.015
    374    H    4.410    10.459    1.649
    375    C    9.966    12.743    -1.749
    376    H    9.122    13.279    -1.772
    377    O    10.715    12.850    -2.962
    378    H    10.487    12.207    -3.637
    379    C    10.795    13.174    -0.545
    380    H    10.192    13.371    0.228
    381    O    11.555    14.385    -0.721
    382    P    11.004    15.781    -0.121
    383    O    12.009    16.829    -0.384
    384    O    10.354    15.882    1.224
    385    O    9.801    16.051    -1.147
    386    C    10.102    15.952    -2.544
    387    H    10.592    15.097    -2.712
    388    H    10.530    16.804    -2.846
    389    C    8.862    15.838    -3.415
    390    H    9.109    15.703    -4.375
    391    O    8.062    14.758    -2.990
    392    C    6.732    15.011    -3.474
    393    H    6.618    14.448    -4.293
    394    N    5.790    14.633    -2.397
    395    C    6.210    14.545    -1.098
    396    H    7.119    14.697    -0.710
    397    C    4.478    14.380    -2.750
    398    O    4.079    14.453    -3.909
    399    N    3.630    14.042    -1.717
    400    H    2.647    13.854    -1.959
    401    C    3.968    13.930    -0.386
    402    O    3.124    13.612    0.447
    403    C    5.358    14.210    -0.104
    404    H    5.518    14.109    0.878
    405    C    6.656    16.487    -3.870
    406    H    5.897    16.907    -3.373
    407    O    6.543    16.657    -5.288
    408    H    6.047    15.970    -5.740
    409    C    7.966    17.057    -3.347
    410    H    7.851    17.323    -2.390
    411    O    8.440    18.128    -4.169
    412    P    8.280    19.637    -3.631
    413    O    8.749    20.511    -4.726
    414    O    8.826    19.839    -2.264
    415    O    6.680    19.782    -3.531
    416    C    5.874    19.675    -4.711
    417    H    6.123    18.840    -5.201
    418    H    5.912    20.540    -5.211
    419    C    4.396    19.493    -4.376
    420    H    3.835    19.536    -5.203
    421    O    4.191    18.241    -3.743
    422    C    3.072    18.348    -2.839
    423    H    2.347    17.763    -3.201
    424    N    3.529    17.936    -1.496
    425    C    2.741    17.445    -0.479
    426    N    -0.358    16.421    0.709
    427    H    -0.832    16.056    1.523
    428    H    -0.925    16.570    -0.113
    429    N    1.412    17.201    -0.546
    430    C    0.929    16.725    0.604
    431    N    1.693    16.509    1.722
    432    H    1.217    16.139    2.557
    433    C    3.051    16.749    1.815
    434    O    3.639    16.523    2.865
    435    C    3.577    17.255    0.598
    436    N    4.880    17.620    0.271
    437    C    4.781    18.007    -0.961
    438    H    5.683    18.293    -1.286
    439    C    2.614    19.798    -2.897
    440    H    2.414    20.105    -1.966
    441    O    1.504    19.973    -3.786
    442    H    0.891    19.235    -3.819
    443    C    3.853    20.525    -3.403
    444    H    4.504    20.639    -2.653
    445    O    3.501    21.743    -4.063
    446    P    3.791    23.139    -3.317
    447    O    3.386    24.226    -4.230
    448    O    5.158    23.121    -2.750
    449    O    2.742    23.053    -2.100
    450    C    2.865    23.886    -0.949
    451    H    2.713    24.837    -1.218
    452    H    3.717    23.664    -0.476
    453    C    1.769    23.593    0.072
    454    H    1.967    24.055    0.937
    455    O    0.539    24.089    -0.447
    456    C    -0.404    23.016    -0.620
    457    H    -1.221    23.278    -0.106
    458    N    -0.676    22.893    -2.071
    459    C    0.324    22.596    -2.954
    460    H    1.295    22.420    -2.794
    461    C    0.073    22.501    -4.272
    462    H    0.647    22.300    -5.066
    463    C    -1.979    23.103    -2.503
    464    O    -2.864    23.363    -1.693
    465    N    -2.240    23.008    -3.838
    466    C    -1.266    22.719    -4.710
    467    N    -1.554    22.640    -6.006
    468    H    -2.505    22.800    -6.305
    469    H    -0.835    22.423    -6.682
    470    C    0.192    21.749    0.003
    471    H    0.235    21.057    -0.718
    472    O    -0.549    21.305    1.144
    473    H    -1.489    21.496    1.116
    474    C    1.609    22.119    0.420
    475    H    2.235    21.581    -0.145
    476    O    1.772    21.952    1.837
    477    P    1.846    20.478    2.500
    478    O    2.573    20.583    3.786
    479    O    2.306    19.509    1.479
    480    O    0.294    20.160    2.827
    481    C    -0.451    20.953    3.774
    482    H    -0.502    21.895    3.441
    483    H    -0.081    20.799    4.690
    484    C    -1.918    20.518    3.887
    485    H    -2.356    20.979    4.658
    486    O    -2.597    20.877    2.684
    487    C    -3.305    19.754    2.153
    488    H    -4.267    19.904    2.380
    489    N    -3.095    19.715    0.693
    490    C    -3.437    19.822    -1.470
    491    N    -2.060    19.690    -1.300
    492    C    -1.931    19.629    -0.011
    493    H    -0.962    19.527    0.215
    494    N    -5.565    20.044    -2.418
    495    C    -6.072    20.040    -1.185
    496    H    -7.049    20.112    -0.983
    497    N    -5.400    19.943    -0.042
    498    C    -4.073    19.834    -0.263
    499    C    -4.242    19.938    -2.606
    500    N    -3.751    19.988    -3.840
    501    H    -4.387    20.105    -4.616
    502    H    -2.753    19.907    -3.974
    503    C    -2.822    18.503    2.855
    504    H    -2.147    18.063    2.263
    505    O    -3.912    17.642    3.192
    506    H    -4.648    17.660    2.576
    507    C    -2.124    19.012    4.111
    508    H    -1.231    18.565    4.157
    509    O    -2.996    18.846    5.237
    510    P    -3.383    17.377    5.791
    511    O    -3.656    17.508    7.240
    512    O    -2.326    16.461    5.308
    513    O    -4.766    17.017    5.040
    514    C    -5.890    16.492    5.768
    515    H    -6.161    17.152    6.469
    516    H    -5.682    15.558    6.059
    517    C    -7.126    16.350    4.878
    518    H    -7.837    15.826    5.347
    519    O    -7.630    17.662    4.585
    520    C    -7.751    17.822    3.166
    521    H    -8.694    17.596    2.923
    522    N    -7.455    19.244    2.808
    523    C    -6.648    20.012    3.614
    524    H    -6.198    19.772    4.474
    525    C    -7.998    19.771    1.636
    526    O    -8.715    19.126    0.882
    527    N    -7.673    21.081    1.353
    528    H    -8.069    21.484    0.492
    529    C    -6.870    21.909    2.106
    530    O    -6.644    23.059    1.741
    531    C    -6.347    21.295    3.302
    532    H    -5.779    21.960    3.787
    533    C    -6.810    16.780    2.541
    534    H    -5.882    17.153    2.527
    535    O    -7.252    16.386    1.236
    536    H    -7.672    17.081    0.724
    537    C    -6.872    15.633    3.558
    538    H    -5.974    15.195    3.593
    539    O    -7.966    14.758    3.240
    540    P    -7.730    13.394    2.405
    541    O    -9.011    12.650    2.400
    542    O    -6.500    12.722    2.886
    543    O    -7.457    13.933    0.907
    544    C    -8.486    14.607    0.164
    545    H    -8.725    15.456    0.636
    546    H    -9.221    13.959    -0.036
    547    C    -7.983    15.056    -1.208
    548    H    -8.735    15.447    -1.738
    549    O    -6.932    16.044    -1.081
    550    C    -6.268    16.084    -2.344
    551    H    -6.670    16.848    -2.848
    552    N    -4.833    16.305    -2.097
    553    C    -2.730    16.865    -2.355
    554    N    -2.856    16.432    -1.035
    555    C    -4.115    16.120    -0.950
    556    H    -4.308    15.795    -0.024
    557    N    -1.870    17.679    -4.376
    558    C    -3.089    17.557    -4.898
    559    H    -3.318    17.793    -5.842
    560    N    -4.180    17.118    -4.286
    561    C    -3.926    16.788    -3.005
    562    C    -1.647    17.341    -3.097
    563    N    -0.425    17.469    -2.598
    564    H    0.313    17.819    -3.193
    565    H    -0.260    17.214    -1.635
    566    C    -6.584    14.776    -3.083
    567    H    -5.720    14.318    -3.293
    568    O    -7.375    15.015    -4.255
    569    H    -7.195    15.845    -4.703
    570    C    -7.345    13.952    -2.038
    571    H    -6.690    13.454    -1.469
    572    O    -8.315    13.111    -2.677
    573    P    -7.967    11.562    -2.963
    574    O    -9.125    10.971    -3.670
    575    O    -7.453    10.894    -1.742
    576    O    -6.747    11.673    -4.015
    577    C    -6.957    12.310    -5.281
    578    H    -7.390    13.199    -5.130
    579    H    -7.410    11.666    -5.898
    580    C    -5.655    12.654    -6.001
    581    H    -5.869    13.019    -6.907
    582    O    -4.902    13.648    -5.257
    583    C    -3.503    13.448    -5.548
    584    H    -3.209    14.251    -6.066
    585    N    -2.791    13.325    -4.262
    586    C    -1.238    13.327    -2.712
    587    N    -2.413    12.917    -2.086
    588    C    -3.279    12.934    -3.049
    589    H    -4.168    12.645    -2.693
    590    N    0.988    13.926    -3.128
    591    C    0.651    14.138    -4.402
    592    H    1.293    14.442    -5.106
    593    N    -0.553    13.990    -4.948
    594    C    -1.457    13.577    -4.036
    595    C    0.064    13.519    -2.244
    596    N    0.409    13.333    -0.973
    597    H    1.365    13.502    -0.695
    598    H    -0.293    13.027    -0.315
    599    C    -3.372    12.203    -6.439
    600    H    -2.628    11.633    -6.091
    601    O    -3.211    12.551    -7.816
    602    H    -2.702    13.349    -7.975
    603    C    -4.698    11.494    -6.190
    604    H    -4.633    10.983    -5.333
    605    O    -5.079    10.714    -7.332
    606    P    -4.604    9.176    -7.442
    607    O    -5.213    8.595    -8.658
    608    O    -4.796    8.513    -6.133
    609    O    -3.022    9.332    -7.701
    610    C    -2.542    10.089    -8.819
    611    H    -2.952    11.001    -8.795
    612    H    -2.654    9.547    -9.652
    613    C    -1.042    10.341    -8.726
    614    H    -0.716    10.839    -9.530
    615    O    -0.722    11.098    -7.544
    616    C    0.659    10.830    -7.230
    617    H    1.178    11.632    -7.526