!*** FMO 5.2 (Gamess) INPUT generated by Facio 21.1.1.32 ***
 $CONTRL RUNTYP=OPTFMO NPRINT=-5 ISPHER=-1 MAXIT=50 $END
 $SYSTEM MWORDS=29 $END
 $GDDI NGROUP=1 $END
 $INTGRL NINTIC=-9000000 $END
 $SCF DIRSCF=.FALSE. NPUNCH=0 $END
!*** NumCPU : 2  MemPerNode : 512MB
 $FMOPRP
    NAODIR=210
    NGRFMO(1)=1, 1, 0, 0, 0,   0, 0, 0, 0, 0
    NPRINT=9
 $END
 $FMO
      SCFTYP(1)=RHF
      MODGRD=10
      MODMUL=0
      MAXCAO=5
      MAXBND=34
      NLAYER=1
      NFRAG=32
      ICHARG(1)=-1, -1, -1, -1, -1, -1, -1, -1, -1, -1, 
-1, -1, -1, -1, -1, -1, -1, -1, -1, -1, 
-1, -1, -1, -1, -1, -1, -1, -1, -1, -1, 
-1, 0
      FRGNAM(1)=Frag1, Frag2, Frag3, Frag4, Frag5, Frag6, Frag7, Frag8, Frag9, Frag10, Frag11, Frag12, Frag13, Frag14, Frag15, Frag16, Frag17, Frag18, Frag19, Frag20, Frag21, Frag22, Frag23, Frag24, Frag25, Frag26, Frag27, Frag28, Frag29, Frag30, Frag31, Frag32
      indat(1)=0
               1   -36   0
               37   -69   0
               70   -103   0
               104   -134   0
               135   -167   0
               168   -201   0
               202   -231   0
               232   -261   0
               262   -292   0
               293   -323   0
               324   -354   0
               355   -385   0
               386   -415   0
               416   -449   0
               450   -480   0
               481   -513   0
               514   -543   0
               544   -576   0
               577   -609   0
               610   -643   0
               644   -677   0
               678   -710   0
               711   -740   0
               741   -774   0
               775   -807   0
               808   -840   0
               841   -871   0
               872   -902   0
               903   -936   0
               937   -966   0
               967   -996   0
               997   -1024   0
 $END

 $FMOBND
   -37   36       3-21G    MINI
   -70   69       3-21G    MINI
   -104   103       3-21G    MINI
   -135   134       3-21G    MINI
   -168   167       3-21G    MINI
   -202   201       3-21G    MINI
   -232   231       3-21G    MINI
   -262   261       3-21G    MINI
   -293   292       3-21G    MINI
   -324   323       3-21G    MINI
   -355   354       3-21G    MINI
   -386   385       3-21G    MINI
   -416   415       3-21G    MINI
   -450   449       3-21G    MINI
   -481   480       3-21G    MINI
   -514   513       3-21G    MINI
   -544   543       3-21G    MINI
   -577   576       3-21G    MINI
   -610   609       3-21G    MINI
   -644   643       3-21G    MINI
   -678   677       3-21G    MINI
   -711   710       3-21G    MINI
   -741   740       3-21G    MINI
   -775   774       3-21G    MINI
   -808   807       3-21G    MINI
   -841   840       3-21G    MINI
   -872   871       3-21G    MINI
   -903   902       3-21G    MINI
   -937   936       3-21G    MINI
   -967   966       3-21G    MINI
   -997   996       3-21G    MINI
 $END
 $FMOHYB
 3-21G        9   5
   1 0  -0.070459   0.164841   0.000000   0.000000   0.502116
         0.466939   0.000000   0.000000   0.418036
   0 1  -0.070465   0.164857   0.473392   0.000000  -0.167359
         0.466967   0.394111   0.000000  -0.139327
   0 1  -0.070465   0.164857  -0.236695  -0.409969  -0.167359
         0.466967  -0.197055  -0.341311  -0.139327
   0 1  -0.070465   0.164857  -0.236695   0.409969  -0.167359
         0.466967  -0.197055   0.341311  -0.139327
   0 1   1.006716   0.074826   0.000000   0.000000   0.000000
        -0.143830   0.000000   0.000000  -0.000003
 MINI         5   5
   1 0  -0.104883   0.308874   0.000000   0.000000   0.521806
   0 1  -0.104883   0.308874   0.491961   0.000000  -0.173934
   0 1  -0.104883   0.308876  -0.245980  -0.426050  -0.173933
   0 1  -0.104883   0.308876  -0.245980   0.426050  -0.173933
   0 1   0.988209   0.063992   0.000000   0.000000   0.000000
 $END

 $DATA
 FMO calculation : XXNAMEXX
 C1 
 C.1-1    6
      N21 3
   
 O.1-1    8
      N21 3
   
 N.1-1    7
      N21 3
   
 H.1-1    1
      N21 3
   
 P.1-1   15
      N21 3
   
 $END
 $FMOXYZ
    1    H    11.571    -23.366    -4.450
    2    O    10.620    -23.372    -4.758
    3    C    10.474    -24.340    -5.805
    4    H    10.644    -25.252    -5.431
    5    H    11.014    -24.049    -6.595
    6    C    9.043    -24.413    -6.335
    7    H    8.992    -25.022    -7.126
    8    O    8.146    -24.871    -5.343
    9    C    6.818    -24.478    -5.753
    10    H    6.439    -25.250    -6.262
    11    N    6.045    -24.177    -4.528
    12    C    4.673    -24.176    -4.411
    13    N    1.533    -24.659    -5.808
    14    H    0.544    -24.626    -5.605
    15    H    1.792    -24.928    -6.746
    16    N    3.792    -24.476    -5.394
    17    C    2.528    -24.387    -4.975
    18    N    2.167    -24.032    -3.701
    19    H    1.160    -23.994    -3.487
    20    C    3.045    -23.721    -2.681
    21    O    2.614    -23.412    -1.573
    22    C    4.398    -23.812    -3.112
    23    N    5.578    -23.586    -2.407
    24    C    6.500    -23.815    -3.290
    25    H    7.396    -23.675    -2.869
    26    C    6.963    -23.284    -6.695
    27    H    6.529    -22.489    -6.272
    28    O    6.446    -23.554    -8.002
    29    H    5.680    -24.132    -8.023
    30    C    8.461    -23.070    -6.726
    31    H    8.689    -22.399    -6.021
    32    O    8.889    -22.537    -7.977
    33    P    8.987    -20.942    -8.022
    34    O    9.607    -20.688    -9.324
    35    O    9.586    -20.319    -6.824
    36    O    7.475    -20.412    -8.079
    37    C    6.607    -20.861    -9.124
    38    H    6.574    -21.860    -9.113
    39    H    6.866    -20.410    -9.978
    40    C    5.144    -20.458    -8.943
    41    H    4.594    -20.744    -9.728
    42    O    4.632    -21.114    -7.737
    43    C    3.418    -20.408    -7.404
    44    H    2.678    -20.845    -7.915
    45    N    3.205    -20.492    -5.945
    46    C    2.264    -20.659    -3.967
    47    N    3.629    -20.511    -3.735
    48    C    4.121    -20.417    -4.933
    49    H    5.113    -20.304    -4.870
    50    N    -0.045    -20.924    -3.664
    51    C    -0.181    -20.899    -4.991
    52    H    -1.059    -20.982    -5.463
    53    N    0.786    -20.764    -5.895
    54    C    1.994    -20.648    -5.305
    55    C    1.172    -20.806    -3.108
    56    N    1.292    -20.837    -1.784
    57    H    0.462    -20.949    -1.220
    58    H    2.210    -20.748    -1.373
    59    C    3.595    -18.977    -7.911
    60    H    3.699    -18.390    -7.108
    61    O    2.518    -18.569    -8.755
    62    H    1.668    -18.963    -8.546
    63    C    4.873    -18.974    -8.685
    64    H    5.593    -18.609    -8.095
    65    O    4.869    -17.833    -9.583
    66    P    4.938    -16.292    -9.133
    67    O    5.345    -15.527    -10.321
    68    O    5.457    -15.692    -7.938
    69    O    3.380    -16.053    -8.922
    70    C    2.578    -16.559    -9.957
    71    H    2.851    -17.501    -10.150
    72    H    2.576    -15.907    -10.715
    73    C    1.111    -16.679    -9.580
    74    H    0.548    -17.052    -10.318
    75    O    1.012    -17.540    -8.436
    76    C    -0.323    -17.409    -7.897
    77    H    -0.897    -18.140    -8.267
    78    N    -0.222    -17.469    -6.420
    79    C    -1.274    -17.530    -5.536
    80    N    -4.689    -17.662    -4.926
    81    H    -5.377    -17.702    -4.187
    82    H    -5.044    -17.656    -5.872
    83    N    -2.587    -17.567    -5.864
    84    C    -3.371    -17.617    -4.788
    85    N    -2.903    -17.633    -3.499
    86    H    -3.600    -17.678    -2.742
    87    C    -1.570    -17.594    -3.136
    88    O    -1.260    -17.611    -1.949
    89    C    -0.719    -17.539    -4.275
    90    N    0.671    -17.488    -4.354
    91    C    0.894    -17.449    -5.632
    92    H    1.881    -17.410    -5.789
    93    C    -0.771    -16.066    -8.501
    94    H    -1.119    -15.514    -7.743
    95    O    -1.742    -16.259    -9.532
    96    H    -2.300    -17.032    -9.423
    97    C    0.468    -15.396    -9.073
    98    H    1.041    -15.008    -8.351
    99    O    0.354    -14.162    -9.836
    100    P    0.601    -12.644    -9.384
    101    O    0.482    -11.729    -10.533
    102    O    1.667    -12.222    -8.474
    103    O    -0.705    -12.372    -8.507
    104    C    -1.948    -12.602    -9.137
    105    H    -1.936    -13.509    -9.559
    106    H    -2.169    -11.818    -9.717
    107    C    -3.131    -12.675    -8.177
    108    H    -3.984    -12.773    -8.689
    109    O    -2.976    -13.804    -7.308
    110    C    -3.776    -13.541    -6.141
    111    H    -4.582    -14.129    -6.207
    112    N    -2.951    -13.845    -4.953
    113    C    -1.589    -13.787    -5.009
    114    H    -0.981    -13.594    -5.779
    115    C    -0.847    -14.009    -3.911
    116    H    0.138    -14.015    -3.739
    117    C    -3.613    -14.140    -3.772
    118    O    -4.839    -14.204    -3.749
    119    N    -2.870    -14.364    -2.655
    120    C    -1.533    -14.304    -2.696
    121    N    -0.836    -14.495    -1.582
    122    H    -1.332    -14.683    -0.722
    123    H    0.173    -14.454    -1.592
    124    C    -4.219    -12.075    -6.224
    125    H    -4.041    -11.650    -5.337
    126    O    -5.586    -11.960    -6.631
    127    H    -6.159    -12.671    -6.333
    128    C    -3.291    -11.461    -7.264
    129    H    -2.406    -11.244    -6.852
    130    O    -3.872    -10.304    -7.913
    131    P    -3.840    -8.763    -7.408
    132    O    -4.394    -7.830    -8.413
    133    O    -2.516    -8.422    -6.850
    134    O    -4.884    -8.749    -6.191
    135    C    -6.274    -8.983    -6.432
    136    H    -6.382    -9.869    -6.884
    137    H    -6.667    -8.179    -6.878
    138    C    -7.070    -9.122    -5.139
    139    H    -8.042    -9.214    -5.354
    140    O    -6.636    -10.299    -4.380
    141    C    -7.066    -10.065    -3.026
    142    H    -7.865    -10.648    -2.878
    143    N    -5.939    -10.427    -2.143
    144    C    -4.752    -11.081    -0.416
    145    N    -3.845    -10.876    -1.454
    146    C    -4.604    -10.492    -2.435
    147    H    -4.034    -10.315    -3.237
    148    N    -5.696    -11.592    1.665
    149    C    -6.890    -11.298    1.152
    150    H    -7.746    -11.350    1.666
    151    N    -7.154    -10.897    -0.089
    152    C    -6.026    -10.809    -0.823
    153    C    -4.593    -11.497    0.908
    154    N    -3.412    -11.797    1.439
    155    H    -3.370    -12.091    2.404
    156    H    -2.584    -11.724    0.865
    157    C    -7.495    -8.593    -2.926
    158    H    -7.047    -8.195    -2.125
    159    O    -8.921    -8.451    -2.910
    160    H    -9.394    -9.164    -2.475
    161    C    -6.924    -7.953    -4.182
    162    H    -5.952    -7.756    -4.054
    163    O    -7.840    -6.946    -4.696
    164    P    -8.274    -5.579    -3.972
    165    O    -9.382    -4.770    -4.588
    166    O    -6.882    -5.238    -4.235
    167    O    -8.528    -5.718    -2.373
    168    C    -9.834    -5.967    -1.843
    169    H    -10.258    -6.712    -2.358
    170    H    -10.330    -5.101    -1.778
    171    C    -9.740    -6.479    -0.409
    172    H    -10.609    -6.863    -0.098
    173    O    -8.744    -7.487    -0.355
    174    C    -8.358    -7.646    1.022
    175    H    -8.820    -8.460    1.374
    176    N    -6.885    -7.776    1.058
    177    C    -6.124    -8.079    2.164
    178    N    -5.883    -8.811    5.550
    179    H    -5.225    -9.027    6.286
    180    H    -6.857    -8.772    5.814
    181    N    -6.589    -8.301    3.415
    182    C    -5.605    -8.574    4.276
    183    N    -4.280    -8.623    3.930
    184    H    -3.603    -8.842    4.675
    185    C    -3.778    -8.402    2.660
    186    O    -2.571    -8.481    2.455
    187    C    -4.816    -8.109    1.733
    188    N    -4.744    -7.825    0.371
    189    C    -5.985    -7.641    0.041
    190    H    -6.034    -7.428    -0.935
    191    C    -8.918    -6.407    1.733
    192    H    -8.175    -6.007    2.269
    193    O    -10.074    -6.720    2.518
    194    H    -10.078    -7.601    2.900
    195    C    -9.299    -5.443    0.617
    196    H    -8.490    -4.967    0.272
    197    O    -10.440    -4.663    1.039
    198    P    -10.396    -3.327    1.964
    199    O    -11.714    -2.686    2.215
    200    O    -9.427    -2.686    1.064
    201    O    -9.689    -3.559    3.402
    202    C    -10.411    -4.012    4.560
    203    H    -10.868    -4.874    4.342
    204    H    -10.970    -3.260    4.909
    205    C    -9.476    -4.359    5.716
    206    H    -9.967    -4.699    6.518
    207    O    -8.577    -5.350    5.274
    208    C    -7.347    -5.240    6.018
    209    H    -7.258    -6.060    6.583
    210    N    -6.244    -5.093    5.038
    211    C    -6.497    -4.684    3.757
    212    H    -7.369    -4.457    3.323
    213    C    -4.958    -5.367    5.465
    214    O    -4.704    -5.733    6.606
    215    N    -3.963    -5.198    4.525
    216    H    -2.997    -5.394    4.825
    217    C    -4.131    -4.791    3.218
    218    O    -3.165    -4.673    2.473
    219    C    -5.503    -4.528    2.856
    220    H    -5.538    -4.239    1.899
    221    C    -7.555    -4.032    6.925
    222    H    -6.696    -3.522    6.971
    223    O    -8.051    -4.406    8.213
    224    H    -7.731    -5.250    8.541
    225    C    -8.581    -3.205    6.172
    226    H    -8.168    -2.776    5.369
    227    O    -9.194    -2.230    7.039
    228    P    -8.637    -0.717    7.179
    229    O    -9.476    0.085    8.094
    230    O    -8.444    -0.231    5.801
    231    O    -7.179    -0.791    7.860
    232    C    -7.018    -1.169    9.232
    233    H    -7.474    -2.046    9.384
    234    H    -7.278    -0.399    9.815
    235    C    -5.572    -1.445    9.631
    236    H    -5.488    -1.749    10.580
    237    O    -5.053    -2.444    8.781
    238    C    -3.617    -2.315    8.715
    239    H    -3.223    -3.082    9.223
    240    N    -3.239    -2.329    7.283
    241    C    -4.166    -2.066    6.312
    242    H    -5.141    -1.865    6.401
    243    C    -1.918    -2.590    6.964
    244    O    -1.070    -2.834    7.816
    245    N    -1.603    -2.565    5.623
    246    H    -0.624    -2.757    5.366
    247    C    -2.473    -2.307    4.584
    248    O    -2.074    -2.305    3.425
    249    C    -3.831    -2.048    5.002
    250    H    -4.393    -1.874    4.193
    251    C    -3.295    -1.011    9.452
    252    H    -2.627    -0.497    8.914
    253    O    -2.867    -1.252    10.793
    254    H    -2.353    -2.053    10.917
    255    C    -4.627    -0.276    9.421
    256    H    -4.781    0.107    8.510
    257    O    -4.709    0.707    10.465
    258    P    -4.196    2.221    10.248
    259    O    -4.374    2.936    11.527
    260    O    -4.793    2.784    9.019
    261    O    -2.616    2.090    9.988
    262    C    -1.760    1.534    10.991
    263    H    -2.104    0.631    11.249
    264    H    -1.627    2.209    11.716
    265    C    -0.354    1.262    10.475
    266    H    0.241    0.815    11.143
    267    O    -0.440    0.435    9.296
    268    C    0.760    0.548    8.512
    269    H    1.329    -0.259    8.672
    270    N    0.356    0.682    7.095
    271    C    -0.906    1.078    6.759
    272    H    -1.687    1.312    7.339
    273    C    -1.264    1.207    5.470
    274    H    -2.115    1.474    5.019
    275    C    1.308    0.405    6.123
    276    O    2.442    0.057    6.447
    277    N    0.955    0.534    4.818
    278    C    -0.281    0.921    4.476
    279    N    -0.592    1.044    3.190
    280    H    0.113    0.842    2.496
    281    H    -1.518    1.334    2.909
    282    C    1.437    1.769    9.146
    283    H    1.745    2.358    8.399
    284    O    2.498    1.391    10.029
    285    H    2.960    0.585    9.786
    286    C    0.348    2.488    9.925
    287    H    -0.272    2.967    9.303
    288    O    0.924    3.273    10.974
    289    P    1.325    4.817    10.756
    290    O    2.031    5.232    11.986
    291    O    0.135    5.567    10.288
    292    O    2.389    4.768    9.549
    293    C    3.640    4.084    9.697
    294    H    3.466    3.152    10.015
    295    H    4.261    4.654    10.234
    296    C    4.331    3.914    8.353
    297    H    5.188    3.402    8.403
    298    O    3.443    3.245    7.464
    299    C    3.743    3.642    6.113
    300    H    4.084    2.840    5.623
    301    N    2.490    4.179    5.530
    302    C    1.456    4.558    6.337
    303    H    1.381    4.552    7.334
    304    C    0.311    5.028    5.815
    305    H    -0.545    5.350    6.219
    306    C    2.395    4.270    4.146
    307    O    3.340    3.934    3.438
    308    N    1.235    4.745    3.609
    309    C    0.216    5.117    4.394
    310    N    -0.905    5.571    3.843
    311    H    -0.966    5.627    2.836
    312    H    -1.684    5.856    4.419
    313    C    4.882    4.652    6.269
    314    H    4.772    5.372    5.583
    315    O    6.166    4.023    6.216
    316    H    6.227    3.276    5.616
    317    C    4.602    5.233    7.646
    318    H    3.763    5.777    7.640
    319    O    5.756    5.874    8.210
    320    P    6.113    7.445    8.127
    321    O    7.372    7.648    8.882
    322    O    4.943    8.310    8.422
    323    O    6.447    7.562    6.565
    324    C    7.540    6.809    6.032
    325    H    7.383    5.837    6.210
    326    H    8.398    7.211    6.350
    327    C    7.606    6.915    4.518
    328    H    8.394    6.427    4.143
    329    O    6.401    6.363    3.956
    330    C    6.150    7.037    2.709
    331    H    6.219    6.353    1.983
    332    N    4.794    7.634    2.800
    333    C    4.219    7.866    4.016
    334    H    4.570    7.702    4.938
    335    C    2.987    8.396    4.105
    336    H    2.399    8.639    4.876
    337    C    4.130    7.937    1.617
    338    O    4.668    7.731    0.532
    339    N    2.881    8.476    1.698
    340    C    2.309    8.706    2.888
    341    N    1.088    9.235    2.935
    342    H    0.617    9.453    2.069
    343    H    0.638    9.417    3.821
    344    C    7.289    8.051    2.550
    345    H    6.924    8.883    2.132
    346    O    8.388    7.507    1.815
    347    H    8.145    6.894    1.117
    348    C    7.661    8.345    3.999
    349    H    6.944    8.881    4.445
    350    O    8.984    8.895    4.149
    351    P    9.429    10.453    4.218
    352    O    10.895    10.548    4.398
    353    O    8.569    11.309    5.070
    354    O    9.111    10.804    2.689
    355    C    9.758    10.051    1.661
    356    H    9.587    9.078    1.814
    357    H    10.708    10.354    1.584
    358    C    9.144    10.345    0.297
    359    H    9.596    9.838    -0.437
    360    O    7.750    10.010    0.306
    361    C    7.084    10.833    -0.665
    362    H    6.812    10.233    -1.418
    363    N    5.929    11.455    0.019
    364    C    5.907    11.562    1.377
    365    H    6.588    11.292    2.057
    366    C    4.850    12.101    2.007
    367    H    4.639    12.268    2.970
    368    C    4.866    11.899    -0.758
    369    O    4.909    11.803    -1.983
    370    N    3.791    12.446    -0.127
    371    C    3.760    12.554    1.208
    372    N    2.696    13.083    1.798
    373    H    1.925    13.396    1.225
    374    H    2.655    13.172    2.803
    375    C    8.126    11.832    -1.175
    376    H    7.705    12.738    -1.214
    377    O    8.676    11.437    -2.437
    378    H    8.065    10.982    -3.021
    379    C    9.176    11.819    -0.068
    380    H    8.853    12.355    0.712
    381    O    10.491    12.064    -0.595
    382    P    11.154    13.516    -0.787
    383    O    12.458    13.381    -1.497
    384    O    11.076    14.179    0.536
    385    O    10.078    14.156    -1.798
    386    C    9.897    13.578    -3.095
    387    H    9.711    12.601    -2.993
    388    H    10.659    13.851    -3.682
    389    C    8.657    14.148    -3.765
    390    H    8.511    13.712    -4.653
    391    O    7.517    13.949    -2.964
    392    C    6.540    14.910    -3.391
    393    H    5.899    14.417    -3.980
    394    N    5.895    15.452    -2.178
    395    C    6.506    15.358    -0.958
    396    H    7.386    14.950    -0.715
    397    C    4.660    16.056    -2.322
    398    O    4.093    16.151    -3.407
    399    N    4.094    16.555    -1.168
    400    H    3.175    17.013    -1.254
    401    C    4.639    16.502    0.097
    402    O    4.034    16.976    1.056
    403    C    5.929    15.855    0.158
    404    H    6.252    15.862    1.104
    405    C    7.264    15.974    -4.222
    406    H    7.072    16.871    -3.823
    407    O    6.906    15.902    -5.612
    408    H    6.000    15.635    -5.784
    409    C    8.732    15.639    -4.004
    410    H    9.052    16.087    -3.169
    411    O    9.407    15.760    -5.269
    412    P    10.270    17.048    -5.657
    413    O    10.673    16.972    -7.100
    414    O    11.264    17.061    -4.559
    415    O    9.156    18.202    -5.456
    416    C    8.101    18.373    -6.412
    417    H    7.628    17.500    -6.535
    418    H    8.468    18.825    -7.225
    419    C    7.049    19.329    -5.857
    420    H    6.381    19.564    -6.563
    421    O    6.374    18.736    -4.761
    422    C    5.949    19.774    -3.856
    423    H    4.949    19.784    -3.872
    424    N    6.507    19.472    -2.523
    425    C    6.002    19.892    -1.312
    426    N    3.574    21.557    0.530
    427    H    3.301    21.805    1.470
    428    H    2.965    21.869    -0.213
    429    N    4.875    20.615    -1.125
    430    C    4.646    20.866    0.166
    431    N    5.462    20.439    1.183
    432    H    5.192    20.690    2.145
    433    C    6.617    19.699    1.018
    434    O    7.274    19.370    1.997
    435    C    6.870    19.424    -0.352
    436    N    7.913    18.716    -0.942
    437    C    7.640    18.782    -2.206
    438    H    8.346    18.292    -2.718
    439    C    6.467    21.084    -4.432
    440    H    6.833    21.638    -3.684
    441    O    5.460    21.771    -5.189
    442    H    4.565    21.671    -4.857
    443    C    7.618    20.628    -5.320
    444    H    8.417    20.424    -4.754
    445    O    7.753    21.530    -6.422
    446    P    9.069    22.432    -6.560
    447    O    8.995    23.201    -7.829
    448    O    10.242    21.583    -6.233
    449    O    8.715    23.386    -5.316
    450    C    9.739    24.143    -4.684
    451    H    10.080    24.829    -5.326
    452    H    10.401    23.516    -4.273
    453    C    9.178    24.943    -3.516
    454    H    9.921    25.339    -2.976
    455    O    8.380    25.994    -4.046
    456    C    7.018    25.868    -3.598
    457    H    6.789    26.736    -3.157
    458    N    6.179    25.614    -4.792
    459    C    6.373    24.506    -5.568
    460    H    7.028    23.757    -5.471
    461    C    5.619    24.289    -6.660
    462    H    5.599    23.562    -7.346
    463    C    5.199    26.547    -5.103
    464    O    5.038    27.534    -4.390
    465    N    4.431    26.333    -6.208
    466    C    4.615    25.251    -6.974
    467    N    3.852    25.076    -8.050
    468    H    3.147    25.767    -8.266
    469    H    3.973    24.267    -8.642
    470    C    6.958    24.748    -2.555
    471    H    6.303    24.069    -2.887
    472    O    6.623    25.236    -1.252
    473    H    6.051    26.007    -1.243
    474    C    8.348    24.127    -2.535
    475    H    8.260    23.193    -2.881
    476    O    8.925    24.226    -1.225
    477    P    8.406    23.278    -0.022
    478    O    9.501    23.142    0.963
    479    O    7.755    22.060    -0.553
    480    O    7.259    24.214    0.623
    481    C    7.588    25.499    1.185
    482    H    7.965    26.082    0.465
    483    H    8.134    25.363    2.012
    484    C    6.349    26.258    1.674
    485    H    6.625    27.060    2.203
    486    O    5.588    26.685    0.545
    487    C    4.221    26.296    0.684
    488    H    3.725    27.124    0.945
    489    N    3.751    25.769    -0.611
    490    C    2.691    25.555    -2.519
    491    N    3.651    24.546    -2.493
    492    C    4.232    24.726    -1.347
    493    H    4.945    24.034    -1.231
    494    N    0.938    26.963    -3.171
    495    C    1.083    27.613    -2.017
    496    H    0.521    28.394    -1.743
    497    N    1.965    27.355    -1.055
    498    C    2.743    26.300    -1.377
    499    C    1.730    25.922    -3.465
    500    N    1.602    25.313    -4.640
    501    H    0.907    25.648    -5.292
    502    H    2.203    24.530    -4.853
    503    C    4.117    25.285    1.807
    504    H    4.089    24.374    1.396
    505    O    2.986    25.548    2.642
    506    H    2.228    25.926    2.190
    507    C    5.422    25.441    2.581
    508    H    5.807    24.526    2.700
    509    O    5.192    26.246    3.742
    510    P    4.327    25.653    4.966
    511    O    4.821    26.306    6.204
    512    O    4.368    24.179    4.804
    513    O    2.833    26.187    4.650
    514    C    2.036    26.786    5.687
    515    H    2.507    27.598    6.032
    516    H    1.775    26.080    6.346
    517    C    0.707    27.315    5.145
    518    H    0.097    27.566    5.897
    519    O    0.980    28.482    4.355
    520    C    0.398    28.323    3.055
    521    H    -0.501    28.761    3.078
    522    N    1.269    29.001    2.043
    523    C    2.612    29.169    2.281
    524    H    3.152    28.909    3.082
    525    C    0.697    29.442    0.850
    526    O    -0.492    29.308    0.589
    527    N    1.554    30.040    -0.048
    528    H    1.144    30.372    -0.933
    529    C    2.908    30.240    0.116
    530    O    3.570    30.778    -0.767
    531    C    3.426    29.759    1.373
    532    H    4.408    29.942    1.412
    533    C    0.213    26.810    2.859
    534    H    1.080    26.420    2.547
    535    O    -0.859    26.522    1.956
    536    H    -0.973    27.158    1.246
    537    C    -0.071    26.320    4.286
    538    H    0.331    25.411    4.396
    539    O    -1.485    26.324    4.565
    540    P    -2.429    25.015    4.443
    541    O    -3.775    25.344    4.959
    542    O    -1.767    23.803    4.971
    543    O    -2.567    24.826    2.849
    544    C    -3.213    25.824    2.042
    545    H    -2.701    26.680    2.112
    546    H    -4.188    25.841    2.264
    547    C    -3.168    25.474    0.555
    548    H    -3.696    26.142    0.030
    549    O    -1.801    25.469    0.072
    550    C    -1.820    24.756    -1.164
    551    H    -1.871    25.446    -1.886
    552    N    -0.571    23.980    -1.265
    553    C    1.138    22.861    -2.063
    554    N    1.339    22.945    -0.685
    555    C    0.302    23.614    -0.279
    556    H    0.357    23.729    0.713
    557    N    1.389    22.379    -4.341
    558    C    0.240    23.016    -4.562
    559    H    -0.174    23.125    -5.466
    560    N    -0.536    23.600    -3.659
    561    C    -0.021    23.485    -2.419
    562    C    1.876    22.279    -3.095
    563    N    3.020    21.639    -2.897
    564    H    3.501    21.240    -3.690
    565    H    3.384    21.566    -1.958
    566    C    -3.099    23.907    -1.193
    567    H    -2.832    22.951    -1.315
    568    O    -3.996    24.353    -2.217
    569    H    -3.571    24.709    -3.001
    570    C    -3.698    24.084    0.210
    571    H    -3.293    23.417    0.835
    572    O    -5.134    23.948    0.210
    573    P    -5.921    22.576    0.545
    574    O    -7.368    22.787    0.344
    575    O    -5.511    21.937    1.813
    576    O    -5.430    21.604    -0.639
    577    C    -5.674    21.976    -1.997
    578    H    -5.390    22.925    -2.131
    579    H    -6.613    21.729    -2.239
    580    C    -4.826    21.200    -3.004
    581    H    -5.110    21.458    -3.927
    582    O    -3.419    21.524    -2.833
    583    C    -2.656    20.377    -3.263
    584    H    -2.167    20.660    -4.088
    585    N    -1.735    20.014    -2.168
    586    C    -0.045    19.205    -1.026
    587    N    -0.882    19.821    -0.099
    588    C    -1.852    20.270    -0.833
    589    H    -2.517    20.732    -0.246
    590    N    1.730    18.037    -2.014
    591    C    1.133    18.210    -3.195
    592    H    1.501    17.871    -4.061
    593    N    -0.015    18.839    -3.429
    594    C    -0.554    19.316    -2.287
    595    C    1.169    18.526    -0.896
    596    N    1.786    18.366    0.271
    597    H    2.670    17.877    0.295
    598    H    1.357    18.737    1.107
    599    C    -3.645    19.257    -3.627
    600    H    -3.316    18.403    -3.224
    601    O    -3.843    19.169    -5.040
    602    H    -3.070    19.374    -5.571
    603    C    -4.925    19.682    -2.914
    604    H    -4.872    19.409    -1.954
    605    O    -6.094    19.180    -3.597
    606    P    -6.663    17.662    -3.538
    607    O    -7.819    17.532    -4.452
    608    O    -6.841    17.251    -2.131
    609    O    -5.486    16.762    -4.162
    610    C    -4.994    17.008    -5.485
    611    H    -4.740    17.972    -5.564
    612    H    -5.645    16.639    -6.148
    613    C    -3.701    16.252    -5.764
    614    H    -3.403    16.422    -6.703
    615    O    -2.667    16.684    -4.858
    616    C    -1.696    15.620    -4.797
    617    H    -0.915    15.915    -5.348
    618    N    -1.345    15.432    -3.372