!*** FMO 5.2 (Gamess) INPUT generated by Facio 21.1.1.32 ***
 $CONTRL RUNTYP=OPTFMO NPRINT=-5 ISPHER=-1 MAXIT=50 $END
 $SYSTEM MWORDS=29 $END
 $GDDI NGROUP=1 $END
 $INTGRL NINTIC=-9000000 $END
 $SCF DIRSCF=.FALSE. NPUNCH=0 $END
!*** NumCPU : 2  MemPerNode : 512MB
 $FMOPRP
    NAODIR=210
    NGRFMO(1)=1, 1, 0, 0, 0,   0, 0, 0, 0, 0
    NPRINT=9
 $END
 $FMO
      SCFTYP(1)=RHF
      MODGRD=10
      MODMUL=0
      MAXCAO=5
      MAXBND=34
      NLAYER=1
      NFRAG=32
      ICHARG(1)=-1, -1, -1, -1, -1, -1, -1, -1, -1, -1, 
-1, -1, -1, -1, -1, -1, -1, -1, -1, -1, 
-1, -1, -1, -1, -1, -1, -1, -1, -1, -1, 
-1, 0
      FRGNAM(1)=Frag1, Frag2, Frag3, Frag4, Frag5, Frag6, Frag7, Frag8, Frag9, Frag10, Frag11, Frag12, Frag13, Frag14, Frag15, Frag16, Frag17, Frag18, Frag19, Frag20, Frag21, Frag22, Frag23, Frag24, Frag25, Frag26, Frag27, Frag28, Frag29, Frag30, Frag31, Frag32
      indat(1)=0
               1   -36   0
               37   -69   0
               70   -103   0
               104   -134   0
               135   -167   0
               168   -201   0
               202   -231   0
               232   -261   0
               262   -292   0
               293   -323   0
               324   -354   0
               355   -385   0
               386   -415   0
               416   -449   0
               450   -480   0
               481   -513   0
               514   -543   0
               544   -576   0
               577   -609   0
               610   -643   0
               644   -677   0
               678   -710   0
               711   -740   0
               741   -774   0
               775   -807   0
               808   -840   0
               841   -871   0
               872   -902   0
               903   -936   0
               937   -966   0
               967   -996   0
               997   -1024   0
 $END

 $FMOBND
   -37   36       3-21G    MINI
   -70   69       3-21G    MINI
   -104   103       3-21G    MINI
   -135   134       3-21G    MINI
   -168   167       3-21G    MINI
   -202   201       3-21G    MINI
   -232   231       3-21G    MINI
   -262   261       3-21G    MINI
   -293   292       3-21G    MINI
   -324   323       3-21G    MINI
   -355   354       3-21G    MINI
   -386   385       3-21G    MINI
   -416   415       3-21G    MINI
   -450   449       3-21G    MINI
   -481   480       3-21G    MINI
   -514   513       3-21G    MINI
   -544   543       3-21G    MINI
   -577   576       3-21G    MINI
   -610   609       3-21G    MINI
   -644   643       3-21G    MINI
   -678   677       3-21G    MINI
   -711   710       3-21G    MINI
   -741   740       3-21G    MINI
   -775   774       3-21G    MINI
   -808   807       3-21G    MINI
   -841   840       3-21G    MINI
   -872   871       3-21G    MINI
   -903   902       3-21G    MINI
   -937   936       3-21G    MINI
   -967   966       3-21G    MINI
   -997   996       3-21G    MINI
 $END
 $FMOHYB
 3-21G        9   5
   1 0  -0.070459   0.164841   0.000000   0.000000   0.502116
         0.466939   0.000000   0.000000   0.418036
   0 1  -0.070465   0.164857   0.473392   0.000000  -0.167359
         0.466967   0.394111   0.000000  -0.139327
   0 1  -0.070465   0.164857  -0.236695  -0.409969  -0.167359
         0.466967  -0.197055  -0.341311  -0.139327
   0 1  -0.070465   0.164857  -0.236695   0.409969  -0.167359
         0.466967  -0.197055   0.341311  -0.139327
   0 1   1.006716   0.074826   0.000000   0.000000   0.000000
        -0.143830   0.000000   0.000000  -0.000003
 MINI         5   5
   1 0  -0.104883   0.308874   0.000000   0.000000   0.521806
   0 1  -0.104883   0.308874   0.491961   0.000000  -0.173934
   0 1  -0.104883   0.308876  -0.245980  -0.426050  -0.173933
   0 1  -0.104883   0.308876  -0.245980   0.426050  -0.173933
   0 1   0.988209   0.063992   0.000000   0.000000   0.000000
 $END

 $DATA
 FMO calculation : XXNAMEXX
 C1 
 C.1-1    6
      N21 3
   
 O.1-1    8
      N21 3
   
 N.1-1    7
      N21 3
   
 H.1-1    1
      N21 3
   
 P.1-1   15
      N21 3
   
 $END
 $FMOXYZ
    1    H    7.737    -25.434    4.005
    2    O    6.882    -25.535    3.496
    3    C    6.649    -26.929    3.247
    4    H    6.503    -27.396    4.119
    5    H    7.367    -27.276    2.644
    6    C    5.354    -27.174    2.469
    7    H    5.254    -28.132    2.202
    8    O    4.238    -26.795    3.251
    9    C    3.121    -26.615    2.350
    10    H    2.630    -27.486    2.327
    11    N    2.277    -25.515    2.870
    12    C    0.951    -25.296    2.571
    13    N    -1.963    -26.234    0.935
    14    H    -2.928    -25.975    0.789
    15    H    -1.646    -27.071    0.468
    16    N    0.178    -26.065    1.768
    17    C    -1.068    -25.594    1.673
    18    N    -1.510    -24.465    2.313
    19    H    -2.493    -24.192    2.169
    20    C    -0.744    -23.663    3.136
    21    O    -1.241    -22.669    3.659
    22    C    0.588    -24.152    3.248
    23    N    1.667    -23.649    3.971
    24    C    2.619    -24.489    3.706
    25    H    3.448    -24.204    4.188
    26    C    3.699    -26.333    0.963
    27    H    3.401    -25.424    0.672
    28    O    3.336    -27.334    0.002
    29    H    2.467    -27.721    0.129
    30    C    5.195    -26.302    1.230
    31    H    5.452    -25.363    1.458
    32    O    5.929    -26.761    0.077
    33    P    6.478    -25.752    -1.058
    34    O    7.298    -26.526    -2.020
    35    O    7.046    -24.595    -0.331
    36    O    5.128    -25.262    -1.784
    37    C    4.347    -26.161    -2.583
    38    H    4.048    -26.926    -2.013
    39    H    4.848    -26.370    -3.423
    40    C    3.040    -25.549    -3.084
    41    H    2.529    -26.170    -3.678
    42    O    2.232    -25.237    -1.921
    43    C    1.187    -24.346    -2.376
    44    H    0.432    -24.922    -2.690
    45    N    0.774    -23.442    -1.282
    46    C    -0.429    -22.179    0.056
    47    N    0.886    -22.071    0.499
    48    C    1.538    -22.829    -0.329
    49    H    2.509    -22.810    -0.092
    50    N    -2.749    -21.925    -0.161
    51    C    -2.700    -22.748    -1.210
    52    H    -3.500    -23.017    -1.746
    53    N    -1.621    -23.339    -1.717
    54    C    -0.509    -23.006    -1.028
    55    C    -1.625    -21.613    0.505
    56    N    -1.690    -20.794    1.551
    57    H    -2.587    -20.421    1.826
    58    H    -0.840    -20.564    2.047
    59    C    1.754    -23.580    -3.565
    60    H    1.845    -22.620    -3.300
    61    O    0.959    -23.726    -4.748
    62    H    0.017    -23.826    -4.593
    63    C    3.137    -24.173    -3.755
    64    H    3.789    -23.609    -3.248
    65    O    3.524    -24.123    -5.153
    66    P    3.786    -22.769    -6.011
    67    O    4.448    -23.153    -7.287
    68    O    4.409    -21.834    -5.061
    69    O    2.300    -22.230    -6.295
    70    C    1.451    -23.059    -7.080
    71    H    1.401    -23.965    -6.660
    72    H    1.734    -23.002    -8.037
    73    C    0.022    -22.539    -7.062
    74    H    -0.615    -23.094    -7.596
    75    O    -0.422    -22.497    -5.705
    76    C    -1.660    -21.750    -5.653
    77    H    -2.426    -22.392    -5.673
    78    N    -1.674    -20.946    -4.409
    79    C    -2.735    -20.216    -3.924
    80    N    -6.029    -19.148    -4.194
    81    H    -6.731    -18.573    -3.750
    82    H    -6.308    -19.630    -5.037
    83    N    -3.965    -20.132    -4.483
    84    C    -4.781    -19.339    -3.789
    85    N    -4.420    -18.687    -2.638
    86    H    -5.135    -18.104    -2.179
    87    C    -3.173    -18.751    -2.046
    88    O    -2.954    -18.122    -1.015
    89    C    -2.288    -19.593    -2.778
    90    N    -0.959    -19.927    -2.530
    91    C    -0.665    -20.718    -3.517
    92    H    0.285    -21.016    -3.423
    93    C    -1.621    -20.977    -6.977
    94    H    -1.850    -20.022    -6.790
    95    O    -2.528    -21.539    -7.936
    96    H    -3.324    -21.925    -7.563
    97    C    -0.153    -21.065    -7.390
    98    H    0.427    -20.525    -6.781
    99    O    0.182    -20.651    -8.735
    100    P    0.851    -19.245    -9.196
    101    O    1.074    -19.267    -10.662
    102    O    1.963    -19.002    -8.257
    103    O    -0.309    -18.195    -8.847
    104    C    -1.506    -18.212    -9.617
    105    H    -1.953    -19.100    -9.505
    106    H    -1.300    -17.905    -10.546
    107    C    -2.505    -17.207    -9.091
    108    H    -3.301    -17.188    -9.696
    109    O    -2.907    -17.689    -7.811
    110    C    -3.505    -16.591    -7.093
    111    H    -4.484    -16.782    -7.025
    112    N    -2.930    -16.504    -5.726
    113    C    -1.680    -16.983    -5.462
    114    H    -1.049    -17.485    -6.053
    115    C    -1.109    -16.812    -4.256
    116    H    -0.225    -17.078    -3.871
    117    C    -3.655    -15.837    -4.747
    118    O    -4.789    -15.426    -4.985
    119    N    -3.087    -15.655    -3.523
    120    C    -1.857    -16.115    -3.262
    121    N    -1.313    -15.895    -2.071
    122    H    -1.841    -15.381    -1.380
    123    H    -0.386    -16.235    -1.857
    124    C    -3.298    -15.356    -7.967
    125    H    -3.055    -14.588    -7.375
    126    O    -4.492    -15.051    -8.693
    127    H    -5.309    -15.273    -8.241
    128    C    -2.070    -15.737    -8.826
    129    H    -1.232    -15.739    -8.281
    130    O    -1.682    -14.921    -9.935
    131    P    -0.804    -13.530    -10.043
    132    O    -0.677    -13.125    -11.456
    133    O    0.405    -13.731    -9.236
    134    O    -1.698    -12.419    -9.312
    135    C    -2.924    -12.017    -9.903
    136    H    -3.524    -12.813    -9.982
    137    H    -2.729    -11.492    -10.732
    138    C    -3.662    -11.057    -8.993
    139    H    -4.501    -10.864    -9.501
    140    O    -3.997    -11.831    -7.796
    141    C    -4.365    -10.862    -6.803
    142    H    -5.355    -10.928    -6.675
    143    N    -3.699    -11.199    -5.518
    144    C    -3.165    -11.316    -3.382
    145    N    -2.190    -12.040    -4.066
    146    C    -2.562    -11.931    -5.306
    147    H    -1.914    -12.426    -5.885
    148    N    -4.415    -10.294    -1.686
    149    C    -5.246    -9.845    -2.626
    150    H    -6.052    -9.284    -2.436
    151    N    -5.161    -10.051    -3.939
    152    C    -4.084    -10.802    -4.252
    153    C    -3.354    -11.039    -2.024
    154    N    -2.537    -11.478    -1.071
    155    H    -2.734    -11.240    -0.109
    156    H    -1.739    -12.039    -1.331
    157    C    -4.031    -9.498    -7.418
    158    H    -3.547    -9.000    -6.699
    159    O    -5.220    -8.855    -7.875
    160    H    -6.019    -9.098    -7.403
    161    C    -3.098    -9.666    -8.623
    162    H    -2.141    -9.765    -8.349
    163    O    -3.235    -8.601    -9.584
    164    P    -2.539    -7.108    -9.504
    165    O    -2.971    -6.377    -10.689
    166    O    -1.070    -7.167    -9.299
    167    O    -3.209    -6.318    -8.268
    168    C    -4.497    -5.672    -8.249
    169    H    -5.187    -6.311    -8.589
    170    H    -4.421    -4.782    -8.698
    171    C    -4.969    -5.335    -6.838
    172    H    -5.957    -5.297    -6.990
    173    O    -4.655    -6.529    -6.136
    174    C    -4.718    -6.278    -4.730
    175    H    -5.531    -6.729    -4.362
    176    N    -3.544    -6.877    -4.039
    177    C    -3.311    -6.894    -2.676
    178    N    -4.339    -6.152    0.563
    179    H    -4.064    -6.212    1.533
    180    H    -5.236    -5.728    0.374
    181    N    -4.148    -6.421    -1.719
    182    C    -3.649    -6.570    -0.489
    183    N    -2.430    -7.136    -0.222
    184    H    -2.143    -7.200    0.765
    185    C    -1.554    -7.629    -1.173
    186    O    -0.488    -8.128    -0.825
    187    C    -2.075    -7.475    -2.489
    188    N    -1.518    -7.832    -3.716
    189    C    -2.423    -7.459    -4.568
    190    H    -2.111    -7.680    -5.492
    191    C    -4.919    -4.753    -4.668
    192    H    -4.232    -4.446    -4.009
    193    O    -6.273    -4.462    -4.341
    194    H    -6.723    -5.143    -3.836
    195    C    -4.665    -4.063    -6.012
    196    H    -3.703    -3.817    -6.134
    197    O    -5.483    -2.869    -6.181
    198    P    -5.194    -1.346    -5.606
    199    O    -6.265    -0.547    -6.163
    200    O    -3.842    -0.817    -5.943
    201    O    -5.408    -1.265    -3.999
    202    C    -6.594    -0.910    -3.260
    203    H    -7.313    -1.576    -3.459
    204    H    -6.795    0.058    -3.413
    205    C    -6.394    -1.017    -1.731
    206    H    -7.348    -1.016    -1.431
    207    O    -5.859    -2.318    -1.564
    208    C    -5.086    -2.380    -0.364
    209    H    -5.491    -3.071    0.235
    210    N    -3.688    -2.759    -0.688
    211    C    -3.211    -2.622    -1.965
    212    H    -3.690    -2.322    -2.790
    213    C    -2.864    -3.199    0.336
    214    O    -3.255    -3.334    1.490
    215    N    -1.557    -3.476    -0.012
    216    H    -0.930    -3.800    0.738
    217    C    -1.003    -3.362    -1.271
    218    O    0.177    -3.634    -1.461
    219    C    -1.927    -2.901    -2.279
    220    H    -1.450    -2.844    -3.156
    221    C    -5.293    -0.992    0.263
    222    H    -4.401    -0.727    0.629
    223    O    -6.392    -1.006    1.172
    224    H    -6.540    -1.844    1.616
    225    C    -5.696    -0.008    -0.813
    226    H    -4.893    0.358    -1.283
    227    O    -6.518    1.020    -0.159
    228    P    -5.940    2.271    0.728
    229    O    -7.118    3.026    1.155
    230    O    -5.026    3.061    -0.132
    231    O    -5.121    1.806    2.077
    232    C    -5.613    1.799    3.426
    233    H    -6.348    1.125    3.501
    234    H    -5.809    2.739    3.706
    235    C    -4.562    1.318    4.452
    236    H    -5.112    1.084    5.254
    237    O    -4.007    0.134    3.913
    238    C    -2.686    -0.087    4.436
    239    H    -2.718    -0.908    5.005
    240    N    -1.750    -0.265    3.300
    241    C    -2.095    0.146    2.041
    242    H    -2.949    0.554    1.719
    243    C    -0.504    -0.815    3.556
    244    O    -0.168    -1.197    4.673
    245    N    0.349    -0.915    2.478
    246    H    1.280    -1.321    2.651
    247    C    0.079    -0.523    1.183
    248    O    0.922    -0.656    0.303
    249    C    -1.240    0.035    1.000
    250    H    -1.356    0.288    0.040
    251    C    -2.413    1.132    5.331
    252    H    -1.498    1.459    5.094
    253    O    -2.656    0.830    6.704
    254    H    -2.469    -0.076    6.959
    255    C    -3.430    2.201    4.966
    256    H    -3.081    2.756    4.211
    257    O    -3.746    2.850    6.225
    258    P    -2.767    3.963    6.919
    259    O    -3.390    4.407    8.182
    260    O    -2.640    5.009    5.877
    261    O    -1.263    3.397    7.218
    262    C    -0.756    2.964    8.496
    263    H    -1.235    2.130    8.771
    264    H    -0.763    3.739    9.128
    265    C    0.717    2.545    8.437
    266    H    0.939    2.011    9.253
    267    O    0.886    1.710    7.267
    268    C    2.257    1.664    6.843
    269    H    2.649    0.781    7.100
    270    N    2.296    1.878    5.378
    271    C    1.243    2.451    4.726
    272    H    0.364    2.774    5.077
    273    C    1.288    2.661    3.399
    274    H    0.642    3.054    2.745
    275    C    3.445    1.498    4.695
    276    O    4.387    0.989    5.300
    277    N    3.499    1.707    3.354
    278    C    2.471    2.268    2.704
    279    N    2.558    2.466    1.393
    280    H    3.402    2.188    0.912
    281    H    1.795    2.887    0.883
    282    C    2.881    2.759    7.712
    283    H    3.441    3.308    7.092
    284    O    3.590    2.205    8.824
    285    H    3.962    1.333    8.674
    286    C    1.780    3.632    8.288
    287    H    1.470    4.300    7.612
    288    O    2.330    4.122    9.522
    289    P    3.112    5.547    9.556
    290    O    3.621    5.765    10.926
    291    O    2.195    6.558    8.964
    292    O    4.395    5.404    8.577
    293    C    5.706    4.921    8.941
    294    H    5.629    3.975    9.255
    295    H    6.139    5.584    9.552
    296    C    6.644    4.846    7.738
    297    H    7.481    4.345    7.958
    298    O    5.945    4.152    6.705
    299    C    6.422    4.585    5.418
    300    H    6.853    3.805    4.964
    301    N    5.259    5.099    4.654
    302    C    4.101    5.426    5.296
    303    H    3.871    5.386    6.268
    304    C    3.038    5.884    4.613
    305    H    2.120    6.171    4.885
    306    C    5.381    5.232    3.274
    307    O    6.435    4.943    2.715
    308    N    4.306    5.696    2.574
    309    C    3.166    6.018    3.198
    310    N    2.132    6.462    2.490
    311    H    2.227    6.548    1.488
    312    H    1.264    6.710    2.944
    313    C    7.497    5.612    5.768
    314    H    7.465    6.338    5.081
    315    O    8.787    5.010    5.898
    316    H    8.946    4.263    5.316
    317    C    7.050    6.176    7.104
    318    H    6.236    6.747    6.997
    319    O    8.179    6.832    7.706
    320    P    8.448    8.416    7.487
    321    O    9.620    8.814    8.295
    322    O    7.166    9.146    7.661
    323    O    8.882    8.543    5.942
    324    C    10.207    8.287    5.454
    325    H    10.425    7.321    5.595
    326    H    10.832    8.969    5.834
    327    C    10.332    8.475    3.946
    328    H    11.249    8.179    3.679
    329    O    9.359    7.653    3.274
    330    C    9.019    8.283    2.028
    331    H    9.297    7.661    1.296
    332    N    7.557    8.525    2.041
    333    C    6.871    8.561    3.220
    334    H    7.196    8.453    4.160
    335    C    5.543    8.768    3.237
    336    H    4.868    8.829    3.972
    337    C    6.911    8.701    0.822
    338    O    7.547    8.676    -0.229
    339    N    5.565    8.912    0.831
    340    C    4.883    8.948    1.985
    341    N    3.569    9.158    1.961
    342    H    3.111    9.286    1.070
    343    H    3.036    9.189    2.818
    344    C    9.874    9.551    1.956
    345    H    9.317    10.278    1.554
    346    O    11.119    9.324    1.289
    347    H    11.084    8.686    0.572
    348    C    10.150    9.887    3.410
    349    H    9.338    10.293    3.830
    350    O    11.394    10.598    3.398
    351    P    11.399    12.190    3.102
    352    O    12.800    12.667    3.170
    353    O    10.364    12.785    3.992
    354    O    10.888    12.369    1.574
    355    C    11.709    12.314    0.390
    356    H    12.057    11.383    0.278
    357    H    12.372    13.062    0.418
    358    C    10.924    12.569    -0.900
    359    H    11.498    12.372    -1.695
    360    O    9.759    11.730    -0.945
    361    C    8.747    12.376    -1.734
    362    H    8.654    11.848    -2.578
    363    N    7.508    12.389    -0.926
    364    C    7.569    12.258    0.429
    365    H    8.359    12.164    1.034
    366    C    6.448    12.240    1.168
    367    H    6.276    12.154    2.149
    368    C    6.293    12.513    -1.588
    369    O    6.260    12.641    -2.810
    370    N    5.152    12.496    -0.845
    371    C    5.202    12.365    0.487
    372    N    4.073    12.342    1.186
    373    H    3.194    12.424    0.696
    374    H    4.091    12.244    2.191
    375    C    9.287    13.764    -2.073
    376    H    8.556    14.427    -1.910
    377    O    9.829    13.824    -3.395
    378    H    9.387    13.267    -4.040
    379    C    10.396    13.989    -1.057
    380    H    9.997    14.286    -0.189
    381    O    11.350    14.839    -1.701
    382    P    11.156    16.431    -1.573
    383    O    12.222    17.095    -2.358
    384    O    10.981    16.737    -0.128
    385    O    9.749    16.710    -2.317
    386    C    9.572    16.725    -3.745
    387    H    9.831    15.833    -4.115
    388    H    10.021    17.536    -4.120
    389    C    8.112    16.886    -4.163
    390    H    8.011    16.740    -5.147
    391    O    7.298    15.961    -3.475
    392    C    5.955    16.476    -3.496
    393    H    5.472    15.976    -4.215
    394    N    5.367    16.245    -2.159
    395    C    6.167    16.030    -1.070
    396    H    7.164    15.993    -1.009
    397    C    3.990    16.259    -2.051
    398    O    3.253    16.450    -3.014
    399    N    3.481    16.048    -0.787
    400    H    2.456    16.058    -0.684
    401    C    4.212    15.823    0.360
    402    O    3.645    15.639    1.434
    403    C    5.643    15.825    0.158
    404    H    6.096    15.659    1.034
    405    C    6.032    17.953    -3.882
    406    H    5.574    18.487    -3.171
    407    O    5.497    18.198    -5.188
    408    H    4.760    17.635    -5.436
    409    C    7.523    18.249    -3.841
    410    H    7.780    18.503    -2.908
    411    O    7.823    19.218    -4.854
    412    P    7.989    20.770    -4.455
    413    O    8.088    21.560    -5.704
    414    O    9.049    20.864    -3.424
    415    O    6.577    21.114    -3.757
    416    C    5.362    21.240    -4.509
    417    H    5.227    20.411    -5.051
    418    H    5.365    22.118    -4.988
    419    C    4.131    21.306    -3.605
    420    H    3.304    21.478    -4.139
    421    O    3.981    20.082    -2.903
    422    C    3.355    20.338    -1.628
    423    H    2.457    19.899    -1.650
    424    N    4.232    19.800    -0.568
    425    C    3.845    19.409    0.695
    426    N    1.355    18.883    3.058
    427    H    1.191    18.571    4.005
    428    H    0.541    19.161    2.528
    429    N    2.580    19.400    1.174
    430    C    2.523    18.966    2.436
    431    N    3.621    18.577    3.160
    432    H    3.463    18.259    4.127
    433    C    4.922    18.578    2.693
    434    O    5.832    18.211    3.426
    435    C    4.996    19.035    1.351
    436    N    6.101    19.184    0.518
    437    C    5.585    19.633    -0.582
    438    H    6.315    19.773    -1.251
    439    C    3.168    21.844    -1.539
    440    H    3.411    22.141    -0.616
    441    O    1.844    22.245    -1.916
    442    H    1.150    21.625    -1.680
    443    C    4.209    22.369    -2.519
    444    H    5.114    22.335    -2.094
    445    O    3.842    23.675    -2.975
    446    P    4.623    24.957    -2.394
    447    O    4.061    26.168    -3.026
    448    O    6.074    24.680    -2.475
    449    O    4.204    24.936    -0.840
    450    C    4.962    25.656    0.130
    451    H    4.880    26.635    -0.055
    452    H    5.880    25.264    0.182
    453    C    4.397    25.487    1.537
    454    H    5.046    25.845    2.209
    455    O    3.181    26.222    1.630
    456    C    2.078    25.339    1.901
    457    H    1.634    25.694    2.724
    458    N    1.182    25.377    0.722
    459    C    1.621    24.986    -0.511
    460    H    2.513    24.636    -0.797
    461    C    0.807    25.039    -1.581
    462    H    0.927    24.807    -2.546
    463    C    -0.113    25.838    0.912
    464    O    -0.489    26.180    2.030
    465    N    -0.944    25.894    -0.167
    466    C    -0.522    25.514    -1.379
    467    N    -1.357    25.587    -2.413
    468    H    -2.295    25.929    -2.260
    469    H    -1.060    25.306    -3.336
    470    C    2.640    23.945    2.199
    471    H    2.237    23.314    1.536
    472    O    2.405    23.544    3.552
    473    H    1.599    23.889    3.943
    474    C    4.138    24.043    1.942
    475    H    4.344    23.446    1.167
    476    O    4.856    23.783    3.156
    477    P    4.941    22.276    3.732
    478    O    6.156    22.174    4.575
    479    O    4.751    21.343    2.598
    480    O    3.642    22.176    4.695
    481    C    3.511    22.957    5.904
    482    H    3.469    23.926    5.662
    483    H    4.211    22.667    6.557
    484    C    2.191    22.709    6.650
    485    H    2.200    23.147    7.549
    486    O    1.137    23.273    5.869
    487    C    0.094    22.316    5.668
    488    H    -0.641    22.572    6.296
    489    N    -0.354    22.387    4.263
    490    C    -1.572    22.741    2.473
    491    N    -0.298    22.409    2.017
    492    C    0.362    22.211    3.116
    493    H    1.303    21.959    2.890
    494    N    -3.834    23.335    2.563
    495    C    -3.754    23.285    3.892
    496    H    -4.523    23.470    4.504
    497    N    -2.681    22.992    4.621
    498    C    -1.615    22.726    3.837
    499    C    -2.757    23.070    1.810
    500    N    -2.843    23.169    0.487
    501    H    -3.722    23.443    0.073
    502    H    -2.027    22.968    -0.073
    503    C    0.619    20.949    6.054
    504    H    0.894    20.483    5.213
    505    O    -0.346    20.216    6.811
    506    H    -1.261    20.395    6.583
    507    C    1.858    21.226    6.896
    508    H    2.599    20.661    6.534
    509    O    1.559    20.988    8.282
    510    P    1.237    19.510    8.866
    511    O    1.650    19.482    10.287
    512    O    1.799    18.514    7.926
    513    O    -0.373    19.406    8.804
    514    C    -1.134    18.966    9.940
    515    H    -0.941    19.569    10.714
    516    H    -0.994    17.984    10.065
    517    C    -2.637    19.118    9.692
    518    H    -3.149    18.651    10.413
    519    O    -2.972    20.514    9.709
    520    C    -3.663    20.856    8.501
    521    H    -4.642    20.799    8.696
    522    N    -3.292    22.251    8.107
    523    C    -2.088    22.788    8.498
    524    H    -1.364    22.383    9.056
    525    C    -4.178    22.989    7.322
    526    O    -5.258    22.552    6.942
    527    N    -3.770    24.259    6.978
    528    H    -4.417    24.816    6.402
    529    C    -2.581    24.863    7.327
    530    O    -2.326    26.002    6.946
    531    C    -1.718    24.040    8.137
    532    H    -0.883    24.550    8.344
    533    C    -3.292    19.771    7.478
    534    H    -2.407    19.998    7.072
    535    O    -4.322    19.602    6.495
    536    H    -4.783    20.407    6.248
    537    C    -3.129    18.536    8.372
    538    H    -2.411    17.960    7.982
    539    O    -4.413    17.917    8.545
    540    P    -4.838    16.644    7.647
    541    O    -6.110    16.114    8.188
    542    O    -3.664    15.749    7.516
    543    O    -5.140    17.297    6.198
    544    C    -6.264    18.167    5.979
    545    H    -6.145    18.997    6.525
    546    H    -7.108    17.645    6.099
    547    C    -6.321    18.663    4.533
    548    H    -7.149    19.208    4.401
    549    O    -5.167    19.471    4.202
    550    C    -5.112    19.524    2.778
    551    H    -5.560    20.378    2.513
    552    N    -3.696    19.508    2.379
    553    C    -1.842    19.777    1.242
    554    N    -1.465    19.255    2.479
    555    C    -2.600    19.122    3.098
    556    H    -2.431    18.749    4.011
    557    N    -1.802    20.629    -0.939
    558    C    -3.129    20.731    -0.882
    559    H    -3.695    21.079    -1.629
    560    N    -3.912    20.402    0.136
    561    C    -3.195    19.930    1.175
    562    C    -1.115    20.153    0.111
    563    N    0.204    20.060    0.031
    564    H    0.665    20.350    -0.820
    565    H    0.719    19.701    0.823
    566    C    -5.923    18.343    2.228
    567    H    -5.314    17.780    1.669
    568    O    -7.088    18.790    1.522
    569    H    -6.982    19.619    1.050
    570    C    -6.314    17.559    3.485
    571    H    -5.588    16.907    3.704
    572    O    -7.622    17.020    3.266
    573    P    -7.745    15.497    2.761
    574    O    -9.183    15.192    2.575
    575    O    -6.918    14.654    3.658
    576    O    -7.048    15.523    1.300
    577    C    -7.646    16.208    0.190
    578    H    -7.848    17.150    0.459
    579    H    -8.396    15.653    -0.170
    580    C    -6.702    16.364    -1.004
    581    H    -7.196    16.796    -1.759
    582    O    -5.556    17.186    -0.657
    583    C    -4.445    16.765    -1.476
    584    H    -4.253    17.526    -2.095
    585    N    -3.312    16.475    -0.576
    586    C    -1.294    16.161    0.227
    587    N    -2.174    15.930    1.282
    588    C    -3.336    16.127    0.744
    589    H    -4.044    15.978    1.434
    590    N    0.649    16.396    -1.061
    591    C    -0.127    16.707    -2.102
    592    H    0.222    16.924    -3.013
    593    N    -1.454    16.782    -2.118
    594    C    -1.976    16.492    -0.908
    595    C    0.098    16.116    0.131
    596    N    0.884    15.829    1.165
    597    H    1.885    15.827    1.033
    598    H    0.461    15.620    2.058
    599    C    -4.889    15.548    -2.302
    600    H    -4.177    14.847    -2.255
    601    O    -5.233    15.912    -3.641
    602    H    -4.701    16.616    -4.019
    603    C    -6.109    15.069    -1.524
    604    H    -5.797    14.520    -0.749
    605    O    -7.038    14.424    -2.405
    606    P    -6.917    12.836    -2.655
    607    O    -8.043    12.409    -3.514
    608    O    -6.694    12.186    -1.343
    609    O    -5.558    12.733    -3.514
    610    C    -5.431    13.419    -4.765
    611    H    -5.643    14.387    -4.629
    612    H    -5.945    12.921    -5.463
    613    C    -3.993    13.408    -5.267
    614    H    -3.931    13.858    -6.158
    615    O    -3.116    14.076    -4.343
    616    C    -1.790    13.564    -4.575
    617    H    -1.301    14.268    -5.090
    618    N    -1.192    13.308    -3.247