!*** FMO 5.2 (Gamess) INPUT generated by Facio 21.1.1.32 ***
 $CONTRL RUNTYP=OPTFMO NPRINT=-5 ISPHER=-1 MAXIT=50 $END
 $SYSTEM MWORDS=29 $END
 $GDDI NGROUP=1 $END
 $INTGRL NINTIC=-9000000 $END
 $SCF DIRSCF=.FALSE. NPUNCH=0 $END
!*** NumCPU : 2  MemPerNode : 512MB
 $FMOPRP
    NAODIR=210
    NGRFMO(1)=1, 1, 0, 0, 0,   0, 0, 0, 0, 0
    NPRINT=9
 $END
 $FMO
      SCFTYP(1)=RHF
      MODGRD=10
      MODMUL=0
      MAXCAO=5
      MAXBND=34
      NLAYER=1
      NFRAG=32
      ICHARG(1)=-1, -1, -1, -1, -1, -1, -1, -1, -1, -1, 
-1, -1, -1, -1, -1, -1, -1, -1, -1, -1, 
-1, -1, -1, -1, -1, -1, -1, -1, -1, -1, 
-1, 0
      FRGNAM(1)=Frag1, Frag2, Frag3, Frag4, Frag5, Frag6, Frag7, Frag8, Frag9, Frag10, Frag11, Frag12, Frag13, Frag14, Frag15, Frag16, Frag17, Frag18, Frag19, Frag20, Frag21, Frag22, Frag23, Frag24, Frag25, Frag26, Frag27, Frag28, Frag29, Frag30, Frag31, Frag32
      indat(1)=0
               1   -36   0
               37   -69   0
               70   -103   0
               104   -134   0
               135   -167   0
               168   -201   0
               202   -231   0
               232   -261   0
               262   -292   0
               293   -323   0
               324   -354   0
               355   -385   0
               386   -415   0
               416   -449   0
               450   -480   0
               481   -513   0
               514   -543   0
               544   -576   0
               577   -609   0
               610   -643   0
               644   -677   0
               678   -710   0
               711   -740   0
               741   -774   0
               775   -807   0
               808   -840   0
               841   -871   0
               872   -902   0
               903   -936   0
               937   -966   0
               967   -996   0
               997   -1024   0
 $END

 $FMOBND
   -37   36       3-21G    MINI
   -70   69       3-21G    MINI
   -104   103       3-21G    MINI
   -135   134       3-21G    MINI
   -168   167       3-21G    MINI
   -202   201       3-21G    MINI
   -232   231       3-21G    MINI
   -262   261       3-21G    MINI
   -293   292       3-21G    MINI
   -324   323       3-21G    MINI
   -355   354       3-21G    MINI
   -386   385       3-21G    MINI
   -416   415       3-21G    MINI
   -450   449       3-21G    MINI
   -481   480       3-21G    MINI
   -514   513       3-21G    MINI
   -544   543       3-21G    MINI
   -577   576       3-21G    MINI
   -610   609       3-21G    MINI
   -644   643       3-21G    MINI
   -678   677       3-21G    MINI
   -711   710       3-21G    MINI
   -741   740       3-21G    MINI
   -775   774       3-21G    MINI
   -808   807       3-21G    MINI
   -841   840       3-21G    MINI
   -872   871       3-21G    MINI
   -903   902       3-21G    MINI
   -937   936       3-21G    MINI
   -967   966       3-21G    MINI
   -997   996       3-21G    MINI
 $END
 $FMOHYB
 3-21G        9   5
   1 0  -0.070459   0.164841   0.000000   0.000000   0.502116
         0.466939   0.000000   0.000000   0.418036
   0 1  -0.070465   0.164857   0.473392   0.000000  -0.167359
         0.466967   0.394111   0.000000  -0.139327
   0 1  -0.070465   0.164857  -0.236695  -0.409969  -0.167359
         0.466967  -0.197055  -0.341311  -0.139327
   0 1  -0.070465   0.164857  -0.236695   0.409969  -0.167359
         0.466967  -0.197055   0.341311  -0.139327
   0 1   1.006716   0.074826   0.000000   0.000000   0.000000
        -0.143830   0.000000   0.000000  -0.000003
 MINI         5   5
   1 0  -0.104883   0.308874   0.000000   0.000000   0.521806
   0 1  -0.104883   0.308874   0.491961   0.000000  -0.173934
   0 1  -0.104883   0.308876  -0.245980  -0.426050  -0.173933
   0 1  -0.104883   0.308876  -0.245980   0.426050  -0.173933
   0 1   0.988209   0.063992   0.000000   0.000000   0.000000
 $END

 $DATA
 FMO calculation : XXNAMEXX
 C1 
 C.1-1    6
      N21 3
   
 O.1-1    8
      N21 3
   
 N.1-1    7
      N21 3
   
 H.1-1    1
      N21 3
   
 P.1-1   15
      N21 3
   
 $END
 $FMOXYZ
    1    H    7.185    -22.002    2.212
    2    O    6.568    -22.281    1.476
    3    C    7.135    -23.401    0.792
    4    H    7.178    -24.178    1.420
    5    H    7.981    -23.114    0.343
    6    C    6.232    -23.863    -0.338
    7    H    6.801    -24.589    -0.723
    8    O    5.035    -24.427    0.148
    9    C    4.129    -24.466    -0.964
    10    H    4.185    -25.386    -1.351
    11    N    2.774    -24.196    -0.424
    12    C    1.578    -24.532    -1.018
    13    N    -0.176    -26.040    -3.606
    14    H    -1.107    -26.231    -3.949
    15    H    0.590    -26.387    -4.165
    16    N    1.433    -25.211    -2.181
    17    C    0.148    -25.383    -2.501
    18    N    -0.898    -24.926    -1.743
    19    H    -1.850    -25.115    -2.087
    20    C    -0.779    -24.232    -0.555
    21    O    -1.785    -23.864    0.045
    22    C    0.586    -24.039    -0.198
    23    N    1.139    -23.400    0.908
    24    C    2.416    -23.527    0.716
    25    H    2.904    -23.092    1.473
    26    C    4.655    -23.454    -1.999
    27    H    3.993    -22.705    -2.019
    28    O    4.923    -24.094    -3.249
    29    H    4.355    -24.841    -3.452
    30    C    5.993    -22.920    -1.500
    31    H    5.876    -21.992    -1.147
    32    O    7.043    -23.192    -2.442
    33    P    7.270    -22.101    -3.629
    34    O    8.385    -22.596    -4.454
    35    O    7.537    -20.789    -2.967
    36    O    5.955    -22.018    -4.597
    37    C    5.708    -22.877    -5.733
    38    H    5.722    -23.830    -5.430
    39    H    6.319    -22.614    -6.479
    40    C    4.302    -22.670    -6.293
    41    H    4.148    -23.274    -7.075
    42    O    3.335    -22.980    -5.261
    43    C    2.103    -22.368    -5.687
    44    H    1.636    -23.030    -6.273
    45    N    1.302    -22.048    -4.486
    46    C    -0.376    -21.738    -3.099
    47    N    0.771    -21.351    -2.412
    48    C    1.716    -21.556    -3.279
    49    H    2.593    -21.302    -2.871
    50    N    -2.605    -22.200    -3.660
    51    C    -2.179    -22.590    -4.862
    52    H    -2.783    -22.924    -5.586
    53    N    -0.923    -22.607    -5.303
    54    C    -0.066    -22.163    -4.360
    55    C    -1.727    -21.763    -2.742
    56    N    -2.166    -21.381    -1.546
    57    H    -3.156    -21.427    -1.350
    58    H    -1.499    -21.054    -0.861
    59    C    2.495    -21.149    -6.526
    60    H    2.308    -20.339    -5.970
    61    O    1.842    -21.159    -7.798
    62    H    0.968    -21.557    -7.802
    63    C    3.993    -21.255    -6.757
    64    H    4.455    -20.606    -6.153
    65    O    4.275    -21.071    -8.155
    66    P    4.278    -19.564    -8.744
    67    O    4.919    -19.566    -10.076
    68    O    4.794    -18.660    -7.688
    69    O    2.713    -19.252    -8.971
    70    C    1.958    -19.751    -10.086
    71    H    1.949    -20.750    -10.052
    72    H    2.286    -19.313    -10.923
    73    C    0.489    -19.355    -10.000
    74    H    -0.048    -19.717    -10.762
    75    O    0.011    -19.929    -8.779
    76    C    -1.294    -19.389    -8.469
    77    H    -1.998    -20.038    -8.758
    78    N    -1.409    -19.152    -7.008
    79    C    -2.543    -18.767    -6.325
    80    N    -5.929    -17.983    -6.314
    81    H    -6.689    -17.689    -5.717
    82    H    -6.151    -18.127    -7.289
    83    N    -3.774    -18.587    -6.863
    84    C    -4.671    -18.200    -5.956
    85    N    -4.385    -18.010    -4.629
    86    H    -5.158    -17.716    -4.015
    87    C    -3.142    -18.182    -4.050
    88    O    -2.995    -17.980    -2.848
    89    C    -2.172    -18.593    -5.008
    90    N    -0.817    -18.873    -4.847
    91    C    -0.438    -19.193    -6.047
    92    H    0.536    -19.417    -6.032
    93    C    -1.331    -18.169    -9.394
    94    H    -1.686    -17.402    -8.859
    95    O    -2.181    -18.416    -10.520
    96    H    -2.907    -19.022    -10.355
    97    C    0.126    -17.885    -9.766
    98    H    0.648    -17.541    -8.985
    99    O    0.324    -16.921    -10.832
    100    P    0.742    -15.345    -10.737
    101    O    0.833    -14.784    -12.097
    102    O    1.907    -15.284    -9.838
    103    O    -0.504    -14.656    -9.997
    104    C    -1.702    -14.284    -10.679
    105    H    -2.161    -15.110    -11.004
    106    H    -1.488    -13.572    -11.348
    107    C    -2.711    -13.634    -9.747
    108    H    -3.507    -13.445    -10.323
    109    O    -3.043    -14.669    -8.819
    110    C    -3.670    -14.068    -7.675
    111    H    -4.628    -14.355    -7.671
    112    N    -3.037    -14.534    -6.415
    113    C    -1.748    -14.980    -6.406
    114    H    -1.119    -15.130    -7.169
    115    C    -1.125    -15.296    -5.257
    116    H    -0.207    -15.630    -5.044
    117    C    -3.749    -14.409    -5.227
    118    O    -4.917    -14.027    -5.239
    119    N    -3.129    -14.723    -4.055
    120    C    -1.860    -15.152    -4.043
    121    N    -1.268    -15.419    -2.885
    122    H    -1.790    -15.293    -2.029
    123    H    -0.312    -15.743    -2.857
    124    C    -3.603    -12.561    -7.930
    125    H    -3.372    -12.125    -7.060
    126    O    -4.857    -12.083    -8.419
    127    H    -5.624    -12.571    -8.111
    128    C    -2.447    -12.352    -8.916
    129    H    -1.561    -12.436    -8.461
    130    O    -2.406    -11.063    -9.580
    131    P    -1.885    -9.596    -9.070
    132    O    -2.122    -8.630    -10.148
    133    O    -0.511    -9.721    -8.566
    134    O    -2.827    -9.150    -7.858
    135    C    -4.159    -8.689    -8.070
    136    H    -4.683    -9.407    -8.528
    137    H    -4.127    -7.786    -8.499
    138    C    -4.862    -8.472    -6.737
    139    H    -5.788    -8.284    -7.063
    140    O    -4.873    -9.718    -5.958
    141    C    -5.190    -9.333    -4.613
    142    H    -6.128    -9.635    -4.441
    143    N    -4.243    -10.028    -3.713
    144    C    -3.311    -10.962    -1.953
    145    N    -2.396    -11.100    -2.994
    146    C    -3.001    -10.531    -3.993
    147    H    -2.412    -10.577    -4.800
    148    N    -4.349    -11.063    0.144
    149    C    -5.390    -10.421    -0.385
    150    H    -6.212    -10.174    0.128
    151    N    -5.523    -10.006    -1.642
    152    C    -4.435    -10.312    -2.377
    153    C    -3.281    -11.355    -0.612
    154    N    -2.253    -11.997    -0.066
    155    H    -2.298    -12.252    0.910
    156    H    -1.451    -12.215    -0.640
    157    C    -5.142    -7.793    -4.565
    158    H    -4.548    -7.562    -3.794
    159    O    -6.460    -7.239    -4.538
    160    H    -7.120    -7.785    -4.104
    161    C    -4.507    -7.281    -5.851
    162    H    -3.513    -7.229    -5.758
    163    O    -5.193    -6.096    -6.289
    164    P    -4.985    -4.659    -5.537
    165    O    -5.938    -3.745    -6.183
    166    O    -3.553    -4.251    -5.558
    167    O    -5.465    -4.816    -3.998
    168    C    -6.816    -4.707    -3.512
    169    H    -7.410    -5.288    -4.068
    170    H    -7.054    -3.740    -3.426
    171    C    -6.932    -5.267    -2.097
    172    H    -7.897    -5.510    -1.998
    173    O    -6.150    -6.447    -2.033
    174    C    -5.908    -6.751    -0.653
    175    H    -6.510    -7.508    -0.399
    176    N    -4.485    -7.134    -0.528
    177    C    -3.871    -7.617    0.607
    178    N    -4.028    -8.567    3.943
    179    H    -3.475    -8.926    4.708
    180    H    -5.003    -8.387    4.137
    181    N    -4.467    -7.832    1.803
    182    C    -3.612    -8.307    2.712
    183    N    -2.286    -8.547    2.462
    184    H    -1.716    -8.912    3.238
    185    C    -1.653    -8.338    1.251
    186    O    -0.459    -8.598    1.129
    187    C    -2.553    -7.831    0.272
    188    N    -2.324    -7.487    -1.059
    189    C    -3.491    -7.088    -1.465
    190    H    -3.426    -6.815    -2.425
    191    C    -6.344    -5.485    0.112
    192    H    -5.565    -5.223    0.681
    193    O    -7.586    -5.690    0.790
    194    H    -7.740    -6.589    1.090
    195    C    -6.610    -4.380    -0.904
    196    H    -5.772    -3.869    -1.095
    197    O    -7.833    -3.703    -0.560
    198    P    -7.877    -2.610    0.653
    199    O    -9.274    -2.150    0.748
    200    O    -6.871    -1.564    0.313
    201    O    -7.459    -3.265    2.089
    202    C    -8.371    -3.764    3.090
    203    H    -8.905    -4.514    2.699
    204    H    -8.868    -2.994    3.490
    205    C    -7.617    -4.393    4.263
    206    H    -8.264    -4.858    4.867
    207    O    -6.689    -5.331    3.777
    208    C    -5.572    -5.412    4.679
    209    H    -5.575    -6.327    5.082
    210    N    -4.354    -5.115    3.892
    211    C    -4.438    -4.455    2.696
    212    H    -5.243    -4.111    2.213
    213    C    -3.139    -5.519    4.410
    214    O    -3.040    -6.108    5.480
    215    N    -2.030    -5.213    3.649
    216    H    -1.113    -5.502    4.019
    217    C    -2.025    -4.556    2.437
    218    O    -0.970    -4.337    1.853
    219    C    -3.335    -4.170    1.970
    220    H    -3.242    -3.701    1.092
    221    C    -5.871    -4.390    5.768
    222    H    -5.018    -3.914    5.981
    223    O    -6.535    -4.974    6.892
    224    H    -6.276    -5.877    7.091
    225    C    -6.831    -3.416    5.124
    226    H    -6.333    -2.785    4.529
    227    O    -7.634    -2.941    6.214
    228    P    -7.146    -1.570    6.905
    229    O    -8.153    -1.201    7.931
    230    O    -6.804    -0.639    5.789
    231    O    -5.766    -1.956    7.675
    232    C    -5.667    -2.491    9.013
    233    H    -6.070    -3.406    9.028
    234    H    -6.016    -1.814    9.661
    235    C    -4.235    -2.735    9.504
    236    H    -4.180    -3.203    10.386
    237    O    -3.596    -3.525    8.524
    238    C    -2.169    -3.310    8.579
    239    H    -1.752    -4.138    8.954
    240    N    -1.693    -3.030    7.202
    241    C    -2.569    -2.637    6.227
    242    H    -3.560    -2.515    6.275
    243    C    -0.339    -3.145    6.944
    244    O    0.468    -3.501    7.797
    245    N    0.063    -2.838    5.662
    246    H    1.068    -2.918    5.452
    247    C    -0.752    -2.432    4.625
    248    O    -0.278    -2.179    3.523
    249    C    -2.150    -2.343    4.976
    250    H    -2.669    -2.049    4.173
    251    C    -1.985    -2.162    9.577
    252    H    -1.307    -1.523    9.213
    253    O    -1.631    -2.647    10.875
    254    H    -1.075    -3.430    10.877
    255    C    -3.355    -1.497    9.555
    256    H    -3.469    -0.981    8.706
    257    O    -3.573    -0.671    10.715
    258    P    -3.369    0.936    10.717
    259    O    -3.746    1.468    12.046
    260    O    -4.000    1.467    9.490
    261    O    -1.779    1.077    10.552
    262    C    -0.885    0.656    11.591
    263    H    -1.028    -0.317    11.769
    264    H    -0.960    1.289    12.361
    265    C    0.572    0.754    11.156
    266    H    1.216    0.399    11.834
    267    O    0.698    -0.015    9.938
    268    C    1.887    0.359    9.217
    269    H    2.583    -0.349    9.340
    270    N    1.546    0.516    7.781
    271    C    0.255    0.714    7.385
    272    H    -0.585    0.755    7.926
    273    C    -0.051    0.893    6.088
    274    H    -0.911    1.051    5.602
    275    C    2.581    0.488    6.854
    276    O    3.741    0.313    7.223
    277    N    2.282    0.669    5.540
    278    C    1.018    0.866    5.143
    279    N    0.759    1.046    3.853
    280    H    1.525    1.031    3.195
    281    H    -0.187    1.196    3.533
    282    C    2.315    1.618    9.982
    283    H    2.608    2.295    9.307
    284    O    3.377    1.322    10.900
    285    H    3.963    0.613    10.626
    286    C    1.046    2.119    10.669
    287    H    0.389    2.473    10.003
    288    O    1.264    3.108    11.701
    289    P    1.221    4.724    11.554
    290    O    1.660    5.340    12.823
    291    O    -0.093    5.067    10.980
    292    O    2.326    5.019    10.431
    293    C    3.708    4.757    10.681
    294    H    3.814    3.801    10.956
    295    H    4.068    5.463    11.291
    296    C    4.503    4.894    9.395
    297    H    5.448    4.619    9.569
    298    O    3.913    3.975    8.481
    299    C    4.193    4.416    7.145
    300    H    4.746    3.719    6.688
    301    N    2.900    4.595    6.435
    302    C    1.736    4.706    7.138
    303    H    1.577    4.669    8.125
    304    C    0.562    4.896    6.512
    305    H    -0.378    5.001    6.836
    306    C    2.906    4.674    5.044
    307    O    3.961    4.580    4.423
    308    N    1.718    4.866    4.400
    309    C    0.574    4.976    5.088
    310    N    -0.571    5.157    4.437
    311    H    -0.556    5.208    3.428
    312    H    -1.443    5.242    4.940
    313    C    5.054    5.663    7.379
    314    H    4.852    6.306    6.640
    315    O    6.438    5.310    7.428
    316    H    6.684    4.559    6.884
    317    C    4.569    6.255    8.700
    318    H    3.645    6.630    8.630
    319    O    5.483    7.195    9.307
    320    P    5.590    8.794    9.013
    321    O    6.721    9.297    9.803
    322    O    4.303    9.504    9.166
    323    O    6.052    8.932    7.486
    324    C    7.361    8.542    7.073
    325    H    7.514    7.589    7.333
    326    H    8.019    9.225    7.389
    327    C    7.473    8.559    5.559
    328    H    8.381    8.185    5.371
    329    O    6.482    7.690    4.989
    330    C    6.186    8.180    3.674
    331    H    6.437    7.459    3.028
    332    N    4.731    8.465    3.640
    333    C    4.034    8.670    4.796
    334    H    4.345    8.664    5.746
    335    C    2.715    8.929    4.769
    336    H    2.036    9.104    5.482
    337    C    4.103    8.516    2.400
    338    O    4.747    8.338    1.369
    339    N    2.766    8.779    2.363
    340    C    2.075    8.982    3.494
    341    N    0.771    9.238    3.427
    342    H    0.327    9.274    2.521
    343    H    0.232    9.394    4.267
    344    C    7.108    9.392    3.454
    345    H    6.580    10.088    2.968
    346    O    8.338    9.016    2.830
    347    H    8.270    8.291    2.204
    348    C    7.431    9.901    4.853
    349    H    6.669    10.436    5.216
    350    O    8.768    10.414    4.924
    351    P    9.225    11.770    4.154
    352    O    10.696    11.767    4.218
    353    O    8.524    12.932    4.769
    354    O    8.809    11.676    2.588
    355    C    9.566    11.011    1.561
    356    H    9.643    10.041    1.790
    357    H    10.410    11.522    1.396
    358    C    8.808    11.052    0.238
    359    H    9.296    10.471    -0.413
    360    O    7.464    10.579    0.367
    361    C    6.673    11.215    -0.647
    362    H    6.420    10.503    -1.302
    363    N    5.516    11.806    0.060
    364    C    5.583    12.079    1.395
    365    H    6.337    11.965    2.042
    366    C    4.523    12.585    2.044
    367    H    4.364    12.849    2.995
    368    C    4.361    12.045    -0.672
    369    O    4.329    11.801    -1.876
    370    N    3.282    12.558    -0.020
    371    C    3.336    12.826    1.291
    372    N    2.265    13.318    1.903
    373    H    1.427    13.481    1.364
    374    H    2.286    13.527    2.891
    375    C    7.576    12.236    -1.344
    376    H    7.069    13.095    -1.419
    377    O    8.072    11.751    -2.592
    378    H    7.470    11.177    -3.072
    379    C    8.736    12.428    -0.379
    380    H    8.478    13.088    0.327
    381    O    9.956    12.482    -1.134
    382    P    10.331    13.863    -1.845
    383    O    11.456    13.562    -2.766
    384    O    10.509    14.860    -0.750
    385    O    9.038    14.250    -2.752
    386    C    8.711    13.644    -4.018
    387    H    8.598    12.659    -3.888
    388    H    9.367    13.953    -4.706
    389    C    7.361    14.120    -4.535
    390    H    7.109    13.601    -5.352
    391    O    6.369    13.938    -3.552
    392    C    5.301    14.838    -3.877
    393    H    4.599    14.291    -4.334
    394    N    4.824    15.428    -2.609
    395    C    5.618    15.427    -1.495
    396    H    6.541    15.063    -1.369
    397    C    3.558    15.981    -2.594
    398    O    2.830    15.992    -3.582
    399    N    3.154    16.530    -1.395
    400    H    2.215    16.952    -1.363
    401    C    3.886    16.571    -0.228
    402    O    3.415    17.081    0.784
    403    C    5.197    15.972    -0.332
    404    H    5.660    16.047    0.551
    405    C    5.850    15.869    -4.865
    406    H    5.709    16.776    -4.468
    407    O    5.284    15.706    -6.170
    408    H    4.374    15.400    -6.182
    409    C    7.341    15.583    -4.929
    410    H    7.813    16.116    -4.226
    411    O    7.760    15.706    -6.296
    412    P    8.508    17.057    -6.742
    413    O    8.651    17.014    -8.212
    414    O    9.719    17.253    -5.901
    415    O    7.431    18.211    -6.402
    416    C    6.225    18.383    -7.162
    417    H    5.746    17.507    -7.215
    418    H    6.444    18.850    -8.019
    419    C    5.242    19.315    -6.457
    420    H    4.456    19.518    -7.041
    421    O    4.782    18.716    -5.257
    422    C    4.489    19.750    -4.296
    423    H    3.501    19.734    -4.143
    424    N    5.271    19.471    -3.075
    425    C    4.968    19.887    -1.797
    426    N    2.844    21.505    0.423
    427    H    2.727    21.753    1.395
    428    H    2.111    21.796    -0.208
    429    N    3.870    20.584    -1.425
    430    C    3.857    20.838    -0.114
    431    N    4.843    20.439    0.752
    432    H    4.732    20.690    1.745
    433    C    5.972    19.727    0.396
    434    O    6.794    19.421    1.251
    435    C    5.998    19.448    -0.996
    436    N    6.944    18.762    -1.752
    437    C    6.459    18.812    -2.952
    438    H    7.081    18.336    -3.574
    439    C    4.867    21.067    -4.956
    440    H    5.346    21.631    -4.283
    441    O    3.730    21.724    -5.531
    442    H    2.907    21.603    -5.052
    443    C    5.851    20.642    -6.037
    444    H    6.747    20.473    -5.626
    445    O    5.846    21.581    -7.115
    446    P    7.109    22.562    -7.285
    447    O    6.880    23.412    -8.470
    448    O    8.353    21.764    -7.179
    449    O    6.985    23.472    -5.962
    450    C    8.090    24.222    -5.461
    451    H    8.320    24.941    -6.117
    452    H    8.814    23.590    -5.185
    453    C    7.730    24.973    -4.182
    454    H    8.550    25.349    -3.750
    455    O    6.858    26.043    -4.531
    456    C    5.584    25.887    -3.881
    457    H    5.427    26.733    -3.371
    458    N    4.569    25.680    -4.939
    459    C    4.638    24.608    -5.784
    460    H    5.300    23.859    -5.823
    461    C    3.722    24.434    -6.753
    462    H    3.594    23.737    -7.459
    463    C    3.552    26.619    -5.051
    464    O    3.505    27.572    -4.278
    465    N    2.620    26.449    -6.030
    466    C    2.682    25.402    -6.863
    467    N    1.758    25.269    -7.812
    468    H    1.028    25.963    -7.883
    469    H    1.784    24.488    -8.452
    470    C    5.688    24.721    -2.892
    471    H    4.989    24.053    -3.147
    472    O    5.563    25.150    -1.533
    473    H    4.999    25.915    -1.400
    474    C    7.065    24.110    -3.119
    475    H    6.924    23.191    -3.487
    476    O    7.846    24.182    -1.916
    477    P    7.516    23.220    -0.659
    478    O    8.751    23.074    0.146
    479    O    6.825    22.016    -1.169
    480    O    6.453    24.091    0.196
    481    C    6.820    25.346    0.805
    482    H    7.071    25.995    0.087
    483    H    7.483    25.173    1.533
    484    C    5.648    26.027    1.526
    485    H    5.971    26.805    2.064
    486    O    4.728    26.494    0.539
    487    C    3.403    26.049    0.838
    488    H    2.926    26.840    1.221
    489    N    2.765    25.591    -0.411
    490    C    1.446    25.463    -2.159
    491    N    2.426    24.489    -2.339
    492    C    3.161    24.616    -1.278
    493    H    3.901    23.944    -1.312
    494    N    -0.419    26.846    -2.457
    495    C    -0.126    27.425    -1.293
    496    H    -0.662    28.166    -0.888
    497    N    0.892    27.137    -0.487
    498    C    1.644    26.134    -0.988
    499    C    0.350    25.854    -2.931
    500    N    0.069    25.318    -4.115
    501    H    -0.721    25.670    -4.637
    502    H    0.652    24.572    -4.465
    503    C    3.488    24.966    1.893
    504    H    3.433    24.083    1.426
    505    O    2.480    25.134    2.893
    506    H    1.656    25.513    2.578
    507    C    4.876    25.120    2.500
    508    H    5.301    24.215    2.508
    509    O    4.763    25.757    3.781
    510    P    4.070    25.015    5.043
    511    O    4.687    25.548    6.279
    512    O    4.095    23.558    4.781
    513    O    2.533    25.512    4.993
    514    C    1.866    26.003    6.169
    515    H    2.369    26.792    6.523
    516    H    1.696    25.238    6.790
    517    C    0.474    26.550    5.845
    518    H    -0.036    26.726    6.687
    519    O    0.626    27.783    5.124
    520    C    -0.111    27.715    3.898
    521    H    -1.004    28.131    4.067
    522    N    0.621    28.484    2.843
    523    C    1.981    28.659    2.926
    524    H    2.618    28.348    3.631
    525    C    -0.099    29.007    1.768
    526    O    -1.310    28.872    1.646
    527    N    0.635    29.690    0.822
    528    H    0.115    30.084    0.025
    529    C    1.996    29.901    0.833
    530    O    2.539    30.518    -0.079
    531    C    2.671    29.333    1.975
    532    H    3.649    29.530    1.907
    533    C    -0.304    26.218    3.604
    534    H    0.519    25.871    3.154
    535    O    -1.481    25.981    2.821
    536    H    -1.689    26.669    2.184
    537    C    -0.395    25.615    5.012
    538    H    0.026    24.708    4.995
    539    O    -1.756    25.645    5.474
    540    P    -2.719    24.350    5.365
    541    O    -3.977    24.659    6.083
    542    O    -1.945    23.145    5.737
    543    O    -3.052    24.272    3.786
    544    C    -3.824    25.297    3.140
    545    H    -3.321    26.160    3.184
    546    H    -4.756    25.279    3.502
    547    C    -3.982    25.015    1.646
    548    H    -4.595    25.688    1.233
    549    O    -2.695    25.080    0.984
    550    C    -2.862    24.429    -0.274
    551    H    -3.024    25.151    -0.947
    552    N    -1.620    23.698    -0.587
    553    C    -0.012    22.671    -1.669
    554    N    0.374    22.691    -0.329
    555    C    -0.612    23.309    0.249
    556    H    -0.424    23.377    1.229
    557    N    -0.065    22.310    -3.982
    558    C    -1.246    22.925    -4.012
    559    H    -1.782    23.068    -4.844
    560    N    -1.903    23.441    -2.982
    561    C    -1.222    23.279    -1.830
    562    C    0.590    22.161    -2.822
    563    N    1.764    21.545    -2.816
    564    H    2.141    21.200    -3.687
    565    H    2.255    21.435    -1.940
    566    C    -4.115    23.546    -0.177
    567    H    -3.849    22.606    -0.390
    568    O    -5.151    24.023    -1.047
    569    H    -4.842    24.431    -1.859
    570    C    -4.512    23.629    1.304
    571    H    -4.002    22.947    1.828
    572    O    -5.938    23.526    1.453
    573    P    -6.660    22.118    1.790
    574    O    -8.123    22.335    1.777
    575    O    -6.029    21.537    2.996
    576    O    -6.293    21.184    0.526
    577    C    -6.778    21.483    -0.789
    578    H    -6.520    22.420    -1.026
    579    H    -7.745    21.235    -0.843
    580    C    -6.119    20.634    -1.873
    581    H    -6.568    20.850    -2.740
    582    O    -4.736    21.077    -1.933
    583    C    -3.947    19.982    -2.436
    584    H    -3.578    20.271    -3.319
    585    N    -2.831    19.707    -1.503
    586    C    -0.951    18.984    -0.614
    587    N    -1.666    19.584    0.420
    588    C    -2.750    19.981    -0.169
    589    H    -3.339    20.430    0.502
    590    N    0.705    17.866    -1.838
    591    C    -0.066    17.995    -2.920
    592    H    0.184    17.655    -3.827
    593    N    -1.260    18.576    -2.989
    594    C    -1.649    19.054    -1.787
    595    C    0.296    18.354    -0.656
    596    N    1.084    18.239    0.410
    597    H    1.980    17.784    0.310
    598    H    0.768    18.609    1.295
    599    C    -4.919    18.810    -2.659
    600    H    -4.467    17.979    -2.335
    601    O    -5.287    18.721    -4.036
    602    H    -4.610    19.003    -4.655
    603    C    -6.119    19.108    -1.758
    604    H    -5.914    18.853    -0.813
    605    O    -7.341    18.449    -2.182
    606    P    -7.796    16.906    -1.892
    607    O    -9.075    16.679    -2.580
    608    O    -7.733    16.606    -0.448
    609    O    -6.724    15.977    -2.646
    610    C    -6.553    15.949    -4.067
    611    H    -6.318    16.868    -4.385
    612    H    -7.344    15.498    -4.481
    613    C    -5.367    15.089    -4.467
    614    H    -5.323    15.192    -5.461
    615    O    -4.243    15.763    -3.876
    616    C    -3.152    14.834    -3.834
    617    H    -2.474    15.134    -4.505