!*** FMO 5.2 (Gamess) INPUT generated by Facio 21.1.1.32 ***
 $CONTRL RUNTYP=OPTFMO NPRINT=-5 ISPHER=-1 MAXIT=50 $END
 $SYSTEM MWORDS=29 $END
 $GDDI NGROUP=1 $END
 $INTGRL NINTIC=-9000000 $END
 $SCF DIRSCF=.FALSE. NPUNCH=0 $END
!*** NumCPU : 2  MemPerNode : 512MB
 $FMOPRP
    NAODIR=210
    NGRFMO(1)=1, 1, 0, 0, 0,   0, 0, 0, 0, 0
    NPRINT=9
 $END
 $FMO
      SCFTYP(1)=RHF
      MODGRD=10
      MODMUL=0
      MAXCAO=5
      MAXBND=34
      NLAYER=1
      NFRAG=32
      ICHARG(1)=-1, -1, -1, -1, -1, -1, -1, -1, -1, -1, 
-1, -1, -1, -1, -1, -1, -1, -1, -1, -1, 
-1, -1, -1, -1, -1, -1, -1, -1, -1, -1, 
-1, 0
      FRGNAM(1)=Frag1, Frag2, Frag3, Frag4, Frag5, Frag6, Frag7, Frag8, Frag9, Frag10, Frag11, Frag12, Frag13, Frag14, Frag15, Frag16, Frag17, Frag18, Frag19, Frag20, Frag21, Frag22, Frag23, Frag24, Frag25, Frag26, Frag27, Frag28, Frag29, Frag30, Frag31, Frag32
      indat(1)=0
               1   -36   0
               37   -69   0
               70   -103   0
               104   -134   0
               135   -167   0
               168   -201   0
               202   -231   0
               232   -261   0
               262   -292   0
               293   -323   0
               324   -354   0
               355   -385   0
               386   -415   0
               416   -449   0
               450   -480   0
               481   -513   0
               514   -543   0
               544   -576   0
               577   -609   0
               610   -643   0
               644   -677   0
               678   -710   0
               711   -740   0
               741   -774   0
               775   -807   0
               808   -840   0
               841   -871   0
               872   -902   0
               903   -936   0
               937   -966   0
               967   -996   0
               997   -1024   0
 $END

 $FMOBND
   -37   36       3-21G    MINI
   -70   69       3-21G    MINI
   -104   103       3-21G    MINI
   -135   134       3-21G    MINI
   -168   167       3-21G    MINI
   -202   201       3-21G    MINI
   -232   231       3-21G    MINI
   -262   261       3-21G    MINI
   -293   292       3-21G    MINI
   -324   323       3-21G    MINI
   -355   354       3-21G    MINI
   -386   385       3-21G    MINI
   -416   415       3-21G    MINI
   -450   449       3-21G    MINI
   -481   480       3-21G    MINI
   -514   513       3-21G    MINI
   -544   543       3-21G    MINI
   -577   576       3-21G    MINI
   -610   609       3-21G    MINI
   -644   643       3-21G    MINI
   -678   677       3-21G    MINI
   -711   710       3-21G    MINI
   -741   740       3-21G    MINI
   -775   774       3-21G    MINI
   -808   807       3-21G    MINI
   -841   840       3-21G    MINI
   -872   871       3-21G    MINI
   -903   902       3-21G    MINI
   -937   936       3-21G    MINI
   -967   966       3-21G    MINI
   -997   996       3-21G    MINI
 $END
 $FMOHYB
 3-21G        9   5
   1 0  -0.070459   0.164841   0.000000   0.000000   0.502116
         0.466939   0.000000   0.000000   0.418036
   0 1  -0.070465   0.164857   0.473392   0.000000  -0.167359
         0.466967   0.394111   0.000000  -0.139327
   0 1  -0.070465   0.164857  -0.236695  -0.409969  -0.167359
         0.466967  -0.197055  -0.341311  -0.139327
   0 1  -0.070465   0.164857  -0.236695   0.409969  -0.167359
         0.466967  -0.197055   0.341311  -0.139327
   0 1   1.006716   0.074826   0.000000   0.000000   0.000000
        -0.143830   0.000000   0.000000  -0.000003
 MINI         5   5
   1 0  -0.104883   0.308874   0.000000   0.000000   0.521806
   0 1  -0.104883   0.308874   0.491961   0.000000  -0.173934
   0 1  -0.104883   0.308876  -0.245980  -0.426050  -0.173933
   0 1  -0.104883   0.308876  -0.245980   0.426050  -0.173933
   0 1   0.988209   0.063992   0.000000   0.000000   0.000000
 $END

 $DATA
 FMO calculation : XXNAMEXX
 C1 
 C.1-1    6
      N21 3
   
 O.1-1    8
      N21 3
   
 N.1-1    7
      N21 3
   
 H.1-1    1
      N21 3
   
 P.1-1   15
      N21 3
   
 $END
 $FMOXYZ
    1    H    8.051    -25.133    -4.091
    2    O    7.212    -24.778    -4.503
    3    C    7.006    -25.419    -5.767
    4    H    6.843    -26.394    -5.615
    5    H    7.745    -25.159    -6.388
    6    C    5.738    -24.928    -6.463
    7    H    5.681    -25.323    -7.380
    8    O    4.577    -25.287    -5.732
    9    C    3.511    -24.428    -6.188
    10    H    3.038    -24.924    -6.916
    11    N    2.632    -24.157    -5.029
    12    C    1.317    -23.756    -5.081
    13    N    -1.515    -22.950    -6.918
    14    H    -2.477    -22.654    -6.833
    15    H    -1.168    -23.091    -7.856
    16    N    0.589    -23.563    -6.205
    17    C    -0.659    -23.173    -5.932
    18    N    -1.142    -22.991    -4.662
    19    H    -2.122    -22.689    -4.566
    20    C    -0.421    -23.180    -3.499
    21    O    -0.952    -22.984    -2.409
    22    C    0.912    -23.596    -3.774
    23    N    1.954    -23.893    -2.899
    24    C    2.927    -24.213    -3.695
    25    H    3.731    -24.446    -3.149
    26    C    4.157    -23.171    -6.779
    27    H    3.887    -22.388    -6.218
    28    O    3.835    -22.998    -8.163
    29    H    2.959    -23.300    -8.416
    30    C    5.643    -23.418    -6.600
    31    H    5.929    -22.994    -5.740
    32    O    6.464    -22.736    -7.547
    33    P    7.032    -21.315    -7.055
    34    O    7.965    -20.985    -8.133
    35    O    7.558    -20.989    -5.689
    36    O    5.792    -20.305    -7.201
    37    C    5.051    -20.352    -8.424
    38    H    4.794    -21.300    -8.613
    39    H    5.555    -19.854    -9.129
    40    C    3.710    -19.629    -8.375
    41    H    3.275    -19.655    -9.275
    42    O    2.834    -20.270    -7.408
    43    C    1.794    -19.308    -7.140
    44    H    1.085    -19.448    -7.831
    45    N    1.292    -19.547    -5.772
    46    C    -0.021    -19.743    -4.023
    47    N    1.268    -20.007    -3.570
    48    C    1.989    -19.873    -4.642
    49    H    2.948    -20.043    -4.413
    50    N    -2.340    -19.415    -4.118
    51    C    -2.210    -19.158    -5.421
    52    H    -2.974    -18.929    -6.024
    53    N    -1.083    -19.159    -6.131
    54    C    -0.019    -19.462    -5.359
    55    C    -1.260    -19.714    -3.378
    56    N    -1.407    -19.971    -2.081
    57    H    -2.332    -19.936    -1.677
    58    H    -0.590    -20.195    -1.531
    59    C    2.416    -17.923    -7.338
    60    H    2.529    -17.518    -6.431
    61    O    1.642    -17.118    -8.231
    62    H    0.697    -17.284    -8.210
    63    C    3.784    -18.165    -7.944
    64    H    4.471    -18.072    -7.223
    65    O    4.091    -17.088    -8.850
    66    P    4.416    -15.608    -8.286
    67    O    5.089    -14.927    -9.398
    68    O    4.944    -15.149    -6.952
    69    O    2.912    -15.060    -8.246
    70    C    2.133    -15.289    -9.424
    71    H    2.212    -16.251    -9.685
    72    H    2.366    -14.597    -10.108
    73    C    0.643    -15.093    -9.199
    74    H    0.101    -15.267    -10.021
    75    O    0.205    -15.972    -8.157
    76    C    -1.112    -15.556    -7.739
    77    H    -1.794    -16.092    -8.237
    78    N    -1.196    -15.744    -6.275
    79    C    -2.325    -15.611    -5.503
    80    N    -5.720    -14.940    -5.225
    81    H    -6.477    -14.866    -4.560
    82    H    -5.952    -14.772    -6.193
    83    N    -3.563    -15.295    -5.952
    84    C    -4.454    -15.234    -4.963
    85    N    -4.153    -15.467    -3.646
    86    H    -4.922    -15.397    -2.964
    87    C    -2.900    -15.788    -3.160
    88    O    -2.740    -15.974    -1.958
    89    C    -1.936    -15.856    -4.204
    90    N    -0.574    -16.145    -4.150
    91    C    -0.204    -16.063    -5.392
    92    H    0.775    -16.258    -5.454
    93    C    -1.159    -14.102    -8.234
    94    H    -1.434    -13.538    -7.455
    95    O    -2.016    -13.954    -9.370
    96    H    -2.761    -14.559    -9.397
    97    C    0.262    -13.737    -8.632
    98    H    0.824    -13.552    -7.826
    99    O    0.358    -12.609    -9.527
    100    P    0.806    -11.121    -9.067
    101    O    0.890    -10.267    -10.272
    102    O    1.905    -10.952    -8.072
    103    O    -0.537    -10.697    -8.295
    104    C    -1.762    -10.685    -9.035
    105    H    -1.886    -11.575    -9.474
    106    H    -1.785    -9.870    -9.613
    107    C    -2.990    -10.540    -8.145
    108    H    -3.818    -10.447    -8.699
    109    O    -3.124    -11.682    -7.295
    110    C    -3.920    -11.276    -6.167
    111    H    -4.825    -11.682    -6.296
    112    N    -3.245    -11.762    -4.946
    113    C    -1.899    -11.987    -4.928
    114    H    -1.220    -11.910    -5.658
    115    C    -1.284    -12.379    -3.799
    116    H    -0.334    -12.594    -3.574
    117    C    -4.021    -11.934    -3.812
    118    O    -5.233    -11.741    -3.856
    119    N    -3.407    -12.327    -2.664
    120    C    -2.087    -12.546    -2.632
    121    N    -1.511    -12.897    -1.489
    122    H    -2.084    -12.992    -0.663
    123    H    -0.516    -13.067    -1.444
    124    C    -4.046    -9.750    -6.224
    125    H    -3.837    -9.380    -5.319
    126    O    -5.331    -9.339    -6.708
    127    H    -6.061    -9.909    -6.455
    128    C    -2.936    -9.356    -7.189
    129    H    -2.056    -9.362    -6.713
    130    O    -3.303    -8.174    -7.938
    131    P    -3.151    -6.616    -7.521
    132    O    -3.561    -5.672    -8.598
    133    O    -1.773    -6.595    -7.001
    134    O    -4.196    -6.474    -6.310
    135    C    -5.606    -6.451    -6.564
    136    H    -5.872    -7.310    -7.002
    137    H    -5.839    -5.596    -7.027
    138    C    -6.401    -6.417    -5.265
    139    H    -7.378    -6.319    -5.455
    140    O    -6.187    -7.639    -4.486
    141    C    -6.546    -7.307    -3.130
    142    H    -7.440    -7.722    -2.963
    143    N    -5.500    -7.870    -2.252
    144    C    -4.441    -8.717    -0.524
    145    N    -3.524    -8.706    -1.574
    146    C    -4.207    -8.196    -2.555
    147    H    -3.623    -8.144    -3.365
    148    N    -5.440    -9.006    1.573
    149    C    -6.561    -8.493    1.066
    150    H    -7.405    -8.370    1.589
    151    N    -6.757    -8.067    -0.179
    152    C    -5.643    -8.209    -0.925
    153    C    -4.349    -9.136    0.805
    154    N    -3.241    -9.652    1.329
    155    H    -3.244    -9.936    2.298
    156    H    -2.422    -9.748    0.746
    157    C    -6.681    -5.782    -3.052
    158    H    -6.162    -5.462    -2.259
    159    O    -8.049    -5.365    -3.023
    160    H    -8.646    -5.964    -2.568
    161    C    -5.994    -5.300    -4.322
    162    H    -5.002    -5.321    -4.201
    163    O    -6.650    -4.124    -4.825
    164    P    -6.470    -2.627    -4.226
    165    O    -7.344    -1.614    -4.866
    166    O    -5.034    -2.713    -4.495
    167    O    -6.770    -2.708    -2.650
    168    C    -8.112    -2.706    -2.159
    169    H    -8.654    -3.357    -2.690
    170    H    -8.437    -1.762    -2.103
    171    C    -8.171    -3.225    -0.729
    172    H    -9.107    -3.420    -0.435
    173    O    -7.402    -4.411    -0.635
    174    C    -7.100    -4.635    0.755
    175    H    -7.732    -5.333    1.093
    176    N    -5.689    -5.067    0.837
    177    C    -5.040    -5.513    1.965
    178    N    -5.058    -6.253    5.358
    179    H    -4.481    -6.595    6.113
    180    H    -6.010    -6.010    5.592
    181    N    -5.579    -5.625    3.202
    182    C    -4.700    -6.089    4.092
    183    N    -3.403    -6.415    3.789
    184    H    -2.810    -6.763    4.556
    185    C    -2.829    -6.313    2.534
    186    O    -1.659    -6.643    2.367
    187    C    -3.755    -5.817    1.575
    188    N    -3.584    -5.565    0.215
    189    C    -4.750    -5.129    -0.153
    190    H    -4.725    -4.917    -1.130
    191    C    -7.411    -3.303    1.447
    192    H    -6.623    -3.056    2.011
    193    O    -8.631    -3.360    2.196
    194    H    -8.825    -4.214    2.590
    195    C    -7.529    -2.311    0.299
    196    H    -6.620    -2.046    -0.024
    197    O    -8.469    -1.277    0.646
    198    P    -8.044    0.098    1.385
    199    O    -9.189    1.031    1.517
    200    O    -6.901    0.409    0.516
    201    O    -7.509    -0.274    2.860
    202    C    -8.418    -0.576    3.926
    203    H    -9.023    -1.318    3.638
    204    H    -8.838    0.273    4.246
    205    C    -7.684    -1.127    5.143
    206    H    -8.302    -1.342    5.899
    207    O    -6.996    -2.295    4.768
    208    C    -5.842    -2.459    5.614
    209    H    -5.990    -3.274    6.175
    210    N    -4.657    -2.572    4.732
    211    C    -4.703    -2.126    3.439
    212    H    -5.461    -1.711    2.935
    213    C    -3.507    -3.128    5.261
    214    O    -3.440    -3.534    6.416
    215    N    -2.425    -3.198    4.410
    216    H    -1.558    -3.607    4.786
    217    C    -2.386    -2.773    3.098
    218    O    -1.359    -2.884    2.438
    219    C    -3.626    -2.207    2.626
    220    H    -3.513    -1.924    1.673
    221    C    -5.844    -1.229    6.515
    222    H    -4.901    -0.921    6.638
    223    O    -6.521    -1.467    7.754
    224    H    -6.424    -2.355    8.105
    225    C    -6.591    -0.209    5.676
    226    H    -6.023    0.099    4.912
    227    O    -7.102    0.846    6.506
    228    P    -6.256    2.208    6.702
    229    O    -7.018    3.184    7.515
    230    O    -5.873    2.539    5.317
    231    O    -4.912    1.836    7.518
    232    C    -4.980    1.479    8.903
    233    H    -5.620    0.718    9.012
    234    H    -5.137    2.305    9.445
    235    C    -3.662    0.931    9.442
    236    H    -3.725    0.658    10.402
    237    O    -3.290    -0.190    8.669
    238    C    -1.859    -0.359    8.736
    239    H    -1.678    -1.165    9.300
    240    N    -1.369    -0.514    7.347
    241    C    -2.134    -0.112    6.287
    242    H    -3.050    0.288    6.279
    243    C    -0.109    -1.053    7.161
    244    O    0.594    -1.425    8.096
    245    N    0.319    -1.154    5.856
    246    H    1.255    -1.553    5.698
    247    C    -0.385    -0.772    4.733
    248    O    0.105    -0.905    3.617
    249    C    -1.691    -0.223    5.014
    250    H    -2.133    0.024    4.152
    251    C    -1.340    0.887    9.465
    252    H    -0.538    1.230    8.976
    253    O    -1.087    0.625    10.847
    254    H    -0.763    -0.258    11.039
    255    C    -2.484    1.878    9.297
    256    H    -2.478    2.250    8.369
    257    O    -2.452    2.909    10.300
    258    P    -1.716    4.317    10.009
    259    O    -1.872    5.217    11.176
    260    O    -2.153    4.802    8.680
    261    O    -0.144    3.983    9.889
    262    C    0.568    3.460    11.018
    263    H    0.094    2.646    11.354
    264    H    0.742    4.202    11.666
    265    C    1.957    2.955    10.651
    266    H    2.446    2.530    11.413
    267    O    1.831    1.994    9.578
    268    C    3.080    1.856    8.878
    269    H    3.530    1.015    9.179
    270    N    2.781    1.848    7.428
    271    C    1.601    2.344    6.952
    272    H    0.824    2.744    7.438
    273    C    1.339    2.343    5.634
    274    H    0.557    2.650    5.091
    275    C    3.743    1.330    6.573
    276    O    4.802    0.894    7.022
    277    N    3.487    1.326    5.239
    278    C    2.333    1.810    4.759
    279    N    2.117    1.797    3.449
    280    H    2.830    1.421    2.840
    281    H    1.255    2.156    3.065
    282    C    3.870    3.061    9.404
    283    H    4.290    3.503    8.612
    284    O    4.821    2.677    10.402
    285    H    5.185    1.795    10.297
    286    C    2.848    4.007    10.015
    287    H    2.333    4.481    9.300
    288    O    3.467    4.914    10.941
    289    P    3.892    6.396    10.470
    290    O    4.552    7.090    11.597
    291    O    2.735    7.055    9.817
    292    O    5.010    6.189    9.327
    293    C    6.272    5.581    9.637
    294    H    6.109    4.726    10.129
    295    H    6.865    6.263    10.065
    296    C    7.020    5.161    8.380
    297    H    7.881    4.684    8.558
    298    O    6.175    4.318    7.604
    299    C    6.518    4.453    6.211
    300    H    6.889    3.579    5.898
    301    N    5.279    4.836    5.495
    302    C    4.209    5.339    6.178
    303    H    4.097    5.525    7.154
    304    C    3.076    5.670    5.536
    305    H    2.200    6.043    5.841
    306    C    5.234    4.655    4.117
    307    O    6.211    4.211    3.520
    308    N    4.086    4.988    3.459
    309    C    3.033    5.480    4.123
    310    N    1.925    5.791    3.458
    311    H    1.900    5.649    2.458
    312    H    1.120    6.163    3.942
    313    C    7.634    5.499    6.204
    314    H    7.535    6.075    5.393
    315    O    8.930    4.906    6.318
    316    H    9.030    4.061    5.873
    317    C    7.295    6.318    7.437
    318    H    6.449    6.832    7.297
    319    O    8.407    7.119    7.856
    320    P    8.534    8.649    7.375
    321    O    9.697    9.262    8.054
    322    O    7.194    9.267    7.509
    323    O    8.878    8.548    5.809
    324    C    10.135    8.009    5.391
    325    H    10.223    7.078    5.744
    326    H    10.859    8.664    5.609
    327    C    10.219    7.847    3.882
    328    H    11.106    7.496    3.583
    329    O    9.188    6.953    3.435
    330    C    8.825    7.327    2.092
    331    H    9.071    6.562    1.497
    332    N    7.367    7.599    2.096
    333    C    6.719    7.895    3.260
    334    H    7.072    7.979    4.192
    335    C    5.395    8.129    3.270
    336    H    4.745    8.356    3.995
    337    C    6.685    7.530    0.886
    338    O    7.287    7.272    -0.153
    339    N    5.343    7.767    0.888
    340    C    4.698    8.058    2.027
    341    N    3.388    8.286    1.996
    342    H    2.904    8.235    1.111
    343    H    2.883    8.507    2.842
    344    C    9.697    8.533    1.739
    345    H    9.164    9.182    1.195
    346    O    10.919    8.150    1.103
    347    H    10.849    7.399    0.509
    348    C    9.931    9.120    3.120
    349    H    9.084    9.523    3.468
    350    O    11.125    9.901    3.117
    351    P    11.041    11.467    2.749
    352    O    12.398    12.032    2.891
    353    O    9.919    11.858    3.622
    354    O    10.579    11.527    1.209
    355    C    11.459    11.120    0.158
    356    H    11.704    10.160    0.292
    357    H    12.200    11.786    0.078
    358    C    10.754    11.157    -1.193
    359    H    11.348    10.864    -1.942
    360    O    9.592    10.316    -1.163
    361    C    8.635    10.823    -2.109
    362    H    8.599    10.170    -2.865
    363    N    7.343    10.941    -1.397
    364    C    7.311    11.020    -0.037
    365    H    8.059    11.030    0.627
    366    C    6.143    11.101    0.619
    367    H    5.905    11.166    1.588
    368    C    6.175    10.943    -2.149
    369    O    6.225    10.881    -3.375
    370    N    4.986    11.024    -1.491
    371    C    4.945    11.101    -0.154
    372    N    3.771    11.170    0.463
    373    H    2.927    11.163    -0.092
    374    H    3.720    11.229    1.470
    375    C    9.197    12.150    -2.623
    376    H    8.460    12.826    -2.635
    377    O    9.827    12.011    -3.899
    378    H    9.424    11.363    -4.482
    379    C    10.198    12.527    -1.539
    380    H    9.711    12.891    -0.745
    381    O    11.220    13.383    -2.057
    382    P    11.047    14.974    -1.910
    383    O    12.217    15.647    -2.514
    384    O    10.691    15.223    -0.496
    385    O    9.759    15.292    -2.820
    386    C    9.800    15.038    -4.228
    387    H    10.077    14.089    -4.380
    388    H    10.331    15.759    -4.673
    389    C    8.422    15.135    -4.867
    390    H    8.461    14.889    -5.835
    391    O    7.516    14.275    -4.210
    392    C    6.196    14.770    -4.491
    393    H    5.827    14.193    -5.219
    394    N    5.410    14.668    -3.243
    395    C    6.033    14.577    -2.028
    396    H    7.009    14.559    -1.812
    397    C    4.032    14.674    -3.348
    398    O    3.452    14.754    -4.427
    399    N    3.335    14.588    -2.161
    400    H    2.307    14.595    -2.217
    401    C    3.881    14.493    -0.899
    402    O    3.156    14.414    0.089
    403    C    5.326    14.493    -0.879
    404    H    5.638    14.425    0.068
    405    C    6.341    16.201    -5.015
    406    H    5.781    16.801    -4.443
    407    O    6.007    16.298    -6.405
    408    H    5.315    15.701    -6.698
    409    C    7.810    16.521    -4.779
    410    H    7.928    16.870    -3.849
    411    O    8.319    17.436    -5.763
    412    P    8.512    18.993    -5.391
    413    O    8.890    19.730    -6.618
    414    O    9.363    19.151    -4.187
    415    O    7.033    19.486    -4.984
    416    C    5.983    19.517    -5.959
    417    H    5.949    18.635    -6.429
    418    H    6.081    20.341    -6.517
    419    C    4.604    19.657    -5.319
    420    H    3.899    19.786    -6.017
    421    O    4.300    18.495    -4.564
    422    C    3.444    18.860    -3.462
    423    H    2.558    18.426    -3.624
    424    N    4.089    18.407    -2.213
    425    C    3.458    18.122    -1.023
    426    N    0.548    17.800    0.846
    427    H    0.198    17.568    1.765
    428    H    -0.142    18.037    0.148
    429    N    2.124    18.156    -0.799
    430    C    1.816    17.827    0.458
    431    N    2.745    17.495    1.410
    432    H    2.397    17.259    2.350
    433    C    4.111    17.452    1.207
    434    O    4.856    17.143    2.129
    435    C    4.453    17.798    -0.128
    436    N    5.701    17.875    -0.739
    437    C    5.416    18.234    -1.951
    438    H    6.264    18.316    -2.474
    439    C    3.277    20.372    -3.535
    440    H    3.348    20.742    -2.609
    441    O    2.057    20.743    -4.189
    442    H    1.320    20.146    -4.041
    443    C    4.491    20.815    -4.340
    444    H    5.299    20.823    -3.751
    445    O    4.278    22.087    -4.961
    446    P    4.959    23.387    -4.298
    447    O    4.597    24.566    -5.111
    448    O    6.390    23.107    -4.046
    449    O    4.245    23.534    -2.857
    450    C    4.806    24.316    -1.795
    451    H    4.795    25.280    -2.060
    452    H    5.681    23.915    -1.522
    453    C    3.946    24.254    -0.534
    454    H    4.434    24.654    0.242
    455    O    2.759    25.003    -0.771
    456    C    1.601    24.154    -0.675
    457    H    1.002    24.578    0.004
    458    N    0.974    24.106    -2.017
    459    C    1.653    23.614    -3.096
    460    H    2.576    23.235    -3.160
    461    C    1.084    23.587    -4.314
    462    H    1.399    23.277    -5.211
    463    C    -0.321    24.590    -2.142
    464    O    -0.916    25.023    -1.159
    465    N    -0.904    24.566    -3.374
    466    C    -0.245    24.087    -4.436
    467    N    -0.841    24.083    -5.626
    468    H    -1.782    24.443    -5.702
    469    H    -0.363    23.726    -6.441
    470    C    2.050    22.784    -0.158
    471    H    1.776    22.105    -0.839
    472    O    1.524    22.496    1.142
    473    H    0.664    22.881    1.326
    474    C    3.571    22.844    -0.102
    475    H    3.918    22.193    -0.778
    476    O    4.025    22.661    1.247
    477    P    3.929    21.211    1.957
    478    O    4.940    21.168    3.038
    479    O    3.957    20.210    0.869
    480    O    2.458    21.196    2.631
    481    C    2.110    22.086    3.711
    482    H    2.157    23.030    3.383
    483    H    2.647    21.843    4.519
    484    C    0.652    21.922    4.168
    485    H    0.497    22.441    5.009
    486    O    -0.205    22.430    3.143
    487    C    -1.209    21.469    2.809
    488    H    -2.050    21.786    3.247
    489    N    -1.349    21.429    1.341
    490    C    -2.151    21.650    -0.689
    491    N    -0.821    21.265    -0.837
    492    C    -0.413    21.149    0.389
    493    H    0.546    20.866    0.388
    494    N    -4.363    22.281    -1.127
    495    C    -4.565    22.339    0.189
    496    H    -5.439    22.584    0.608
    497    N    -3.679    22.092    1.150
    498    C    -2.481    21.748    0.632
    499    C    -3.160    21.940    -1.611
    500    N    -2.963    21.930    -2.926
    501    H    -3.727    22.181    -3.537
    502    H    -2.054    21.672    -3.283
    503    C    -0.815    20.134    3.405
    504    H    -0.378    19.597    2.683
    505    O    -1.939    19.477    3.996
    506    H    -2.779    19.643    3.563
    507    C    0.223    20.473    4.469
    508    H    1.005    19.866    4.329
    509    O    -0.384    20.362    5.767
    510    P    -0.853    18.936    6.379
    511    O    -0.769    18.995    7.857
    512    O    -0.159    17.825    5.682
    513    O    -2.421    18.834    5.994
    514    C    -3.435    18.501    6.962
    515    H    -3.402    19.164    7.710
    516    H    -3.359    17.531    7.193
    517    C    -4.846    18.646    6.387
    518    H    -5.521    18.247    7.008
    519    O    -5.132    20.042    6.222
    520    C    -5.542    20.291    4.872
    521    H    -6.542    20.263    4.858
    522    N    -5.057    21.644    4.456
    523    C    -3.950    22.201    5.051
    524    H    -3.372    21.837    5.782
    525    C    -5.737    22.323    3.445
    526    O    -6.723    21.866    2.879
    527    N    -5.231    23.556    3.095
    528    H    -5.725    24.069    2.351
    529    C    -4.128    24.175    3.640
    530    O    -3.767    25.276    3.233
    531    C    -3.478    23.414    4.679
    532    H    -2.692    23.931    5.018
    533    C    -4.997    19.118    4.042
    534    H    -4.043    19.306    3.809
    535    O    -5.796    18.880    2.876
    536    H    -6.178    19.666    2.479
    537    C    -5.047    17.957    5.043
    538    H    -4.268    17.355    4.866
    539    O    -6.353    17.361    5.008
    540    P    -6.656    16.044    4.120
    541    O    -8.033    15.591    4.429
    542    O    -5.505    15.143    4.338
    543    O    -6.620    16.581    2.596
    544    C    -7.638    17.459    2.088
    545    H    -7.598    18.326    2.585
    546    H    -8.510    16.970    2.069
    547    C    -7.369    17.833    0.631
    548    H    -8.128    18.376    0.271
    549    O    -6.145    18.591    0.501
    550    C    -5.782    18.529    -0.878
    551    H    -6.127    19.369    -1.297
    552    N    -4.313    18.458    -0.960
    553    C    -2.251    18.600    -1.689
    554    N    -2.165    18.169    -0.365
    555    C    -3.410    18.108    0.003
    556    H    -3.454    17.805    0.955
    557    N    -1.716    19.276    -3.866
    558    C    -3.020    19.408    -4.103
    559    H    -3.401    19.707    -4.978
    560    N    -4.014    19.177    -3.256
    561    C    -3.552    18.774    -2.055
    562    C    -1.287    18.871    -2.662
    563    N    0.016    18.744    -2.448
    564    H    0.658    18.956    -3.198
    565    H    0.336    18.439    -1.540
    566    C    -6.503    17.327    -1.502
    567    H    -5.815    16.714    -1.890
    568    O    -7.472    17.744    -2.474
    569    H    -7.236    18.532    -2.969
    570    C    -7.156    16.645    -0.294
    571    H    -6.499    16.019    0.126
    572    O    -8.415    16.091    -0.697
    573    P    -8.498    14.550    -1.165
    574    O    -9.876    14.257    -1.621
    575    O    -7.914    13.836    -0.013
    576    O    -7.497    14.420    -2.429
    577    C    -7.812    15.053    -3.674
    578    H    -8.016    16.017    -3.506
    579    H    -8.498    14.505    -4.154
    580    C    -6.625    15.087    -4.636
    581    H    -6.924    15.467    -5.511
    582    O    -5.556    15.914    -4.101
    583    C    -4.309    15.409    -4.623
    584    H    -3.958    16.116    -5.236
    585    N    -3.410    15.166    -3.478
    586    C    -1.628    14.871    -2.232
    587    N    -2.724    14.741    -1.382
    588    C    -3.732    14.921    -2.175
    589    H    -4.579    14.840    -1.649
    590    N    0.556    14.964    -3.075
    591    C    0.038    15.212    -4.279
    592    H    0.585    15.353    -5.104
    593    N    -1.251    15.314    -4.592
    594    C    -2.034    15.130    -3.509
    595    C    -0.251    14.789    -2.016
    596    N    0.280    14.564    -0.817
    597    H    1.285    14.529    -0.725
    598    H    -0.334    14.434    -0.026
    599    C    -4.609    14.142    -5.440
    600    H    -3.948    13.434    -5.191
    601    O    -4.639    14.413    -6.844
    602    H    -4.015    15.079    -7.142
    603    C    -5.985    13.741    -4.920
    604    H    -5.872    13.246    -4.058
    605    O    -6.710    12.993    -5.910
    606    P    -6.584    11.383    -5.939
    607    O    -7.494    10.849    -6.975
    608    O    -6.682    10.849    -4.561
    609    O    -5.077    11.124    -6.449
    610    C    -4.635    11.662    -7.701
    611    H    -4.822    12.644    -7.717
    612    H    -5.003    11.103    -8.444
    613    C    -3.123    11.563    -7.868
    614    H    -2.841    11.917    -8.760
    615    O    -2.448    12.308    -6.832
    616    C    -1.126    11.750    -6.704
    617    H    -0.504    12.387    -7.159
    618    N    -0.851    11.619    -5.257