!*** FMO 5.2 (Gamess) INPUT generated by Facio 21.1.1.32 ***
 $CONTRL RUNTYP=OPTFMO NPRINT=-5 ISPHER=-1 MAXIT=50 $END
 $SYSTEM MWORDS=29 $END
 $GDDI NGROUP=1 $END
 $INTGRL NINTIC=-9000000 $END
 $SCF DIRSCF=.FALSE. NPUNCH=0 $END
!*** NumCPU : 2  MemPerNode : 512MB
 $FMOPRP
    NAODIR=210
    NGRFMO(1)=1, 1, 0, 0, 0,   0, 0, 0, 0, 0
    NPRINT=9
 $END
 $FMO
      SCFTYP(1)=RHF
      MODGRD=10
      MODMUL=0
      MAXCAO=5
      MAXBND=34
      NLAYER=1
      NFRAG=32
      ICHARG(1)=-1, -1, -1, -1, -1, -1, -1, -1, -1, -1, 
-1, -1, -1, -1, -1, -1, -1, -1, -1, -1, 
-1, -1, -1, -1, -1, -1, -1, -1, -1, -1, 
-1, 0
      FRGNAM(1)=Frag1, Frag2, Frag3, Frag4, Frag5, Frag6, Frag7, Frag8, Frag9, Frag10, Frag11, Frag12, Frag13, Frag14, Frag15, Frag16, Frag17, Frag18, Frag19, Frag20, Frag21, Frag22, Frag23, Frag24, Frag25, Frag26, Frag27, Frag28, Frag29, Frag30, Frag31, Frag32
      indat(1)=0
               1   -36   0
               37   -69   0
               70   -103   0
               104   -134   0
               135   -167   0
               168   -201   0
               202   -231   0
               232   -261   0
               262   -292   0
               293   -323   0
               324   -354   0
               355   -385   0
               386   -415   0
               416   -449   0
               450   -480   0
               481   -513   0
               514   -543   0
               544   -576   0
               577   -609   0
               610   -643   0
               644   -677   0
               678   -710   0
               711   -740   0
               741   -774   0
               775   -807   0
               808   -840   0
               841   -871   0
               872   -902   0
               903   -936   0
               937   -966   0
               967   -996   0
               997   -1024   0
 $END

 $FMOBND
   -37   36       3-21G    MINI
   -70   69       3-21G    MINI
   -104   103       3-21G    MINI
   -135   134       3-21G    MINI
   -168   167       3-21G    MINI
   -202   201       3-21G    MINI
   -232   231       3-21G    MINI
   -262   261       3-21G    MINI
   -293   292       3-21G    MINI
   -324   323       3-21G    MINI
   -355   354       3-21G    MINI
   -386   385       3-21G    MINI
   -416   415       3-21G    MINI
   -450   449       3-21G    MINI
   -481   480       3-21G    MINI
   -514   513       3-21G    MINI
   -544   543       3-21G    MINI
   -577   576       3-21G    MINI
   -610   609       3-21G    MINI
   -644   643       3-21G    MINI
   -678   677       3-21G    MINI
   -711   710       3-21G    MINI
   -741   740       3-21G    MINI
   -775   774       3-21G    MINI
   -808   807       3-21G    MINI
   -841   840       3-21G    MINI
   -872   871       3-21G    MINI
   -903   902       3-21G    MINI
   -937   936       3-21G    MINI
   -967   966       3-21G    MINI
   -997   996       3-21G    MINI
 $END
 $FMOHYB
 3-21G        9   5
   1 0  -0.070459   0.164841   0.000000   0.000000   0.502116
         0.466939   0.000000   0.000000   0.418036
   0 1  -0.070465   0.164857   0.473392   0.000000  -0.167359
         0.466967   0.394111   0.000000  -0.139327
   0 1  -0.070465   0.164857  -0.236695  -0.409969  -0.167359
         0.466967  -0.197055  -0.341311  -0.139327
   0 1  -0.070465   0.164857  -0.236695   0.409969  -0.167359
         0.466967  -0.197055   0.341311  -0.139327
   0 1   1.006716   0.074826   0.000000   0.000000   0.000000
        -0.143830   0.000000   0.000000  -0.000003
 MINI         5   5
   1 0  -0.104883   0.308874   0.000000   0.000000   0.521806
   0 1  -0.104883   0.308874   0.491961   0.000000  -0.173934
   0 1  -0.104883   0.308876  -0.245980  -0.426050  -0.173933
   0 1  -0.104883   0.308876  -0.245980   0.426050  -0.173933
   0 1   0.988209   0.063992   0.000000   0.000000   0.000000
 $END

 $DATA
 FMO calculation : XXNAMEXX
 C1 
 C.1-1    6
      N21 3
   
 O.1-1    8
      N21 3
   
 N.1-1    7
      N21 3
   
 H.1-1    1
      N21 3
   
 P.1-1   15
      N21 3
   
 $END
 $FMOXYZ
    1    H    8.130    -14.862    -12.494
    2    O    7.181    -15.152    -12.369
    3    C    6.864    -16.148    -13.350
    4    H    7.421    -16.961    -13.180
    5    H    6.904    -15.734    -14.259
    6    C    5.423    -16.656    -13.237
    7    H    5.169    -17.272    -13.982
    8    O    5.216    -17.316    -12.003
    9    C    3.792    -17.341    -11.751
    10    H    3.455    -18.206    -12.124
    11    N    3.583    -17.237    -10.291
    12    C    2.459    -17.629    -9.600
    13    N    -0.713    -19.038    -9.563
    14    H    -1.480    -19.286    -8.955
    15    H    -0.829    -19.248    -10.544
    16    N    1.354    -18.198    -10.138
    17    C    0.430    -18.466    -9.212
    18    N    0.584    -18.196    -7.877
    19    H    -0.194    -18.446    -7.250
    20    C    1.699    -17.616    -7.304
    21    O    1.731    -17.414    -6.093
    22    C    2.694    -17.324    -8.278
    23    N    3.952    -16.747    -8.125
    24    C    4.417    -16.725    -9.336
    25    H    5.331    -16.320    -9.326
    26    C    3.162    -16.186    -12.527
    27    H    2.740    -15.547    -11.884
    28    O    2.230    -16.624    -13.524
    29    H    1.718    -17.401    -13.287
    30    C    4.395    -15.539    -13.129
    31    H    4.724    -14.856    -12.477
    32    O    4.087    -14.831    -14.331
    33    P    3.705    -13.263    -14.249
    34    O    3.605    -12.807    -15.647
    35    O    4.620    -12.603    -13.300
    36    O    2.255    -13.266    -13.561
    37    C    1.161    -13.913    -14.215
    38    H    1.386    -14.878    -14.348
    39    H    0.899    -13.378    -15.018
    40    C    -0.122    -13.959    -13.384
    41    H    -0.895    -14.361    -13.875
    42    O    0.144    -14.747    -12.196
    43    C    -0.930    -14.466    -11.267
    44    H    -1.669    -15.104    -11.482
    45    N    -0.453    -14.614    -9.878
    46    C    -0.354    -15.071    -7.732
    47    N    0.880    -14.521    -8.068
    48    C    0.755    -14.272    -9.336
    49    H    1.603    -13.863    -9.673
    50    N    -2.133    -16.024    -6.540
    51    C    -2.837    -16.029    -7.674
    52    H    -3.775    -16.368    -7.747
    53    N    -2.437    -15.601    -8.869
    54    C    -1.173    -15.131    -8.822
    55    C    -0.877    -15.549    -6.528
    56    N    -0.187    -15.554    -5.391
    57    H    -0.623    -15.917    -4.555
    58    H    0.757    -15.195    -5.390
    59    C    -1.403    -13.047    -11.547
    60    H    -1.168    -12.472    -10.763
    61    O    -2.794    -12.962    -11.856
    62    H    -3.350    -13.599    -11.401
    63    C    -0.550    -12.641    -12.729
    64    H    0.260    -12.177    -12.370
    65    O    -1.144    -11.550    -13.448
    66    P    -1.343    -10.040    -12.853
    67    O    -1.639    -9.174    -14.008
    68    O    -0.302    -9.656    -11.894
    69    O    -2.621    -10.294    -11.937
    70    C    -3.683    -10.927    -12.634
    71    H    -3.332    -11.747    -13.086
    72    H    -4.155    -10.247    -13.196
    73    C    -4.745    -11.440    -11.687
    74    H    -5.524    -11.886    -12.127
    75    O    -4.152    -12.348    -10.760
    76    C    -5.095    -12.574    -9.684
    77    H    -5.620    -13.400    -9.889
    78    N    -4.326    -12.715    -8.428
    79    C    -4.831    -13.089    -7.204
    80    N    -7.510    -14.084    -5.233
    81    H    -7.769    -14.339    -4.291
    82    H    -8.248    -14.100    -5.923
    83    N    -6.118    -13.420    -6.943
    84    C    -6.307    -13.731    -5.662
    85    N    -5.313    -13.720    -4.717
    86    H    -5.571    -13.983    -3.755
    87    C    -3.994    -13.384    -4.953
    88    O    -3.184    -13.405    -4.031
    89    C    -3.776    -13.048    -6.318
    90    N    -2.608    -12.656    -6.970
    91    C    -2.999    -12.479    -8.195
    92    H    -2.217    -12.193    -8.748
    93    C    -6.023    -11.354    -9.787
    94    H    -6.120    -10.941    -8.881
    95    O    -7.292    -11.702    -10.353
    96    H    -7.613    -12.576    -10.121
    97    C    -5.208    -10.422    -10.672
    98    H    -4.414    -10.074    -10.174
    99    O    -5.732    -9.171    -11.135
    100    P    -5.368    -7.684    -10.578
    101    O    -6.056    -6.715    -11.448
    102    O    -3.938    -7.524    -10.290
    103    O    -6.063    -7.786    -9.150
    104    C    -7.445    -8.101    -9.183
    105    H    -7.569    -8.975    -9.653
    106    H    -7.951    -7.309    -9.525
    107    C    -7.984    -8.332    -7.789
    108    H    -8.978    -8.437    -7.819
    109    O    -7.401    -9.544    -7.291
    110    C    -7.532    -9.522    -5.856
    111    H    -8.228    -10.200    -5.619
    112    N    -6.229    -9.876    -5.246
    113    C    -5.058    -9.652    -5.913
    114    H    -4.902    -9.311    -6.840
    115    C    -3.871    -9.893    -5.329
    116    H    -2.924    -9.798    -5.635
    117    C    -6.227    -10.369    -3.947
    118    O    -7.288    -10.582    -3.366
    119    N    -5.031    -10.614    -3.347
    120    C    -3.880    -10.390    -3.993
    121    N    -2.727    -10.607    -3.370
    122    H    -2.742    -10.938    -2.416
    123    H    -1.848    -10.444    -3.840
    124    C    -8.047    -8.124    -5.479
    125    H    -7.540    -7.787    -4.686
    126    O    -9.452    -8.160    -5.211
    127    H    -9.764    -8.965    -4.792
    128    C    -7.634    -7.329    -6.704
    129    H    -6.644    -7.187    -6.699
    130    O    -7.800    -5.897    -6.842
    131    P    -6.990    -4.558    -6.364
    132    O    -7.596    -3.334    -6.909
    133    O    -5.542    -4.683    -6.433
    134    O    -7.273    -4.625    -4.811
    135    C    -8.659    -4.722    -4.513
    136    H    -9.045    -5.499    -5.010
    137    H    -9.083    -3.826    -4.641
    138    C    -8.891    -5.049    -3.053
    139    H    -9.864    -5.043    -2.822
    140    O    -8.337    -6.377    -2.758
    141    C    -8.186    -6.410    -1.324
    142    H    -8.930    -6.977    -0.970
    143    N    -6.868    -7.009    -1.022
    144    C    -5.210    -8.050    -0.021
    145    N    -4.736    -7.688    -1.280
    146    C    -5.754    -7.082    -1.813
    147    H    -5.507    -6.778    -2.733
    148    N    -5.366    -8.915    2.149
    149    C    -6.620    -8.468    2.195
    150    H    -7.222    -8.579    2.985
    151    N    -7.277    -7.818    1.237
    152    C    -6.502    -7.641    0.147
    153    C    -4.621    -8.726    1.051
    154    N    -3.372    -9.181    1.024
    155    H    -3.008    -9.662    1.834
    156    H    -2.816    -9.035    0.194
    157    C    -8.371    -4.971    -0.820
    158    H    -7.638    -4.767    -0.171
    159    O    -9.662    -4.779    -0.233
    160    H    -10.020    -5.547    0.219
    161    C    -8.166    -4.137    -2.077
    162    H    -7.197    -4.103    -2.322
    163    O    -8.587    -2.759    -2.013
    164    P    -7.697    -1.489    -1.516
    165    O    -8.506    -0.267    -1.657
    166    O    -6.332    -1.497    -2.057
    167    O    -7.557    -1.835    0.033
    168    C    -8.770    -2.062    0.741
    169    H    -9.395    -2.581    0.158
    170    H    -9.093    -1.195    1.119
    171    C    -8.563    -2.949    1.955
    172    H    -9.430    -3.277    2.331
    173    O    -7.764    -4.063    1.600
    174    C    -7.229    -4.620    2.816
    175    H    -7.780    -5.422    3.048
    176    N    -5.816    -4.965    2.556
    177    C    -4.977    -5.647    3.407
    178    N    -4.409    -7.247    6.436
    179    H    -3.707    -7.736    6.973
    180    H    -5.313    -7.136    6.872
    181    N    -5.298    -6.112    4.637
    182    C    -4.271    -6.735    5.221
    183    N    -3.038    -6.885    4.642
    184    H    -2.317    -7.382    5.184
    185    C    -2.685    -6.421    3.387
    186    O    -1.553    -6.619    2.956
    187    C    -3.770    -5.754    2.753
    188    N    -3.836    -5.145    1.502
    189    C    -5.056    -4.705    1.452
    190    H    -5.200    -4.244    0.576
    191    C    -7.449    -3.538    3.880
    192    H    -6.583    -3.394    4.358
    193    O    -8.523    -3.869    4.766
    194    H    -8.628    -4.807    4.942
    195    C    -7.782    -2.293    3.073
    196    H    -6.947    -1.892    2.695
    197    O    -8.622    -1.399    3.816
    198    P    -7.994    -0.122    4.574
    199    O    -9.107    0.739    5.030
    200    O    -6.915    0.449    3.736
    201    O    -7.324    -0.808    5.865
    202    C    -8.148    -1.434    6.855
    203    H    -8.738    -2.107    6.409
    204    H    -8.583    -0.726    7.412
    205    C    -7.319    -2.245    7.844
    206    H    -7.881    -2.670    8.554
    207    O    -6.656    -3.254    7.119
    208    C    -5.441    -3.606    7.805
    209    H    -5.534    -4.546    8.132
    210    N    -4.319    -3.451    6.847
    211    C    -4.459    -2.674    5.729
    212    H    -5.256    -2.163    5.407
    213    C    -3.126    -4.092    7.131
    214    O    -2.972    -4.792    8.125
    215    N    -2.104    -3.893    6.226
    216    H    -1.207    -4.360    6.422
    217    C    -2.162    -3.129    5.080
    218    O    -1.183    -3.024    4.351
    219    C    -3.441    -2.497    4.858
    220    H    -3.399    -1.964    4.013
    221    C    -5.402    -2.664    9.005
    222    H    -4.454    -2.382    9.149
    223    O    -5.981    -3.266    10.167
    224    H    -5.853    -4.215    10.238
    225    C    -6.210    -1.464    8.543
    226    H    -5.705    -0.935    7.861
    227    O    -6.625    -0.628    9.641
    228    P    -5.918    0.800    9.956
    229    O    -6.676    1.554    10.973
    230    O    -5.620    1.456    8.669
    231    O    -4.521    0.395    10.640
    232    C    -4.477    -0.183    11.947
    233    H    -5.034    -1.013    11.955
    234    H    -4.681    0.525    12.623
    235    C    -3.083    -0.668    12.327
    236    H    -3.063    -1.085    13.236
    237    O    -2.730    -1.645    11.363
    238    C    -1.294    -1.753    11.298
    239    H    -1.032    -2.639    11.680
    240    N    -0.882    -1.662    9.872
    241    C    -1.719    -1.110    8.939
    242    H    -2.651    -0.766    9.051
    243    C    0.388    -2.092    9.520
    244    O    1.160    -2.598    10.329
    245    N    0.747    -1.922    8.199
    246    H    1.689    -2.234    7.923
    247    C    -0.035    -1.372    7.205
    248    O    0.395    -1.265    6.061
    249    C    -1.344    -0.955    7.648
    250    H    -1.844    -0.573    6.871
    251    C    -0.796    -0.636    12.235
    252    H    -0.005    -0.197    11.808
    253    O    -0.443    -1.192    13.504
    254    H    -0.093    -2.085    13.472
    255    C    -1.958    0.348    12.255
    256    H    -2.018    0.840    11.386
    257    O    -1.947    1.518    13.126
    258    P    -1.622    3.097    12.838
    259    O    -1.874    3.961    14.000
    260    O    -2.173    3.544    11.567
    261    O    -0.049    3.103    12.648
    262    C    0.773    2.706    13.742
    263    H    0.455    1.822    14.084
    264    H    0.839    3.464    14.391
    265    C    2.203    2.454    13.302
    266    H    2.782    2.102    14.038
    267    O    2.163    1.483    12.229
    268    C    3.391    1.512    11.479
    269    H    3.945    0.717    11.726
    270    N    3.059    1.480    10.031
    271    C    1.822    1.857    9.588
    272    H    1.016    2.149    10.103
    273    C    1.533    1.876    8.274
    274    H    0.711    2.114    7.757
    275    C    4.052    1.103    9.133
    276    O    5.163    0.770    9.543
    277    N    3.769    1.119    7.802
    278    C    2.560    1.489    7.362
    279    N    2.318    1.502    6.056
    280    H    3.055    1.231    5.420
    281    H    1.413    1.778    5.702
    282    C    4.058    2.781    12.041
    283    H    4.463    3.277    11.273
    284    O    5.062    2.421    12.996
    285    H    5.499    1.583    12.828
    286    C    2.908    3.603    12.611
    287    H    2.320    3.954    11.882
    288    O    3.102    4.887    13.260
    289    P    2.940    6.432    12.753
    290    O    3.292    7.386    13.811
    291    O    1.693    6.670    12.033
    292    O    4.057    6.512    11.633
    293    C    5.395    6.228    12.027
    294    H    5.406    5.378    12.553
    295    H    5.791    7.044    12.447
    296    C    6.266    5.950    10.819
    297    H    7.198    5.679    11.061
    298    O    5.649    4.892    10.086
    299    C    6.044    4.995    8.705
    300    H    6.582    4.185    8.472
    301    N    4.808    5.079    7.885
    302    C    3.617    5.416    8.461
    303    H    3.402    5.631    9.414
    304    C    2.493    5.502    7.729
    305    H    1.545    5.727    7.953
    306    C    4.895    4.815    6.520
    307    O    5.976    4.522    6.016
    308    N    3.758    4.899    5.770
    309    C    2.588    5.230    6.331
    310    N    1.495    5.298    5.579
    311    H    1.568    5.097    4.592
    312    H    0.604    5.546    5.985
    313    C    6.959    6.223    8.689
    314    H    6.856    6.698    7.815
    315    O    8.320    5.852    8.926
    316    H    8.579    5.004    8.558
    317    C    6.338    7.070    9.789
    318    H    5.409    7.354    9.551
    319    O    6.955    8.334    10.126
    320    P    6.663    9.836    9.562
    321    O    7.495    10.823    10.266
    322    O    5.237    10.140    9.422
    323    O    7.215    9.730    8.080
    324    C    8.588    9.395    7.927
    325    H    8.776    8.552    8.431
    326    H    9.145    10.199    8.135
    327    C    8.927    9.061    6.489
    328    H    9.898    8.834    6.422
    329    O    8.151    7.930    6.060
    330    C    7.989    8.039    4.636
    331    H    8.449    7.252    4.225
    332    N    6.531    8.052    4.364
    333    C    5.645    8.394    5.344
    334    H    5.805    8.669    6.292
    335    C    4.322    8.395    5.105
    336    H    3.524    8.606    5.669
    337    C    6.100    7.696    3.091
    338    O    6.914    7.401    2.219
    339    N    4.761    7.696    2.840
    340    C    3.883    8.030    3.798
    341    N    2.581    8.022    3.522
    342    H    2.281    7.763    2.593
    343    H    1.903    8.270    4.228
    344    C    8.728    9.319    4.227
    345    H    8.205    9.769    3.504
    346    O    10.087    9.059    3.864
    347    H    10.236    8.217    3.427
    348    C    8.662    10.167    5.487
    349    H    7.736    10.519    5.627
    350    O    9.760    11.095    5.502
    351    P    9.748    12.477    4.663
    352    O    11.038    13.177    4.855
    353    O    8.484    13.153    5.044
    354    O    9.659    12.080    3.100
    355    C    10.758    11.523    2.363
    356    H    11.040    10.667    2.796
    357    H    11.452    12.231    2.228
    358    C    10.338    11.121    0.952
    359    H    11.102    10.681    0.479
    360    O    9.229    10.214    0.992
    361    C    8.489    10.355    -0.231
    362    H    8.634    9.516    -0.756
    363    N    7.075    10.561    0.151
    364    C    6.755    11.018    1.395
    365    H    7.345    11.280    2.159
    366    C    5.474    11.180    1.758
    367    H    5.036    11.493    2.600
    368    C    6.093    10.254    -0.781
    369    O    6.402    9.853    -1.901
    370    N    4.790    10.415    -0.420
    371    C    4.466    10.861    0.801
    372    N    3.188    11.001    1.129
    373    H    2.481    10.767    0.447
    374    H    2.924    11.336    2.045
    375    C    9.114    11.530    -0.986
    376    H    8.373    12.111    -1.324
    377    O    10.003    11.092    -2.017
    378    H    9.752    10.271    -2.447
    379    C    9.886    12.285    0.090
    380    H    9.258    12.857    0.618
    381    O    11.069    12.828    -0.511
    382    P    10.989    14.254    -1.253
    383    O    12.301    14.574    -1.879
    384    O    10.428    15.101    -0.172
    385    O    9.893    14.076    -2.435
    386    C    10.170    13.374    -3.658
    387    H    10.452    12.440    -3.440
    388    H    10.782    13.930    -4.221
    389    C    8.915    13.207    -4.507
    390    H    9.103    12.633    -5.304
    391    O    7.892    12.609    -3.741
    392    C    6.649    12.936    -4.383
    393    H    6.380    12.128    -4.908
    394    N    5.672    13.263    -3.322
    395    C    6.091    13.626    -2.072
    396    H    7.020    13.711    -1.712
    397    C    4.329    13.195    -3.641
    398    O    3.929    12.871    -4.755
    399    N    3.450    13.520    -2.628
    400    H    2.444    13.481    -2.846
    401    C    3.787    13.894    -1.344
    402    O    2.913    14.152    -0.522
    403    C    5.210    13.939    -1.096
    404    H    5.367    14.221    -0.150
    405    C    6.922    14.090    -5.350
    406    H    6.299    14.838    -5.121
    407    O    6.813    13.677    -6.718
    408    H    6.160    12.994    -6.884
    409    C    8.347    14.516    -5.028
    410    H    8.336    15.185    -4.285
    411    O    9.003    14.927    -6.238
    412    P    9.154    16.492    -6.600
    413    O    9.684    16.636    -7.976
    414    O    9.875    17.121    -5.470
    415    O    7.636    17.035    -6.610
    416    C    6.719    16.701    -7.661
    417    H    6.704    15.708    -7.777
    418    H    6.923    17.263    -8.462
    419    C    5.281    17.065    -7.295
    420    H    4.666    16.920    -8.070
    421    O    4.847    16.266    -6.205
    422    C    3.885    17.008    -5.428
    423    H    3.007    16.538    -5.523
    424    N    4.364    17.057    -4.031
    425    C    3.588    17.234    -2.906
    426    N    0.473    17.613    -1.418
    427    H    0.011    17.738    -0.528
    428    H    -0.123    17.568    -2.232
    429    N    2.241    17.340    -2.874
    430    C    1.777    17.502    -1.632
    431    N    2.577    17.555    -0.520
    432    H    2.114    17.684    0.391
    433    C    3.955    17.449    -0.526
    434    O    4.575    17.511    0.528
    435    C    4.461    17.274    -1.841
    436    N    5.772    17.125    -2.281
    437    C    5.644    17.004    -3.564
    438    H    6.550    16.891    -3.972
    439    C    3.784    18.381    -6.074
    440    H    3.759    19.070    -5.350
    441    O    2.663    18.473    -6.964
    442    H    1.891    17.968    -6.698
    443    C    5.101    18.502    -6.829
    444    H    5.834    18.731    -6.189
    445    O    4.976    19.443    -7.900
    446    P    5.615    20.913    -7.730
    447    O    5.350    21.687    -8.959
    448    O    7.003    20.737    -7.253
    449    O    4.758    21.552    -6.525
    450    C    5.247    22.670    -5.785
    451    H    5.294    23.465    -6.389
    452    H    6.079    22.401    -5.300
    453    C    4.282    23.089    -4.680
    454    H    4.726    23.745    -4.070
    455    O    3.149    23.707    -5.280
    456    C    1.955    22.958    -4.994
    457    H    1.315    23.604    -4.578
    458    N    1.450    22.422    -6.279
    459    C    2.203    21.565    -7.030
    460    H    3.112    21.186    -6.859
    461    C    1.745    21.094    -8.204
    462    H    2.127    20.474    -8.890
    463    C    0.192    22.832    -6.699
    464    O    -0.471    23.599    -6.006
    465    N    -0.278    22.359    -7.888
    466    C    0.454    21.519    -8.631
    467    N    -0.033    21.081    -9.789
    468    H    -0.947    21.393    -10.083
    469    H    0.501    20.447    -10.366
    470    C    2.303    21.872    -3.970
    471    H    2.069    20.991    -4.380
    472    O    1.651    22.084    -2.713
    473    H    0.792    22.510    -2.769
    474    C    3.813    21.949    -3.789
    475    H    4.195    21.090    -4.131
    476    O    4.123    22.294    -2.431
    477    P    3.932    21.192    -1.265
    478    O    4.835    21.547    -0.144
    479    O    4.031    19.861    -1.910
    480    O    2.400    21.411    -0.777
    481    C    1.963    22.611    -0.100
    482    H    2.050    23.387    -0.725
    483    H    2.421    22.670    0.787
    484    C    0.467    22.600    0.262
    485    H    0.231    23.370    0.854
    486    O    -0.268    22.709    -0.959
    487    C    -1.259    21.682    -1.039
    488    H    -2.131    22.121    -0.822
    489    N    -1.267    21.130    -2.408
    490    C    -1.876    20.618    -4.453
    491    N    -0.545    20.222    -4.333
    492    C    -0.254    20.546    -3.111
    493    H    0.695    20.291    -2.924
    494    N    -4.023    21.030    -5.288
    495    C    -4.344    21.542    -4.100
    496    H    -5.248    21.908    -3.877
    497    N    -3.555    21.657    -3.035
    498    C    -2.322    21.168    -3.286
    499    C    -2.789    20.556    -5.508
    500    N    -2.473    20.090    -6.713
    501    H    -3.172    20.103    -7.442
    502    H    -1.541    19.734    -6.872
    503    C    -0.955    20.641    0.017
    504    H    -0.468    19.891    -0.431
    505    O    -2.142    20.220    0.691
    506    H    -2.936    20.221    0.152
    507    C    -0.013    21.330    0.994
    508    H    0.768    20.722    1.138
    509    O    -0.724    21.615    2.212
    510    P    -1.272    20.465    3.223
    511    O    -1.304    21.022    4.591
    512    O    -0.523    19.215    2.987
    513    O    -2.793    20.215    2.753
    514    C    -3.883    20.215    3.689
    515    H    -3.898    21.091    4.171
    516    H    -3.842    19.379    4.237
    517    C    -5.233    20.143    2.972
    518    H    -5.956    19.975    3.642
    519    O    -5.480    21.400    2.323
    520    C    -5.761    21.175    0.936
    521    H    -6.756    21.136    0.839
    522    N    -5.209    22.313    0.135
    523    C    -4.147    23.046    0.607
    524    H    -3.646    22.954    1.468
    525    C    -5.780    22.605    -1.104
    526    O    -6.723    21.977    -1.571
    527    N    -5.215    23.652    -1.800
    528    H    -5.629    23.880    -2.715
    529    C    -4.150    24.427    -1.397
    530    O    -3.727    25.328    -2.115
    531    C    -3.614    24.066    -0.107
    532    H    -2.849    24.673    0.109
    533    C    -5.172    19.795    0.605
    534    H    -4.194    19.897    0.422
    535    O    -5.871    19.174    -0.482
    536    H    -6.188    19.778    -1.158
    537    C    -5.357    19.041    1.928
    538    H    -4.595    18.402    2.037
    539    O    -6.678    18.474    1.960
    540    P    -6.933    16.931    1.551
    541    O    -8.346    16.600    1.852
    542    O    -5.845    16.124    2.152
    543    O    -6.753    16.920    -0.057
    544    C    -7.699    17.559    -0.933
    545    H    -7.689    18.544    -0.761
    546    H    -8.575    17.081    -0.870
    547    C    -7.286    17.418    -2.398
    548    H    -8.000    17.809    -2.979
    549    O    -6.037    18.102    -2.660
    550    C    -5.552    17.581    -3.896
    551    H    -5.838    18.226    -4.604
    552    N    -4.084    17.496    -3.808
    553    C    -1.961    17.398    -4.341
    554    N    -2.009    17.441    -2.948
    555    C    -3.283    17.499    -2.701
    556    H    -3.421    17.535    -1.711
    557    N    -1.210    17.303    -6.557
    558    C    -2.483    17.338    -6.949
    559    H    -2.774    17.321    -7.905
    560    N    -3.556    17.400    -6.172
    561    C    -3.218    17.429    -4.868
    562    C    -0.904    17.332    -5.252
    563    N    0.369    17.295    -4.885
    564    H    1.083    17.246    -5.598
    565    H    0.596    17.317    -3.901
    566    C    -6.242    16.232    -4.141
    567    H    -5.532    15.532    -4.219
    568    O    -7.105    16.289    -5.285
    569    H    -6.806    16.868    -5.990
    570    C    -7.045    15.987    -2.859
    571    H    -6.467    15.522    -2.189
    572    O    -8.272    15.346    -3.238
    573    P    -8.367    13.735    -3.193
    574    O    -9.689    13.312    -3.716
    575    O    -7.962    13.366    -1.816
    576    O    -7.237    13.207    -4.229
    577    C    -7.382    13.343    -5.651
    578    H    -7.575    14.300    -5.869
    579    H    -8.022    12.649    -5.981
    580    C    -6.091    13.046    -6.417
    581    H    -6.268    13.100    -7.400
    582    O    -5.067    14.018    -6.066
    583    C    -3.782    13.380    -6.222
    584    H    -3.333    13.839    -6.988
    585    N    -3.034    13.553    -4.962
    586    C    -1.425    13.714    -3.477
    587    N    -2.619    13.873    -2.777
    588    C    -3.519    13.764    -3.703
    589    H    -4.425    13.861    -3.290
    590    N    0.846    13.532    -4.022
    591    C    0.485    13.350    -5.294
    592    H    1.132    13.205    -6.043
    593    N    -0.753    13.329    -5.781
    594    C    -1.667    13.518    -4.806
    595    C    -0.088    13.721    -3.076
    596    N    0.287    13.923    -1.816
    597    H    1.272    13.930    -1.594
    598    H    -0.422    14.064    -1.111
    599    C    -4.024    11.909    -6.593
    600    H    -3.418    11.335    -6.042
    601    O    -3.875    11.687    -7.998
    602    H    -3.200    12.221    -8.423
    603    C    -5.462    11.691    -6.139
    604    H    -5.468    11.526    -5.153
    605    O    -6.078    10.641    -6.905
    606    P    -5.962    9.089    -6.461
    607    O    -6.718    8.260    -7.422
    608    O    -6.268    8.994    -5.020
    609    O    -4.401    8.754    -6.658
    610    C    -3.768    8.879    -7.937
    611    H    -3.921    9.803    -8.287
    612    H    -4.042    8.109    -8.513
    613    C    -2.251    8.758    -7.843
    614    H    -1.823    8.821    -8.745
    615    O    -1.726    9.803    -7.000