!*** FMO 5.2 (Gamess) INPUT generated by Facio 21.1.1.32 ***
 $CONTRL RUNTYP=OPTFMO NPRINT=-5 ISPHER=-1 MAXIT=50 $END
 $SYSTEM MWORDS=29 $END
 $GDDI NGROUP=1 $END
 $INTGRL NINTIC=-9000000 $END
 $SCF DIRSCF=.FALSE. NPUNCH=0 $END
!*** NumCPU : 2  MemPerNode : 512MB
 $FMOPRP
    NAODIR=210
    NGRFMO(1)=1, 1, 0, 0, 0,   0, 0, 0, 0, 0
    NPRINT=9
 $END
 $FMO
      SCFTYP(1)=RHF
      MODGRD=10
      MODMUL=0
      MAXCAO=5
      MAXBND=34
      NLAYER=1
      NFRAG=32
      ICHARG(1)=-1, -1, -1, -1, -1, -1, -1, -1, -1, -1, 
-1, -1, -1, -1, -1, -1, -1, -1, -1, -1, 
-1, -1, -1, -1, -1, -1, -1, -1, -1, -1, 
-1, 0
      FRGNAM(1)=Frag1, Frag2, Frag3, Frag4, Frag5, Frag6, Frag7, Frag8, Frag9, Frag10, Frag11, Frag12, Frag13, Frag14, Frag15, Frag16, Frag17, Frag18, Frag19, Frag20, Frag21, Frag22, Frag23, Frag24, Frag25, Frag26, Frag27, Frag28, Frag29, Frag30, Frag31, Frag32
      indat(1)=0
               1   -36   0
               37   -69   0
               70   -103   0
               104   -134   0
               135   -167   0
               168   -201   0
               202   -231   0
               232   -261   0
               262   -292   0
               293   -323   0
               324   -354   0
               355   -385   0
               386   -415   0
               416   -449   0
               450   -480   0
               481   -513   0
               514   -543   0
               544   -576   0
               577   -609   0
               610   -643   0
               644   -677   0
               678   -710   0
               711   -740   0
               741   -774   0
               775   -807   0
               808   -840   0
               841   -871   0
               872   -902   0
               903   -936   0
               937   -966   0
               967   -996   0
               997   -1024   0
 $END

 $FMOBND
   -37   36       3-21G    MINI
   -70   69       3-21G    MINI
   -104   103       3-21G    MINI
   -135   134       3-21G    MINI
   -168   167       3-21G    MINI
   -202   201       3-21G    MINI
   -232   231       3-21G    MINI
   -262   261       3-21G    MINI
   -293   292       3-21G    MINI
   -324   323       3-21G    MINI
   -355   354       3-21G    MINI
   -386   385       3-21G    MINI
   -416   415       3-21G    MINI
   -450   449       3-21G    MINI
   -481   480       3-21G    MINI
   -514   513       3-21G    MINI
   -544   543       3-21G    MINI
   -577   576       3-21G    MINI
   -610   609       3-21G    MINI
   -644   643       3-21G    MINI
   -678   677       3-21G    MINI
   -711   710       3-21G    MINI
   -741   740       3-21G    MINI
   -775   774       3-21G    MINI
   -808   807       3-21G    MINI
   -841   840       3-21G    MINI
   -872   871       3-21G    MINI
   -903   902       3-21G    MINI
   -937   936       3-21G    MINI
   -967   966       3-21G    MINI
   -997   996       3-21G    MINI
 $END
 $FMOHYB
 3-21G        9   5
   1 0  -0.070459   0.164841   0.000000   0.000000   0.502116
         0.466939   0.000000   0.000000   0.418036
   0 1  -0.070465   0.164857   0.473392   0.000000  -0.167359
         0.466967   0.394111   0.000000  -0.139327
   0 1  -0.070465   0.164857  -0.236695  -0.409969  -0.167359
         0.466967  -0.197055  -0.341311  -0.139327
   0 1  -0.070465   0.164857  -0.236695   0.409969  -0.167359
         0.466967  -0.197055   0.341311  -0.139327
   0 1   1.006716   0.074826   0.000000   0.000000   0.000000
        -0.143830   0.000000   0.000000  -0.000003
 MINI         5   5
   1 0  -0.104883   0.308874   0.000000   0.000000   0.521806
   0 1  -0.104883   0.308874   0.491961   0.000000  -0.173934
   0 1  -0.104883   0.308876  -0.245980  -0.426050  -0.173933
   0 1  -0.104883   0.308876  -0.245980   0.426050  -0.173933
   0 1   0.988209   0.063992   0.000000   0.000000   0.000000
 $END

 $DATA
 FMO calculation : XXNAMEXX
 C1 
 C.1-1    6
      N21 3
   
 O.1-1    8
      N21 3
   
 N.1-1    7
      N21 3
   
 H.1-1    1
      N21 3
   
 P.1-1   15
      N21 3
   
 $END
 $FMOXYZ
    1    H    6.766    -23.902    -12.911
    2    O    5.877    -24.017    -12.468
    3    C    5.320    -25.280    -12.859
    4    H    5.898    -26.015    -12.504
    5    H    5.134    -25.264    -13.841
    6    C    3.950    -25.548    -12.227
    7    H    3.505    -26.373    -12.576
    8    O    4.069    -25.649    -10.820
    9    C    2.760    -25.425    -10.243
    10    H    2.341    -26.327    -10.140
    11    N    2.932    -24.736    -8.945
    12    C    2.021    -24.706    -7.913
    13    N    -1.036    -25.650    -6.567
    14    H    -1.622    -25.559    -5.749
    15    H    -1.400    -26.214    -7.322
    16    N    0.815    -25.323    -7.899
    17    C    0.159    -25.109    -6.756
    18    N    0.648    -24.354    -5.722
    19    H    0.055    -24.255    -4.885
    20    C    1.873    -23.714    -5.711
    21    O    2.214    -23.058    -4.731
    22    C    2.586    -23.933    -6.923
    23    N    3.841    -23.476    -7.317
    24    C    3.981    -23.979    -8.504
    25    H    4.867    -23.699    -8.874
    26    C    1.942    -24.608    -11.239
    27    H    1.687    -23.733    -10.828
    28    O    0.793    -25.306    -11.735
    29    H    0.357    -25.875    -11.096
    30    C    2.992    -24.365    -12.306
    31    H    3.483    -23.531    -12.053
    32    O    2.436    -23.993    -13.567
    33    P    2.120    -22.444    -13.942
    34    O    1.696    -22.478    -15.350
    35    O    3.262    -21.624    -13.514
    36    O    0.899    -22.046    -12.983
    37    C    -0.340    -22.745    -13.090
    38    H    -0.186    -23.713    -12.890
    39    H    -0.773    -22.509    -13.960
    40    C    -1.376    -22.322    -12.047
    41    H    -2.254    -22.785    -12.173
    42    O    -0.842    -22.671    -10.748
    43    C    -1.647    -21.978    -9.761
    44    H    -2.417    -22.580    -9.548
    45    N    -0.851    -21.646    -8.563
    46    C    -0.242    -21.288    -6.484
    47    N    0.877    -21.019    -7.267
    48    C    0.452    -21.243    -8.474
    49    H    1.196    -21.068    -9.119
    50    N    -1.687    -21.563    -4.659
    51    C    -2.642    -21.917    -5.520
    52    H    -3.571    -22.168    -5.249
    53    N    -2.540    -21.998    -6.845
    54    C    -1.300    -21.665    -7.260
    55    C    -0.463    -21.238    -5.105
    56    N    0.480    -20.890    -4.234
    57    H    0.256    -20.877    -3.249
    58    H    1.398    -20.647    -4.577
    59    C    -2.175    -20.713    -10.414
    60    H    -1.776    -19.920    -9.955
    61    O    -3.597    -20.620    -10.450
    62    H    -4.048    -21.008    -9.696
    63    C    -1.595    -20.819    -11.807
    64    H    -0.708    -20.358    -11.796
    65    O    -2.181    -19.887    -12.726
    66    P    -2.179    -18.251    -12.662
    67    O    -2.637    -17.774    -13.982
    68    O    -0.981    -17.686    -12.025
    69    O    -3.239    -18.088    -11.487
    70    C    -4.354    -18.929    -11.736
    71    H    -4.028    -19.856    -11.923
    72    H    -4.944    -18.494    -12.416
    73    C    -5.220    -19.069    -10.514
    74    H    -6.043    -19.625    -10.627
    75    O    -4.443    -19.602    -9.444
    76    C    -5.198    -19.425    -8.219
    77    H    -5.710    -20.265    -8.039
    78    N    -4.237    -19.135    -7.132
    79    C    -4.530    -19.054    -5.790
    80    N    -6.827    -19.275    -3.195
    81    H    -6.926    -19.184    -2.194
    82    H    -7.660    -19.523    -3.709
    83    N    -5.746    -19.261    -5.229
    84    C    -5.722    -19.105    -3.906
    85    N    -4.597    -18.777    -3.194
    86    H    -4.692    -18.687    -2.172
    87    C    -3.346    -18.557    -3.738
    88    O    -2.405    -18.264    -3.008
    89    C    -3.355    -18.718    -5.152
    90    N    -2.320    -18.590    -6.076
    91    C    -2.902    -18.846    -7.209
    92    H    -2.228    -18.778    -7.944
    93    C    -6.186    -18.305    -8.581
    94    H    -6.167    -17.602    -7.870
    95    O    -7.505    -18.823    -8.789
    96    H    -7.749    -19.553    -8.216
    97    C    -5.534    -17.754    -9.841
    98    H    -4.677    -17.290    -9.616
    99    O    -6.047    -16.662    -10.615
    100    P    -5.653    -15.081    -10.655
    101    O    -6.448    -14.474    -11.740
    102    O    -4.204    -14.855    -10.577
    103    O    -6.172    -14.710    -9.199
    104    C    -7.512    -15.121    -8.981
    105    H    -7.577    -16.108    -9.126
    106    H    -8.124    -14.529    -9.506
    107    C    -7.914    -14.913    -7.540
    108    H    -8.890    -15.084    -7.408
    109    O    -7.166    -15.835    -6.738
    110    C    -7.192    -15.332    -5.388
    111    H    -7.800    -15.933    -4.870
    112    N    -5.820    -15.372    -4.835
    113    C    -4.729    -15.316    -5.657
    114    H    -4.676    -15.302    -6.656
    115    C    -3.484    -15.269    -5.152
    116    H    -2.576    -15.225    -5.568
    117    C    -5.673    -15.392    -3.455
    118    O    -6.662    -15.460    -2.729
    119    N    -4.416    -15.343    -2.934
    120    C    -3.344    -15.281    -3.733
    121    N    -2.132    -15.200    -3.196
    122    H    -2.044    -15.187    -2.190
    123    H    -1.311    -15.152    -3.782
    124    C    -7.807    -13.926    -5.444
    125    H    -7.278    -13.305    -4.866
    126    O    -9.179    -13.951    -5.041
    127    H    -9.385    -14.578    -4.344
    128    C    -7.555    -13.582    -6.900
    129    H    -6.582    -13.404    -7.044
    130    O    -7.936    -12.319    -7.493
    131    P    -7.307    -10.812    -7.554
    132    O    -8.105    -9.956    -8.449
    133    O    -5.851    -10.775    -7.649
    134    O    -7.565    -10.424    -6.043
    135    C    -8.911    -10.689    -5.661
    136    H    -9.126    -11.643    -5.868
    137    H    -9.504    -9.981    -6.045
    138    C    -9.090    -10.571    -4.166
    139    H    -10.050    -10.656    -3.898
    140    O    -8.309    -11.609    -3.482
    141    C    -8.169    -11.131    -2.129
    142    H    -8.810    -11.659    -1.572
    143    N    -6.768    -11.368    -1.723
    144    C    -4.960    -11.737    -0.531
    145    N    -4.553    -11.741    -1.863
    146    C    -5.658    -11.518    -2.509
    147    H    -5.464    -11.501    -3.490
    148    N    -4.971    -11.849    1.808
    149    C    -6.284    -11.621    1.774
    150    H    -6.861    -11.561    2.588
    151    N    -7.039    -11.439    0.693
    152    C    -6.303    -11.510    -0.434
    153    C    -4.267    -11.916    0.669
    154    N    -2.959    -12.146    0.725
    155    H    -2.521    -12.266    1.627
    156    H    -2.433    -12.196    -0.136
    157    C    -8.598    -9.656    -2.122
    158    H    -7.904    -9.130    -1.630
    159    O    -9.902    -9.486    -1.557
    160    H    -10.123    -10.102    -0.854
    161    C    -8.559    -9.271    -3.595
    162    H    -7.615    -9.143    -3.899
    163    O    -9.366    -8.133    -3.948
    164    P    -8.845    -6.600    -3.928
    165    O    -9.941    -5.742    -4.421
    166    O    -7.496    -6.453    -4.507
    167    O    -8.707    -6.410    -2.348
    168    C    -9.863    -6.715    -1.573
    169    H    -10.303    -7.529    -1.952
    170    H    -10.415    -5.887    -1.472
    171    C    -9.498    -7.105    -0.153
    172    H    -10.284    -7.483    0.336
    173    O    -8.458    -8.063    -0.163
    174    C    -7.855    -8.062    1.145
    175    H    -8.221    -8.847    1.645
    176    N    -6.394    -8.137    0.943
    177    C    -5.449    -8.302    1.929
    178    N    -4.622    -8.678    5.279
    179    H    -3.844    -8.798    5.911
    180    H    -5.540    -8.640    5.697
    181    N    -5.692    -8.410    3.256
    182    C    -4.568    -8.565    3.960
    183    N    -3.317    -8.609    3.403
    184    H    -2.518    -8.730    4.041
    185    C    -3.042    -8.504    2.051
    186    O    -1.882    -8.569    1.654
    187    C    -4.231    -8.337    1.288
    188    N    -4.396    -8.191    -0.087
    189    C    -5.682    -8.078    -0.220
    190    H    -5.900    -7.966    -1.189
    191    C    -8.345    -6.771    1.813
    192    H    -7.547    -6.286    2.170
    193    O    -9.344    -7.028    2.805
    194    H    -9.239    -7.855    3.281
    195    C    -8.941    -5.967    0.669
    196    H    -8.215    -5.516    0.150
    197    O    -10.072    -5.213    1.114
    198    P    -9.894    -3.652    1.451
    199    O    -11.251    -3.088    1.653
    200    O    -8.970    -3.058    0.449
    201    O    -9.151    -3.770    2.877
    202    C    -9.850    -4.360    3.982
    203    H    -10.204    -5.253    3.704
    204    H    -10.497    -3.693    4.351
    205    C    -8.899    -4.660    5.135
    206    H    -9.354    -5.025    5.947
    207    O    -7.929    -5.578    4.703
    208    C    -6.714    -5.375    5.451
    209    H    -6.574    -6.182    6.024
    210    N    -5.624    -5.160    4.471
    211    C    -5.903    -4.781    3.185
    212    H    -6.787    -4.615    2.748
    213    C    -4.324    -5.345    4.901
    214    O    -4.048    -5.682    6.046
    215    N    -3.341    -5.121    3.960
    216    H    -2.365    -5.251    4.262
    217    C    -3.534    -4.739    2.649
    218    O    -2.577    -4.566    1.903
    219    C    -4.920    -4.570    2.283
    220    H    -4.972    -4.294    1.323
    221    C    -6.999    -4.173    6.347
    222    H    -6.184    -3.595    6.389
    223    O    -7.479    -4.560    7.639
    224    H    -7.091    -5.364    7.991
    225    C    -8.074    -3.456    5.551
    226    H    -7.676    -3.036    4.735
    227    O    -8.870    -2.586    6.359
    228    P    -8.628    -0.995    6.284
    229    O    -9.680    -0.346    7.099
    230    O    -8.401    -0.577    4.880
    231    O    -7.227    -0.954    7.071
    232    C    -7.210    -1.478    8.401
    233    H    -7.567    -2.412    8.388
    234    H    -7.644    -0.819    9.016
    235    C    -5.795    -1.624    8.944
    236    H    -5.748    -1.948    9.889
    237    O    -5.111    -2.535    8.112
    238    C    -3.693    -2.274    8.186
    239    H    -3.274    -3.024    8.699
    240    N    -3.177    -2.200    6.798
    241    C    -4.027    -1.980    5.747
    242    H    -5.021    -1.875    5.746
    243    C    -1.813    -2.325    6.601
    244    O    -1.030    -2.530    7.523
    245    N    -1.374    -2.210    5.299
    246    H    -0.361    -2.300    5.134
    247    C    -2.161    -1.985    4.189
    248    O    -1.654    -1.894    3.076
    249    C    -3.571    -1.871    4.479
    250    H    -4.067    -1.712    3.625
    251    C    -3.570    -0.980    9.003
    252    H    -2.892    -0.386    8.571
    253    O    -3.246    -1.256    10.368
    254    H    -2.670    -2.012    10.503
    255    C    -4.956    -0.366    8.822
    256    H    -5.051    -0.000    7.896
    257    O    -5.338    0.652    9.767
    258    P    -5.223    2.255    9.536
    259    O    -5.741    2.947    10.734
    260    O    -5.700    2.669    8.206
    261    O    -3.633    2.377    9.519
    262    C    -2.940    1.834    10.642
    263    H    -3.226    0.885    10.773
    264    H    -3.030    2.462    11.415
    265    C    -1.446    1.752    10.388
    266    H    -0.915    1.369    11.144
    267    O    -1.255    0.929    9.214
    268    C    0.041    1.172    8.642
    269    H    0.652    0.418    8.883
    270    N    -0.116    1.284    7.172
    271    C    -1.331    1.567    6.616
    272    H    -2.221    1.708    7.050
    273    C    -1.467    1.698    5.285
    274    H    -2.247    1.898    4.692
    275    C    1.014    1.121    6.379
    276    O    2.102    0.871    6.895
    277    N    0.886    1.252    5.032
    278    C    -0.302    1.531    4.479
    279    N    -0.392    1.659    3.160
    280    H    0.441    1.543    2.600
    281    H    -1.277    1.869    2.722
    282    C    0.477    2.433    9.404
    283    H    0.888    3.055    8.738
    284    O    1.402    2.110    10.447
    285    H    1.958    1.347    10.274
    286    C    -0.808    3.057    9.939
    287    H    -1.356    3.450    9.200
    288    O    -0.668    4.075    10.953
    289    P    -0.628    5.691    10.770
    290    O    -0.357    6.312    12.077
    291    O    -1.749    6.213    9.974
    292    O    0.669    5.848    9.858
    293    C    1.891    5.292    10.340
    294    H    1.731    4.344    10.614
    295    H    2.288    5.914    11.014
    296    C    2.913    5.213    9.227
    297    H    3.768    4.799    9.540
    298    O    2.346    4.392    8.206
    299    C    2.938    4.759    6.952
    300    H    3.457    3.978    6.606
    301    N    1.838    5.130    6.026
    302    C    0.602    5.442    6.513
    303    H    0.270    5.464    7.456
    304    C    -0.401    5.788    5.688
    305    H    -1.356    6.045    5.840
    306    C    2.100    5.164    4.659
    307    O    3.220    4.890    4.237
    308    N    1.086    5.514    3.814
    309    C    -0.128    5.820    4.288
    310    N    -1.098    6.151    3.443
    311    H    -0.899    6.165    2.453
    312    H    -2.020    6.385    3.782
    313    C    3.917    5.874    7.349
    314    H    3.948    6.533    6.597
    315    O    5.208    5.332    7.636
    316    H    5.441    4.551    7.129
    317    C    3.278    6.537    8.563
    318    H    2.438    7.025    8.326
    319    O    4.125    7.409    9.351
    320    P    4.392    9.013    9.237
    321    O    5.342    9.449    10.273
    322    O    3.180    9.834    9.094
    323    O    5.200    9.134    7.872
    324    C    6.451    8.461    7.763
    325    H    6.327    7.501    8.015
    326    H    7.148    8.988    8.250
    327    C    6.926    8.426    6.325
    328    H    7.812    7.963    6.297
    329    O    5.987    7.688    5.527
    330    C    6.082    8.195    4.187
    331    H    6.399    7.444    3.607
    332    N    4.729    8.671    3.810
    333    C    3.810    8.984    4.770
    334    H    3.882    8.956    5.767
    335    C    2.580    9.408    4.432
    336    H    1.779    9.680    4.965
    337    C    4.427    8.780    2.457
    338    O    5.270    8.504    1.607
    339    N    3.182    9.211    2.106
    340    C    2.274    9.520    3.043
    341    N    1.067    9.940    2.670
    342    H    0.860    10.017    1.684
    343    H    0.368    10.178    3.359
    344    C    7.164    9.284    4.231
    345    H    6.878    10.028    3.627
    346    O    8.454    8.756    3.914
    347    H    8.453    8.041    3.273
    348    C    7.134    9.777    5.673
    349    H    6.329    10.346    5.839
    350    O    8.424    10.249    6.110
    351    P    8.951    11.759    5.855
    352    O    10.319    11.908    6.402
    353    O    7.893    12.677    6.353
    354    O    9.089    11.899    4.251
    355    C    10.099    11.202    3.508
    356    H    10.013    10.221    3.683
    357    H    10.985    11.633    3.679
    358    C    9.869    11.356    2.008
    359    H    10.555    10.855    1.480
    360    O    8.565    10.859    1.671
    361    C    8.113    11.544    0.493
    362    H    8.117    10.879    -0.254
    363    N    6.755    12.059    0.785
    364    C    6.349    12.237    2.074
    365    H    6.840    12.085    2.932
    366    C    5.114    12.683    2.350
    367    H    4.631    12.877    3.204
    368    C    5.910    12.333    -0.283
    369    O    6.297    12.176    -1.439
    370    N    4.655    12.786    -0.011
    371    C    4.247    12.962    1.253
    372    N    3.015    13.396    1.490
    373    H    2.405    13.586    0.707
    374    H    2.690    13.534    2.436
    375    C    9.160    12.625    0.204
    376    H    8.675    13.472    -0.012
    377    O    10.058    12.226    -0.834
    378    H    9.671    11.667    -1.512
    379    C    9.897    12.798    1.529
    380    H    9.354    13.359    2.153
    381    O    11.254    13.225    1.334
    382    P    11.659    14.780    1.463
    383    O    13.114    14.953    1.254
    384    O    11.044    15.319    2.699
    385    O    10.925    15.411    0.179
    386    C    11.313    15.000    -1.137
    387    H    11.297    14.001    -1.184
    388    H    12.161    15.468    -1.387
    389    C    10.309    15.445    -2.190
    390    H    10.547    15.119    -3.105
    391    O    9.023    14.971    -1.854
    392    C    8.074    15.811    -2.532
    393    H    7.771    15.303    -3.338
    394    N    6.954    16.067    -1.598
    395    C    7.118    15.913    -0.248
    396    H    7.925    15.623    0.266
    397    C    5.747    16.476    -2.134
    398    O    5.574    16.621    -3.340
    399    N    4.735    16.723    -1.228
    400    H    3.830    17.035    -1.607
    401    C    4.816    16.593    0.142
    402    O    3.842    16.834    0.849
    403    C    6.110    16.160    0.618
    404    H    6.085    16.095    1.616
    405    C    8.817    17.070    -2.987
    406    H    8.328    17.870    -2.641
    407    O    8.958    17.121    -4.413
    408    H    8.231    16.734    -4.906
    409    C    10.154    16.953    -2.262
    410    H    10.061    17.315    -1.335
    411    O    11.251    17.597    -2.928
    412    P    11.915    18.971    -2.386
    413    O    12.940    19.421    -3.349
    414    O    12.266    18.842    -0.961
    415    O    10.661    19.962    -2.480
    416    C    10.094    20.245    -3.761
    417    H    9.922    19.383    -4.238
    418    H    10.657    20.932    -4.222
    419    C    8.720    20.896    -3.641
    420    H    8.380    21.203    -4.530
    421    O    7.803    19.961    -3.094
    422    C    6.791    20.671    -2.350
    423    H    5.925    20.538    -2.832
    424    N    6.764    20.132    -0.974
    425    C    5.701    20.171    -0.098
    426    N    2.396    20.981    0.600
    427    H    1.692    20.954    1.324
    428    H    2.115    21.373    -0.288
    429    N    4.468    20.660    -0.361
    430    C    3.650    20.557    0.690
    431    N    4.020    20.019    1.895
    432    H    3.309    19.990    2.639
    433    C    5.272    19.513    2.189
    434    O    5.498    19.055    3.302
    435    C    6.151    19.614    1.079
    436    N    7.481    19.225    0.955
    437    C    7.775    19.554    -0.263
    438    H    8.727    19.307    -0.446
    439    C    7.174    22.143    -2.416
    440    H    7.024    22.552    -1.516
    441    O    6.456    22.833    -3.449
    442    H    5.561    22.521    -3.598
    443    C    8.672    22.085    -2.691
    444    H    9.160    21.850    -1.850
    445    O    9.193    23.319    -3.201
    446    P    10.024    24.337    -2.257
    447    O    10.430    25.497    -3.069
    448    O    11.054    23.569    -1.536
    449    O    8.923    24.805    -1.186
    450    C    9.298    25.424    0.043
    451    H    9.718    26.310    -0.154
    452    H    9.819    24.770    0.592
    453    C    8.075    25.756    0.894
    454    H    8.368    26.018    1.814
    455    O    7.387    26.850    0.297
    456    C    6.062    26.457    -0.105
    457    H    5.436    27.106    0.327
    458    N    6.006    26.528    -1.584
    459    C    6.827    25.758    -2.359
    460    H    7.517    25.084    -2.096
    461    C    6.783    25.839    -3.701
    462    H    7.284    25.377    -4.432
    463    C    5.102    27.414    -2.154
    464    O    4.369    28.092    -1.440
    465    N    5.052    27.500    -3.513
    466    C    5.854    26.751    -4.280
    467    N    5.783    26.865    -5.604
    468    H    5.123    27.517    -6.003
    469    H    6.378    26.310    -6.202
    470    C    5.790    25.055    0.453
    471    H    5.580    24.462    -0.324
    472    O    4.751    25.057    1.438
    473    H    4.071    25.722    1.308
    474    C    7.100    24.602    1.083
    475    H    7.423    23.814    0.559
    476    O    6.915    24.384    2.491
    477    P    6.068    23.112    3.020
    478    O    6.505    22.816    4.405
    479    O    6.142    22.059    1.981
    480    O    4.544    23.662    3.078
    481    C    4.129    24.699    3.993
    482    H    4.610    25.546    3.765
    483    H    4.203    24.356    4.929
    484    C    2.644    25.075    3.858
    485    H    2.363    25.684    4.600
    486    O    2.482    25.755    2.612
    487    C    1.416    25.173    1.860
    488    H    0.638    25.793    1.959
    489    N    1.835    25.058    0.449
    490    C    1.987    25.365    -1.718
    491    N    3.053    24.539    -1.367
    492    C    2.901    24.397    -0.086
    493    H    3.628    23.806    0.265
    494    N    0.470    26.670    -2.934
    495    C    -0.179    26.905    -1.794
    496    H    -1.003    27.467    -1.729
    497    N    0.135    26.455    -0.583
    498    C    1.240    25.682    -0.621
    499    C    1.568    25.900    -2.939
    500    N    2.230    25.712    -4.077
    501    H    1.891    26.155    -4.919
    502    H    3.056    25.131    -4.073
    503    C    1.065    23.838    2.483
    504    H    1.529    23.127    1.954
    505    O    -0.350    23.657    2.561
    506    H    -0.851    24.065    1.851
    507    C    1.664    23.885    3.882
    508    H    2.181    23.040    4.017
    509    O    0.606    24.070    4.837
    510    P    -0.552    22.964    5.113
    511    O    -1.011    23.113    6.509
    512    O    -0.065    21.645    4.660
    513    O    -1.770    23.395    4.147
    514    C    -3.118    23.501    4.636
    515    H    -3.141    24.162    5.386
    516    H    -3.475    22.583    4.809
    517    C    -4.053    24.086    3.575
    518    H    -4.999    23.993    3.885
    519    O    -3.753    25.479    3.403
    520    C    -3.499    25.746    2.017
    521    H    -4.357    26.068    1.617
    522    N    -2.447    26.806    1.910
    523    C    -1.532    26.982    2.920
    524    H    -1.447    26.497    3.790
    525    C    -2.402    27.597    0.762
    526    O    -3.190    27.473    -0.167
    527    N    -1.399    28.541    0.716
    528    H    -1.355    29.134    -0.125
    529    C    -0.445    28.774    1.683
    530    O    0.409    29.641    1.520
    531    C    -0.556    27.918    2.839
    532    H    0.169    28.151    3.487
    533    C    -3.130    24.394    1.387
    534    H    -2.164    24.207    1.563
    535    O    -3.456    24.362    -0.009
    536    H    -3.340    25.195    -0.471
    537    C    -3.984    23.420    2.207
    538    H    -3.486    22.557    2.290
    539    O    -5.297    23.372    1.624
    540    P    -5.691    22.178    0.610
    541    O    -7.140    22.288    0.312
    542    O    -5.144    20.926    1.187
    543    O    -4.873    22.524    -0.745
    544    C    -5.224    23.639    -1.586
    545    H    -5.087    24.488    -1.075
    546    H    -6.125    23.474    -1.986
    547    C    -4.284    23.755    -2.787
    548    H    -4.589    24.494    -3.388
    549    O    -2.917    24.007    -2.386
    550    C    -2.103    23.675    -3.511
    551    H    -1.934    24.534    -3.994
    552    N    -0.858    23.080    -3.001
    553    C    1.221    22.412    -2.835
    554    N    0.622    22.123    -1.609
    555    C    -0.597    22.541    -1.774
    556    H    -1.114    22.375    -0.934
    557    N    2.767    22.621    -4.581
    558    C    1.804    23.175    -5.315
    559    H    1.931    23.493    -6.255
    560    N    0.549    23.398    -4.949
    561    C    0.326    22.990    -3.685
    562    C    2.515    22.223    -3.326
    563    N    3.488    21.672    -2.614
    564    H    4.400    21.564    -3.033
    565    H    3.294    21.373    -1.669
    566    C    -2.903    22.738    -4.423
    567    H    -2.400    21.879    -4.517
    568    O    -3.204    23.356    -5.682
    569    H    -2.525    23.947    -6.016
    570    C    -4.174    22.484    -3.610
    571    H    -4.015    21.711    -2.996
    572    O    -5.250    22.414    -4.548
    573    P    -5.686    20.948    -5.036
    574    O    -6.753    21.131    -6.052
    575    O    -5.922    20.188    -3.782
    576    O    -4.359    20.358    -5.761
    577    C    -3.890    20.888    -7.012
    578    H    -3.776    21.878    -6.924
    579    H    -4.474    20.548    -7.749
    580    C    -2.492    20.398    -7.405
    581    H    -2.216    20.726    -8.308
    582    O    -1.501    20.813    -6.428
    583    C    -0.445    19.824    -6.403
    584    H    0.362    20.276    -6.783
    585    N    -0.248    19.416    -5.000
    586    C    0.630    18.657    -3.137
    587    N    -0.672    19.043    -2.825
    588    C    -1.129    19.474    -3.959
    589    H    -2.075    19.774    -3.836
    590    N    2.821    17.843    -2.991
    591    C    2.963    18.105    -4.292
    592    H    3.801    17.930    -4.809
    593    N    2.052    18.627    -5.108
    594    C    0.897    18.879    -4.457
    595    C    1.661    18.109    -2.371
    596    N    1.541    17.863    -1.069
    597    H    2.330    17.478    -0.569
    598    H    0.664    18.066    -0.611
    599    C    -0.840    18.655    -7.317
    600    H    -0.660    17.784    -6.860
    601    O    -0.221    18.738    -8.605
    602    H    0.683    19.061    -8.600
    603    C    -2.346    18.892    -7.360
    604    H    -2.733    18.553    -6.503
    605    O    -2.980    18.290    -8.490
    606    P    -3.622    16.821    -8.340
    607    O    -4.288    16.551    -9.633
    608    O    -4.352    16.709    -7.061
    609    O    -2.252    15.997    -8.186
    610    C    -1.221    16.270    -9.138
    611    H    -1.021    17.250    -9.129
    612    H    -1.465    15.849    -10.012
    613    C    0.095    15.611    -8.754
    614    H    0.818    15.704    -9.438
    615    O    0.562    16.146    -7.502