!*** FMO 5.2 (Gamess) INPUT generated by Facio 21.1.1.32 ***
 $CONTRL RUNTYP=OPTFMO NPRINT=-5 ISPHER=-1 MAXIT=50 $END
 $SYSTEM MWORDS=29 $END
 $GDDI NGROUP=1 $END
 $INTGRL NINTIC=-9000000 $END
 $SCF DIRSCF=.FALSE. NPUNCH=0 $END
!*** NumCPU : 2  MemPerNode : 512MB
 $FMOPRP
    NAODIR=210
    NGRFMO(1)=1, 1, 0, 0, 0,   0, 0, 0, 0, 0
    NPRINT=9
 $END
 $FMO
      SCFTYP(1)=RHF
      MODGRD=10
      MODMUL=0
      MAXCAO=5
      MAXBND=34
      NLAYER=1
      NFRAG=32
      ICHARG(1)=-1, -1, -1, -1, -1, -1, -1, -1, -1, -1, 
-1, -1, -1, -1, -1, -1, -1, -1, -1, -1, 
-1, -1, -1, -1, -1, -1, -1, -1, -1, -1, 
-1, 0
      FRGNAM(1)=Frag1, Frag2, Frag3, Frag4, Frag5, Frag6, Frag7, Frag8, Frag9, Frag10, Frag11, Frag12, Frag13, Frag14, Frag15, Frag16, Frag17, Frag18, Frag19, Frag20, Frag21, Frag22, Frag23, Frag24, Frag25, Frag26, Frag27, Frag28, Frag29, Frag30, Frag31, Frag32
      indat(1)=0
               1   -36   0
               37   -69   0
               70   -103   0
               104   -134   0
               135   -167   0
               168   -201   0
               202   -231   0
               232   -261   0
               262   -292   0
               293   -323   0
               324   -354   0
               355   -385   0
               386   -415   0
               416   -449   0
               450   -480   0
               481   -513   0
               514   -543   0
               544   -576   0
               577   -609   0
               610   -643   0
               644   -677   0
               678   -710   0
               711   -740   0
               741   -774   0
               775   -807   0
               808   -840   0
               841   -871   0
               872   -902   0
               903   -936   0
               937   -966   0
               967   -996   0
               997   -1024   0
 $END

 $FMOBND
   -37   36       3-21G    MINI
   -70   69       3-21G    MINI
   -104   103       3-21G    MINI
   -135   134       3-21G    MINI
   -168   167       3-21G    MINI
   -202   201       3-21G    MINI
   -232   231       3-21G    MINI
   -262   261       3-21G    MINI
   -293   292       3-21G    MINI
   -324   323       3-21G    MINI
   -355   354       3-21G    MINI
   -386   385       3-21G    MINI
   -416   415       3-21G    MINI
   -450   449       3-21G    MINI
   -481   480       3-21G    MINI
   -514   513       3-21G    MINI
   -544   543       3-21G    MINI
   -577   576       3-21G    MINI
   -610   609       3-21G    MINI
   -644   643       3-21G    MINI
   -678   677       3-21G    MINI
   -711   710       3-21G    MINI
   -741   740       3-21G    MINI
   -775   774       3-21G    MINI
   -808   807       3-21G    MINI
   -841   840       3-21G    MINI
   -872   871       3-21G    MINI
   -903   902       3-21G    MINI
   -937   936       3-21G    MINI
   -967   966       3-21G    MINI
   -997   996       3-21G    MINI
 $END
 $FMOHYB
 3-21G        9   5
   1 0  -0.070459   0.164841   0.000000   0.000000   0.502116
         0.466939   0.000000   0.000000   0.418036
   0 1  -0.070465   0.164857   0.473392   0.000000  -0.167359
         0.466967   0.394111   0.000000  -0.139327
   0 1  -0.070465   0.164857  -0.236695  -0.409969  -0.167359
         0.466967  -0.197055  -0.341311  -0.139327
   0 1  -0.070465   0.164857  -0.236695   0.409969  -0.167359
         0.466967  -0.197055   0.341311  -0.139327
   0 1   1.006716   0.074826   0.000000   0.000000   0.000000
        -0.143830   0.000000   0.000000  -0.000003
 MINI         5   5
   1 0  -0.104883   0.308874   0.000000   0.000000   0.521806
   0 1  -0.104883   0.308874   0.491961   0.000000  -0.173934
   0 1  -0.104883   0.308876  -0.245980  -0.426050  -0.173933
   0 1  -0.104883   0.308876  -0.245980   0.426050  -0.173933
   0 1   0.988209   0.063992   0.000000   0.000000   0.000000
 $END

 $DATA
 FMO calculation : XXNAMEXX
 C1 
 C.1-1    6
      N21 3
   
 O.1-1    8
      N21 3
   
 N.1-1    7
      N21 3
   
 H.1-1    1
      N21 3
   
 P.1-1   15
      N21 3
   
 $END
 $FMOXYZ
    1    H    10.333    -16.450    -7.245
    2    O    9.425    -16.791    -7.489
    3    C    9.525    -17.570    -8.687
    4    H    10.079    -18.382    -8.502
    5    H    9.803    -16.974    -9.441
    6    C    8.171    -18.126    -9.122
    7    H    8.264    -18.574    -10.011
    8    O    7.665    -19.058    -8.188
    9    C    6.249    -19.175    -8.437
    10    H    6.133    -19.949    -9.060
    11    N    5.587    -19.396    -7.132
    12    C    4.350    -19.965    -6.933
    13    N    1.485    -21.460    -8.200
    14    H    0.596    -21.859    -7.934
    15    H    1.702    -21.460    -9.186
    16    N    3.532    -20.446    -7.899
    17    C    2.398    -20.937    -7.394
    18    N    2.099    -20.950    -6.056
    19    H    1.193    -21.353    -5.777
    20    C    2.915    -20.466    -5.051
    21    O    2.547    -20.524    -3.881
    22    C    4.129    -19.939    -5.574
    23    N    5.211    -19.363    -4.913
    24    C    6.026    -19.069    -5.879
    25    H    6.846    -18.644    -5.495
    26    C    5.802    -17.894    -9.145
    27    H    5.156    -17.417    -8.549
    28    O    5.258    -18.157    -10.444
    29    H    4.785    -18.988    -10.524
    30    C    7.080    -17.079    -9.243
    31    H    7.125    -16.469    -8.452
    32    O    7.158    -16.401    -10.496
    33    P    6.637    -14.880    -10.537
    34    O    6.946    -14.402    -11.897
    35    O    7.117    -14.113    -9.360
    36    O    5.041    -15.039    -10.406
    37    C    4.323    -15.774    -11.401
    38    H    4.726    -16.685    -11.487
    39    H    4.247    -15.215    -12.227
    40    C    2.878    -16.044    -11.002
    41    H    2.400    -16.497    -11.754
    42    O    2.823    -16.891    -9.830
    43    C    1.485    -16.746    -9.313
    44    H    0.918    -17.419    -9.787
    45    N    1.531    -16.986    -7.856
    46    C    1.023    -17.622    -5.817
    47    N    2.234    -16.943    -5.720
    48    C    2.475    -16.595    -6.948
    49    H    3.338    -16.091    -6.980
    50    N    -0.923    -18.821    -5.296
    51    C    -1.243    -18.786    -6.591
    52    H    -2.072    -19.195    -6.972
    53    N    -0.546    -18.223    -7.575
    54    C    0.586    -17.654    -7.110
    55    C    0.212    -18.246    -4.865
    56    N    0.519    -18.292    -3.572
    57    H    -0.110    -18.761    -2.936
    58    H    1.374    -17.857    -3.256
    59    C    1.014    -15.342    -9.694
    60    H    1.008    -14.790    -8.860
    61    O    -0.250    -15.369    -10.364
    62    H    -0.842    -16.071    -10.084
    63    C    2.081    -14.809    -10.631
    64    H    2.668    -14.186    -10.114
    65    O    1.475    -14.149    -11.742
    66    P    0.878    -12.685    -11.445
    67    O    0.695    -12.066    -12.768
    68    O    1.510    -11.859    -10.377
    69    O    -0.569    -13.109    -10.892
    70    C    -1.426    -13.890    -11.729
    71    H    -0.929    -14.701    -12.038
    72    H    -1.832    -13.296    -12.423
    73    C    -2.622    -14.453    -10.976
    74    H    -3.218    -15.012    -11.553
    75    O    -2.161    -15.245    -9.878
    76    C    -3.277    -15.496    -8.996
    77    H    -3.686    -16.377    -9.235
    78    N    -2.766    -15.461    -7.610
    79    C    -3.468    -15.799    -6.477
    80    N    -6.387    -16.912    -4.966
    81    H    -6.801    -17.127    -4.070
    82    H    -6.974    -17.044    -5.777
    83    N    -4.750    -16.233    -6.436
    84    C    -5.157    -16.475    -5.191
    85    N    -4.369    -16.307    -4.081
    86    H    -4.786    -16.530    -3.166
    87    C    -3.061    -15.863    -4.094
    88    O    -2.445    -15.745    -3.039
    89    C    -2.611    -15.598    -5.418
    90    N    -1.375    -15.142    -5.871
    91    C    -1.533    -15.084    -7.157
    92    H    -0.684    -14.761    -7.575
    93    C    -4.250    -14.372    -9.381
    94    H    -4.511    -13.903    -8.537
    95    O    -5.367    -14.863    -10.127
    96    H    -5.645    -15.754    -9.902
    97    C    -3.452    -13.421    -10.248
    98    H    -2.849    -12.855    -9.686
    99    O    -4.250    -12.559    -11.057
    100    P    -4.305    -11.015    -10.605
    101    O    -5.062    -10.356    -11.679
    102    O    -3.065    -10.334    -10.128
    103    O    -5.263    -11.112    -9.319
    104    C    -6.567    -11.672    -9.493
    105    H    -6.479    -12.582    -9.898
    106    H    -7.148    -11.005    -9.960
    107    C    -7.293    -11.929    -8.178
    108    H    -8.226    -12.248    -8.342
    109    O    -6.585    -12.923    -7.415
    110    C    -6.958    -12.743    -6.036
    111    H    -7.583    -13.490    -5.809
    112    N    -5.720    -12.774    -5.230
    113    C    -4.516    -12.437    -5.777
    114    H    -4.280    -12.179    -6.714
    115    C    -3.403    -12.417    -5.024
    116    H    -2.446    -12.206    -5.220
    117    C    -5.836    -13.110    -3.891
    118    O    -6.928    -13.425    -3.425
    119    N    -4.715    -13.089    -3.122
    120    C    -3.530    -12.756    -3.645
    121    N    -2.459    -12.712    -2.861
    122    H    -2.562    -12.932    -1.881
    123    H    -1.555    -12.463    -3.236
    124    C    -7.716    -11.410    -5.941
    125    H    -7.331    -10.882    -5.184
    126    O    -9.128    -11.610    -5.827
    127    H    -9.388    -12.391    -5.333
    128    C    -7.370    -10.722    -7.251
    129    H    -6.463    -10.306    -7.182
    130    O    -8.166    -9.560    -7.577
    131    P    -7.623    -8.079    -7.230
    132    O    -8.459    -7.095    -7.935
    133    O    -6.193    -7.626    -7.154
    134    O    -8.073    -8.007    -5.696
    135    C    -9.439    -8.343    -5.424
    136    H    -9.633    -9.249    -5.801
    137    H    -10.024    -7.583    -5.707
    138    C    -9.738    -8.497    -3.941
    139    H    -10.713    -8.660    -3.791
    140    O    -8.970    -9.625    -3.379
    141    C    -8.912    -9.386    -1.958
    142    H    -9.568    -10.012    -1.536
    143    N    -7.525    -9.659    -1.526
    144    C    -5.767    -10.197    -0.325
    145    N    -5.297    -9.960    -1.615
    146    C    -6.376    -9.648    -2.268
    147    H    -6.136    -9.455    -3.220
    148    N    -5.886    -10.716    1.955
    149    C    -7.201    -10.509    1.894
    150    H    -7.817    -10.602    2.676
    151    N    -7.909    -10.155    0.824
    152    C    -7.118    -10.015    -0.259
    153    C    -5.127    -10.570    0.859
    154    N    -3.817    -10.783    0.941
    155    H    -3.419    -11.051    1.830
    156    H    -3.250    -10.672    0.113
    157    C    -9.378    -7.940    -1.723
    158    H    -8.703    -7.495    -1.134
    159    O    -10.708    -7.892    -1.198
    160    H    -10.944    -8.625    -0.624
    161    C    -9.338    -7.293    -3.100
    162    H    -8.400    -7.032    -3.330
    163    O    -10.062    -6.048    -3.219
    164    P    -9.297    -4.626    -3.104
    165    O    -10.251    -3.556    -3.446
    166    O    -7.910    -4.354    -3.597
    167    O    -9.135    -4.577    -1.510
    168    C    -10.313    -4.826    -0.737
    169    H    -10.848    -5.545    -1.181
    170    H    -10.766    -3.956    -0.544
    171    C    -10.020    -5.394    0.643
    172    H    -10.838    -5.756    1.091
    173    O    -9.064    -6.436    0.514
    174    C    -8.465    -6.649    1.806
    175    H    -8.899    -7.454    2.212
    176    N    -7.014    -6.840    1.595
    177    C    -6.095    -7.205    2.552
    178    N    -5.333    -8.043    5.834
    179    H    -4.573    -8.306    6.445
    180    H    -6.248    -7.972    6.257
    181    N    -6.358    -7.444    3.858
    182    C    -5.259    -7.781    4.537
    183    N    -4.012    -7.875    3.976
    184    H    -3.233    -8.143    4.594
    185    C    -3.717    -7.638    2.645
    186    O    -2.565    -7.761    2.241
    187    C    -4.879    -7.276    1.910
    188    N    -5.020    -6.957    0.561
    189    C    -6.289    -6.712    0.445
    190    H    -6.488    -6.468    -0.504
    191    C    -8.846    -5.408    2.627
    192    H    -8.011    -5.047    3.043
    193    O    -9.868    -5.696    3.586
    194    H    -9.840    -6.582    3.954
    195    C    -9.353    -4.416    1.592
    196    H    -8.584    -3.981    1.124
    197    O    -10.240    -3.433    2.150
    198    P    -9.713    -1.935    2.435
    199    O    -10.871    -1.060    2.720
    200    O    -8.694    -1.430    1.479
    201    O    -8.948    -2.173    3.829
    202    C    -9.688    -2.626    4.969
    203    H    -10.221    -3.432    4.712
    204    H    -10.175    -1.850    5.370
    205    C    -8.777    -3.118    6.089
    206    H    -9.286    -3.427    6.892
    207    O    -8.001    -4.187    5.599
    208    C    -6.755    -4.237    6.321
    209    H    -6.750    -5.078    6.861
    210    N    -5.661    -4.182    5.323
    211    C    -5.890    -3.707    4.060
    212    H    -6.738    -3.370    3.651
    213    C    -4.406    -4.612    5.714
    214    O    -4.175    -5.039    6.839
    215    N    -3.416    -4.526    4.758
    216    H    -2.473    -4.838    5.031
    217    C    -3.561    -4.063    3.468
    218    O    -2.601    -4.031    2.706
    219    C    -4.900    -3.636    3.142
    220    H    -4.918    -3.316    2.195
    221    C    -6.809    -3.039    7.267
    222    H    -5.899    -2.626    7.307
    223    O    -7.322    -3.395    8.555
    224    H    -7.088    -4.277    8.855
    225    C    -7.754    -2.087    6.554
    226    H    -7.310    -1.685    5.753
    227    O    -8.266    -1.047    7.411
    228    P    -7.731    0.478    7.319
    229    O    -8.550    1.396    8.147
    230    O    -7.416    0.919    5.937
    231    O    -6.323    0.308    8.078
    232    C    -6.322    -0.110    9.448
    233    H    -6.871    -0.942    9.535
    234    H    -6.559    0.670    10.027
    235    C    -4.943    -0.529    9.947
    236    H    -4.956    -0.835    10.899
    237    O    -4.473    -1.583    9.131
    238    C    -3.031    -1.601    9.168
    239    H    -2.754    -2.400    9.703
    240    N    -2.557    -1.662    7.766
    241    C    -3.382    -1.312    6.732
    242    H    -4.335    -1.011    6.752
    243    C    -1.251    -2.059    7.541
    244    O    -0.494    -2.383    8.451
    245    N    -0.842    -2.075    6.225
    246    H    0.127    -2.368    6.037
    247    C    -1.606    -1.736    5.128
    248    O    -1.129    -1.783    3.999
    249    C    -2.956    -1.338    5.450
    250    H    -3.440    -1.114    4.604
    251    C    -2.632    -0.328    9.928
    252    H    -1.880    0.111    9.435
    253    O    -2.323    -0.605    11.295
    254    H    -1.907    -1.456    11.452
    255    C    -3.876    0.546    9.816
    256    H    -3.930    0.949    8.902
    257    O    -3.949    1.588    10.815
    258    P    -3.555    3.130    10.518
    259    O    -3.832    3.992    11.694
    260    O    -3.994    3.653    9.197
    261    O    -1.958    2.989    10.428
    262    C    -1.247    2.466    11.559
    263    H    -1.664    1.599    11.833
    264    H    -1.161    3.184    12.250
    265    C    0.191    2.098    11.223
    266    H    0.689    1.682    11.984
    267    O    0.184    1.178    10.107
    268    C    1.462    1.176    9.449
    269    H    1.972    0.363    9.732
    270    N    1.214    1.208    7.990
    271    C    0.013    1.624    7.492
    272    H    -0.811    1.935    7.965
    273    C    -0.203    1.660    6.166
    274    H    -0.990    1.924    5.608
    275    C    2.245    0.812    7.150
    276    O    3.322    0.447    7.620
    277    N    2.035    0.846    5.808
    278    C    0.861    1.253    5.307
    279    N    0.691    1.281    3.990
    280    H    1.453    0.994    3.393
    281    H    -0.185    1.584    3.590
    282    C    2.128    2.420    10.055
    283    H    2.535    2.930    9.297
    284    O    3.074    2.071    11.071
    285    H    3.513    1.227    10.943
    286    C    1.011    3.253    10.669
    287    H    0.482    3.716    9.958
    288    O    1.504    4.185    11.651
    289    P    1.773    5.744    11.325
    290    O    2.318    6.408    12.530
    291    O    0.646    6.417    10.627
    292    O    2.976    5.661    10.258
    293    C    4.224    5.061    10.630
    294    H    4.045    4.173    11.054
    295    H    4.764    5.726    11.146
    296    C    5.077    4.738    9.412
    297    H    5.936    4.275    9.630
    298    O    4.317    3.915    8.529
    299    C    4.759    4.139    7.177
    300    H    5.179    3.294    6.845
    301    N    3.566    4.531    6.390
    302    C    2.434    4.967    7.016
    303    H    2.244    5.094    7.989
    304    C    1.343    5.306    6.309
    305    H    0.436    5.639    6.567
    306    C    3.630    4.428    5.004
    307    O    4.661    4.044    4.460
    308    N    2.526    4.770    4.281
    309    C    1.411    5.197    4.888
    310    N    0.348    5.518    4.159
    311    H    0.402    5.433    3.154
    312    H    -0.501    5.842    4.600
    313    C    5.841    5.213    7.315
    314    H    5.786    5.828    6.528
    315    O    7.142    4.645    7.492
    316    H    7.295    3.826    7.015
    317    C    5.395    5.962    8.561
    318    H    4.550    6.468    8.389
    319    O    6.444    6.791    9.106
    320    P    6.712    8.345    8.752
    321    O    7.854    8.864    9.548
    322    O    5.447    9.120    8.766
    323    O    7.209    8.275    7.227
    324    C    8.442    7.616    6.919
    325    H    8.401    6.675    7.255
    326    H    9.203    8.190    7.223
    327    C    8.660    7.469    5.422
    328    H    9.535    7.038    5.204
    329    O    7.598    6.684    4.857
    330    C    7.409    7.108    3.494
    331    H    7.638    6.330    2.909
    332    N    5.992    7.524    3.360
    333    C    5.262    7.869    4.461
    334    H    5.526    7.906    5.425
    335    C    3.973    8.233    4.346
    336    H    3.278    8.514    5.008
    337    C    5.431    7.538    2.088
    338    O    6.107    7.235    1.107
    339    N    4.125    7.907    1.962
    340    C    3.401    8.247    3.038
    341    N    2.129    8.604    2.884
    342    H    1.733    8.611    1.955
    343    H    1.566    8.864    3.681
    344    C    8.426    8.227    3.255
    345    H    8.016    8.929    2.673
    346    O    9.663    7.731    2.734
    347    H    9.579    6.995    2.123
    348    C    8.576    8.778    4.664
    349    H    7.742    9.259    4.936
    350    O    9.840    9.436    4.814
    351    P    10.144    10.957    4.366
    352    O    11.571    11.262    4.619
    353    O    9.059    11.675    5.061
    354    O    9.871    10.953    2.782
    355    C    10.743    10.257    1.886
    356    H    10.763    9.289    2.137
    357    H    11.614    10.746    1.834
    358    C    10.196    10.281    0.464
    359    H    10.786    9.796    -0.182
    360    O    8.888    9.698    0.429
    361    C    8.159    10.276    -0.668
    362    H    8.061    9.561    -1.361
    363    N    6.857    10.730    -0.129
    364    C    6.708    10.968    1.204
    365    H    7.372    10.904    1.949
    366    C    5.524    11.355    1.705
    367    H    5.210    11.575    2.628
    368    C    5.796    10.880    -1.013
    369    O    5.953    10.671    -2.214
    370    N    4.592    11.272    -0.513
    371    C    4.436    11.507    0.796
    372    N    3.248    11.879    1.258
    373    H    2.481    11.978    0.609
    374    H    3.111    12.061    2.242
    375    C    9.034    11.396    -1.229
    376    H    8.462    12.199    -1.395
    377    O    9.747    10.990    -2.400
    378    H    9.277    10.375    -2.968
    379    C    9.970    11.686    -0.062
    380    H    9.485    12.219    0.631
    381    O    11.226    12.167    -0.537
    382    P    11.502    13.747    -0.668
    383    O    12.864    13.921    -1.218
    384    O    11.099    14.316    0.634
    385    O    10.412    14.106    -1.788
    386    C    10.515    13.540    -3.097
    387    H    10.552    12.544    -3.019
    388    H    11.252    13.999    -3.593
    389    C    9.268    13.815    -3.922
    390    H    9.324    13.365    -4.813
    391    O    8.119    13.355    -3.248
    392    C    7.000    14.074    -3.794
    393    H    6.559    13.456    -4.445
    394    N    6.110    14.430    -2.668
    395    C    6.583    14.458    -1.384
    396    H    7.499    14.258    -1.037
    397    C    4.795    14.736    -2.959
    398    O    4.349    14.717    -4.102
    399    N    4.000    15.073    -1.883
    400    H    3.017    15.309    -2.079
    401    C    4.394    15.126    -0.563
    402    O    3.591    15.432    0.315
    403    C    5.783    14.791    -0.347
    404    H    5.985    14.856    0.630
    405    C    7.550    15.285    -4.551
    406    H    7.118    16.109    -4.185
    407    O    7.375    15.158    -5.967
    408    H    6.578    14.695    -6.237
    409    C    9.022    15.288    -4.172
    410    H    9.138    15.788    -3.314
    411    O    9.838    15.773    -5.239
    412    P    10.546    17.203    -5.052
    413    O    11.256    17.462    -6.320
    414    O    11.262    17.377    -3.761
    415    O    9.224    18.115    -5.005
    416    C    8.346    18.154    -6.135
    417    H    8.117    17.218    -6.402
    418    H    8.737    18.757    -6.830
    419    C    7.004    18.792    -5.785
    420    H    6.447    18.922    -6.606
    421    O    6.297    17.965    -4.873
    422    C    5.466    18.793    -4.034
    423    H    4.516    18.573    -4.255
    424    N    5.812    18.508    -2.627
    425    C    4.998    18.693    -1.531
    426    N    1.931    19.586    -0.169
    427    H    1.430    19.681    0.703
    428    H    1.419    19.813    -1.010
    429    N    3.715    19.118    -1.554
    430    C    3.188    19.195    -0.329
    431    N    3.872    18.880    0.817
    432    H    3.370    18.978    1.711
    433    C    5.182    18.442    0.867
    434    O    5.699    18.189    1.947
    435    C    5.753    18.354    -0.430
    436    N    7.030    17.960    -0.819
    437    C    6.996    18.073    -2.109
    438    H    7.884    17.807    -2.483
    439    C    5.750    20.233    -4.442
    440    H    5.821    20.787    -3.613
    441    O    4.767    20.730    -5.359
    442    H    3.878    20.394    -5.222
    443    C    7.121    20.142    -5.097
    444    H    7.827    20.087    -4.391
    445    O    7.383    21.233    -5.986
    446    P    8.454    22.348    -5.538
    447    O    8.583    23.312    -6.647
    448    O    9.697    21.789    -4.949
    449    O    7.653    23.064    -4.336
    450    C    8.278    23.935    -3.389
    451    H    8.587    24.761    -3.861
    452    H    8.952    23.415    -2.864
    453    C    7.280    24.437    -2.345
    454    H    7.759    24.899    -1.599
    455    O    6.407    25.365    -2.981
    456    C    5.048    24.895    -2.931
    457    H    4.517    25.625    -2.500
    458    N    4.615    24.641    -4.325
    459    C    5.253    23.718    -5.105
    460    H    6.024    23.117    -4.894
    461    C    4.864    23.503    -6.374
    462    H    5.188    22.891    -7.095
    463    C    3.547    25.381    -4.814
    464    O    2.984    26.202    -4.094
    465    N    3.148    25.168    -6.100
    466    C    3.769    24.267    -6.871
    467    N    3.358    24.088    -8.124
    468    H    2.583    24.638    -8.467
    469    H    3.811    23.414    -8.724
    470    C    5.004    23.651    -2.036
    471    H    4.635    22.903    -2.588
    472    O    4.252    23.871    -0.839
    473    H    3.528    24.495    -0.924
    474    C    6.453    23.340    -1.685
    475    H    6.679    22.463    -2.108
    476    O    6.642    23.391    -0.262
    477    P    6.037    22.247    0.710
    478    O    6.833    22.229    1.958
    479    O    5.857    20.989    -0.052
    480    O    4.568    22.824    1.067
    481    C    4.403    24.059    1.793
    482    H    4.793    24.807    1.256
    483    H    4.732    23.933    2.729
    484    C    2.931    24.455    1.967
    485    H    2.854    25.222    2.604
    486    O    2.410    24.850    0.698
    487    C    1.193    24.156    0.417
    488    H    0.457    24.813    0.582
    489    N    1.219    23.716    -0.992
    490    C    0.774    23.531    -3.131
    491    N    1.914    22.763    -2.903
    492    C    2.117    22.912    -1.631
    493    H    2.925    22.385    -1.366
    494    N    -1.043    24.593    -4.155
    495    C    -1.366    25.099    -2.965
    496    H    -2.155    25.693    -2.808
    497    N    -0.727    24.916    -1.814
    498    C    0.344    24.111    -1.974
    499    C    0.030    23.800    -4.282
    500    N    0.365    23.340    -5.485
    501    H    -0.198    23.599    -6.282
    502    H    1.175    22.743    -5.573
    503    C    1.057    23.007    1.394
    504    H    1.369    22.177    0.933
    505    O    -0.280    22.902    1.889
    506    H    -0.964    23.160    1.267
    507    C    2.027    23.343    2.521
    508    H    2.581    22.528    2.691
    509    O    1.292    23.860    3.638
    510    P    0.274    22.927    4.481
    511    O    0.230    23.454    5.864
    512    O    0.663    21.519    4.238
    513    O    -1.167    23.184    3.796
    514    C    -2.332    23.469    4.591
    515    H    -2.166    24.296    5.128
    516    H    -2.603    22.640    5.080
    517    C    -3.542    23.814    3.722
    518    H    -4.376    23.835    4.274
    519    O    -3.334    25.109    3.141
    520    C    -3.485    25.025    1.718
    521    H    -4.430    25.274    1.507
    522    N    -2.540    25.987    1.069
    523    C    -1.386    26.370    1.711
    524    H    -1.045    26.107    2.614
    525    C    -2.842    26.475    -0.202
    526    O    -3.853    26.159    -0.817
    527    N    -1.924    27.343    -0.752
    528    H    -2.136    27.713    -1.689
    529    C    -0.747    27.768    -0.175
    530    O    -0.002    28.539    -0.774
    531    C    -0.504    27.223    1.138
    532    H    0.364    27.580    1.483
    533    C    -3.264    23.548    1.356
    534    H    -2.281    23.378    1.283
    535    O    -3.961    23.190    0.155
    536    H    -4.015    23.885    -0.505
    537    C    -3.805    22.825    2.595
    538    H    -3.253    22.005    2.746
    539    O    -5.219    22.627    2.451
    540    P    -5.805    21.214    1.931
    541    O    -7.279    21.274    2.058
    542    O    -5.039    20.149    2.613
    543    O    -5.423    21.206    0.361
    544    C    -6.034    22.124    -0.560
    545    H    -5.771    23.057    -0.313
    546    H    -7.010    21.915    -0.629
    547    C    -5.496    21.932    -1.977
    548    H    -5.990    22.522    -2.615
    549    O    -4.084    22.240    -2.048
    550    C    -3.605    21.649    -3.255
    551    H    -3.608    22.374    -3.943
    552    N    -2.240    21.154    -3.010
    553    C    -0.174    20.485    -3.309
    554    N    -0.385    20.488    -1.930
    555    C    -1.615    20.892    -1.824
    556    H    -1.863    20.930    -0.856
    557    N    0.796    20.264    -5.429
    558    C    -0.358    20.669    -5.957
    559    H    -0.519    20.770    -6.939
    560    N    -1.463    21.000    -5.302
    561    C    -1.298    20.886    -3.969
    562    C    0.930    20.158    -4.099
    563    N    2.088    19.752    -3.596
    564    H    2.845    19.531    -4.227
    565    H    2.186    19.673    -2.594
    566    C    -4.602    20.559    -3.673
    567    H    -4.112    19.689    -3.731
    568    O    -5.265    20.897    -4.899
    569    H    -4.731    21.390    -5.526
    570    C    -5.575    20.505    -2.492
    571    H    -5.211    19.887    -1.795
    572    O    -6.886    20.160    -2.945
    573    P    -7.358    18.629    -2.779
    574    O    -8.713    18.578    -3.361
    575    O    -7.132    18.111    -1.406
    576    O    -6.348    17.854    -3.772
    577    C    -6.324    18.193    -5.163
    578    H    -6.225    19.184    -5.255
    579    H    -7.099    17.755    -5.618
    580    C    -5.106    17.634    -5.897
    581    H    -5.188    17.836    -6.873
    582    O    -3.883    18.241    -5.389
    583    C    -2.815    17.286    -5.564
    584    H    -2.204    17.675    -6.253
    585    N    -2.147    17.117    -4.259
    586    C    -0.670    16.679    -2.697
    587    N    -1.824    17.093    -2.036
    588    C    -2.648    17.330    -3.008
    589    H    -3.521    17.634    -2.628
    590    N    1.501    15.927    -3.158
    591    C    1.199    15.978    -4.457
    592    H    1.836    15.732    -5.188
    593    N    0.042    16.350    -4.997
    594    C    -0.855    16.689    -4.049
    595    C    0.586    16.275    -2.238
    596    N    0.907    16.240    -0.948
    597    H    1.838    15.951    -0.683
    598    H    0.213    16.503    -0.263
    599    C    -3.423    15.983    -6.112
    600    H    -3.044    15.212    -5.600
    601    O    -3.235    15.867    -7.524
    602    H    -2.409    16.228    -7.854
    603    C    -4.898    16.136    -5.758
    604    H    -5.028    15.877    -4.801
    605    O    -5.760    15.302    -6.551
    606    P    -6.201    13.847    -6.009
    607    O    -7.185    13.329    -6.975
    608    O    -6.507    13.570    -4.572
    609    O    -4.817    13.083    -6.287
    610    C    -4.182    13.292    -7.555
    611    H    -4.107    14.275    -7.724
    612    H    -4.640    12.731    -8.245
    613    C    -2.741    12.800    -7.571
    614    H    -2.333    12.923    -8.476
    615    O    -1.952    13.518    -6.598
    616    C    -0.824    12.682    -6.273