!*** FMO 5.2 (Gamess) INPUT generated by Facio 21.1.1.32 ***
 $CONTRL RUNTYP=OPTIMIZE NPRINT=-5 ISPHER=-1 MAXIT=50 $END
 $SYSTEM MWORDS=29 $END
 $GDDI NGROUP=1 $END
 $INTGRL NINTIC=-9000000 $END
 $SCF DIRSCF=.FALSE. NPUNCH=0 $END
!*** NumCPU : 2  MemPerNode : 512MB
 $FMOPRP
    NAODIR=210
    NGRFMO(1)=1, 1, 0, 0, 0,   0, 0, 0, 0, 0
    NPRINT=9
 $END
 $FMO
      SCFTYP(1)=RHF
      MODGRD=10
      MODMUL=0
      MAXCAO=5
      MAXBND=4
      NLAYER=1
      NFRAG=4
      ICHARG(1)=-1, -1, -1, 0
      FRGNAM(1)=Frag1, Frag2, Frag3, Frag4
      indat(1)=0, 1, -35, 0, 36, -68, 0, 69, -101, 0, 102, -131, 0
$END

$FMOBND
      -35    36    3-21G    MINI
      -68    69    3-21G    MINI
      -101    102    3-21G    MINI
$END
 $FMOHYB
 3-21G        9   5
   1 0  -0.070459   0.164841   0.000000   0.000000   0.502116
         0.466939   0.000000   0.000000   0.418036
   0 1  -0.070465   0.164857   0.473392   0.000000  -0.167359
         0.466967   0.394111   0.000000  -0.139327
   0 1  -0.070465   0.164857  -0.236695  -0.409969  -0.167359
         0.466967  -0.197055  -0.341311  -0.139327
   0 1  -0.070465   0.164857  -0.236695   0.409969  -0.167359
         0.466967  -0.197055   0.341311  -0.139327
   0 1   1.006716   0.074826   0.000000   0.000000   0.000000
        -0.143830   0.000000   0.000000  -0.000003
 MINI         5   5
   1 0  -0.104883   0.308874   0.000000   0.000000   0.521806
   0 1  -0.104883   0.308874   0.491961   0.000000  -0.173934
   0 1  -0.104883   0.308876  -0.245980  -0.426050  -0.173933
   0 1  -0.104883   0.308876  -0.245980   0.426050  -0.173933
   0 1   0.988209   0.063992   0.000000   0.000000   0.000000
 $END

 $DATA
 FMO calculation : XXNAMEXX
 C1 
 C.1-1    6
      N21 3
   
 O.1-1    8
      N21 3
   
 N.1-1    7
      N21 3
   
 H.1-1    1
      N21 3
   
 P.1-1   15
      N21 3
   
 $END
$FMOXYZ
    1    C    5.627    -8.157    3.190
    2    O    4.337    -7.542    3.330
    3    C    6.713    -7.099    3.130
    4    O    6.632    -6.405    1.860
    5    C    6.601    -5.985    4.170
    6    O    7.183    -6.339    5.430
    7    C    7.355    -4.850    3.500
    8    O    8.759    -5.046    3.604
    9    C    6.958    -5.037    2.040
                    
   10    N    5.377    -0.499    0.260
   11    C    6.579    -0.971    0.560
   12    N    6.922    -2.156    1.020
   13    C    5.825    -2.930    1.170
   14    C    4.530    -2.594    0.910
   15    C    4.301    -1.290    0.430
   16    N    3.084    -0.815    0.130
   17    N    3.676    -3.650    1.190
   18    C    4.470    -4.580    1.610
   19    N    5.785    -4.219    1.620
   20    H    7.404    -0.277    0.403
   21    H    4.147    -5.570    1.933
   22    H    7.849    -4.806    1.418
   23    H    8.973    -5.934    3.311
   24    H    5.536    -5.726    4.347
   25    H    7.716    -7.569    3.207
   26    H    5.637    -8.758    2.256
   27    H    2.263    -1.377    0.235
   28    H    2.956    0.117    -0.209
   29    H    3.703    -8.262    3.368
   30    H    7.094    -3.825    3.839
   31    H    5.802    -8.824    4.061
   32    P    7.170    -5.306    6.620
   33    O    5.786    -5.065    7.090
   34    O    8.139    -5.741    7.660
   35    C    9.142    -3.824    5.750
   36    O    7.724    -4.004    5.890
   37    C    9.484    -2.347    5.690
   38    O    9.041    -1.807    4.420
   39    C    8.788    -1.471    6.730
   40    O    9.469    -1.454    7.990
   41    C    8.809    -0.108    6.060
   42    O    10.096    0.486    6.165
   43    C    8.577    -0.480    4.600
   44    N    4.794    2.485    2.820
   45    C    6.061    2.737    3.120
   46    N    6.990    1.925    3.580
   47    C    6.484    0.682    3.730
   48    C    5.213    0.264    3.470
   49    C    4.316    1.238    2.990
   50    N    3.036    0.980    2.690
   51    N    5.065    -1.086    3.750
   52    C    6.236    -1.440    4.170
   53    N    7.147    -0.425    4.180
   54    H    6.380    3.767    2.963
   55    H    6.500    -2.447    4.492
   56    H    9.202    0.195    3.978
   57    H    10.757    -0.145    5.872
   58    H    7.752    -1.829    6.907
   59    H    10.582    -2.200    5.767
   60    H    9.481    -4.322    4.817
   61    H    2.649    0.064    2.795
   62    H    2.424    1.695    2.351
   63    H    8.035    0.614    6.398
   64    H    9.655    -4.289    6.619
   65    P    8.900    -0.591    9.180
   66    O    7.606    -1.137    9.650
   67    O    9.951    -0.434    10.220
   68    C    9.759    1.721    8.310
   69    O    8.663    0.804    8.450
   70    C    9.249    3.149    8.250
   71    O    8.584    3.364    6.980
   72    C    8.189    3.510    9.290
   73    O    8.754    3.892    10.550
   74    C    7.471    4.669    8.620
   75    O    8.234    5.864    8.725
   76    C    7.476    4.230    7.160
   77    N    2.692    4.681    5.380
   78    C    3.622    5.577    5.680
   79    N    4.842    5.396    6.140
   80    C    5.088    4.077    6.290
   81    C    4.244    3.039    6.030
   82    C    2.963    3.373    5.550
   83    N    2.025    2.465    5.250
   84    N    4.849    1.823    6.310
   85    C    6.025    2.157    6.730
   86    N    6.244    3.504    6.740
   87    H    3.334    6.616    5.523
   88    H    6.791    1.451    7.052
   89    H    7.637    5.136    6.538
   90    H    9.131    5.688    8.431
   91    H    7.511    2.649    9.466
   92    H    10.094    3.866    8.326
   93    H    10.314    1.485    7.377
   94    H    2.194    1.485    5.355
   95    H    1.124    2.737    4.911
   96    H    6.430    4.859    8.958
   97    H    10.442    1.606    9.179
   98    P    7.809    4.311    11.740
   99    O    7.014    3.152    12.210
  100    O    8.608    5.010    12.780
  101    C    7.283    6.721    10.870
  102    O    6.856    5.356    11.010
  103    C    6.082    7.646    10.810
  104    O    5.406    7.469    9.540
  105    C    4.995    7.378    11.850
  106    O    5.264    8.004    13.110
  107    C    3.765    7.965    11.180
  108    O    3.761    9.382    11.285
  109    C    4.006    7.599    9.720
  110    N    -0.264    5.394    7.940
  111    C    0.035    6.650    8.240
  112    N    1.159    7.157    8.700
  113    C    2.080    6.179    8.850
  114    C    1.930    4.850    8.590
  115    C    0.671    4.440    8.110
  116    N    0.372    3.168    7.810
  117    N    3.096    4.153    8.870
  118    C    3.905    5.071    9.290
  119    N    3.361    6.322    9.300
  120    H    -0.768    7.369    8.083
  121    H    4.931    4.892    9.612
  122    H    3.652    8.449    9.098
  123    H    4.610    9.720    10.991
  124    H    4.889    6.287    12.027
  125    H    6.405    8.706    10.887
  126    H    7.877    6.822    9.937
  127    H    1.044    2.435    7.915
  128    H    -0.533    2.910    7.471
  129    H    4.550    7.801    13.719
  130    H    2.787    7.562    11.519
  131    H    7.919    6.994    11.739
$END
