!*** FMO 5.3 (Gamess) INPUT generated by Facio 22.1.1.32 ***
 $CONTRL RUNTYP=ENERGY NPRINT=-5 ISPHER=1 MAXIT=200 $END
 $SYSTEM MWORDS=63 MEMDDI=63 $END
 $GDDI NGROUP=1 $END
 $SCF DIRSCF=.TRUE. NPUNCH=0 $END
!*** NumCPU : 2  MemPerNode : 512MB
 $PCM SOLVNT=WATER IEF=-10 ICOMP=2 ICAV=1 IDISP=1 IFMO=-1 $END
 $PCMCAV RADII=SUAHF $END
 $TESCAV NTSALL=60 $END
 $FMOPRP
    NAODIR=200
    NGRFMO(1)=1, 1, 0, 0, 0,   0, 0, 0, 0, 0
    IPIEDA=1
    NPRINT=9
 $END
 $FMO
      SCFTYP(1)=RHF
      MODGRD=10
      MODMUL=0
      MAXCAO=5
      MAXBND=24
      NLAYER=1
      MPLEVL(1)=2
      NFRAG=22
      ICHARG(1)=-1, -1, -1, -1, -1, -1, 0, -1, -1, -1, -1, -1, -1, -1, 0,
-1, -1, -1, -1, -1, -1, 0
      FRGNAM(1)=F1, F2, F3, F4, F5, F6, F7, F8, F9, F10, F11, F12, F13,
F14, F15, F16, F17, F18, F19, F20, F21, F22
      indat(1)=0
               1   -36   0
               37   -67   0
               68   -97   0
               98   -128   0
               129   -161   0
               162   -194   0
               195   -224   0
               225   -258   0
               259   -288   0
               289   -322   0
               323   -355   0
               356   -388   0
               389   -418   0
               419   -449   0
               450   -481   0
               482   -511   0
               512   -545   0
               546   -578   0
               579   -612   0
               613   -645   0
               646   -679   0
               680   -707   0
 $END

 $FMOBND
   -37   36       6-31G*    MINI
   -68   67       6-31G*    MINI
   -98   97       6-31G*    MINI
   -129   128       6-31G*    MINI
   -162   161       6-31G*    MINI
   -195   194       6-31G*    MINI
   -225   224       6-31G*    MINI
   -259   258       6-31G*    MINI
   -289   288       6-31G*    MINI
   -323   322       6-31G*    MINI
   -356   355       6-31G*    MINI
   -389   388       6-31G*    MINI
   -419   418       6-31G*    MINI
   -450   449       6-31G*    MINI
   -482   481       6-31G*    MINI
   -512   511       6-31G*    MINI
   -546   545       6-31G*    MINI
   -579   578       6-31G*    MINI
   -613   612       6-31G*    MINI
   -646   645       6-31G*    MINI
   -680   679       6-31G*    MINI
 $END
 $FMOHYB
 6-31G*      15   5
   1 0  -0.065034   0.288264   0.000000   0.000000   0.604412
         0.290129   0.000000   0.000000   0.319045  -0.017106
        -0.017106   0.057934   0.000000   0.000000   0.000000
   0 1  -0.065040   0.288293   0.569832   0.000000  -0.201456
         0.290147   0.300783   0.000000  -0.106342   0.049598
        -0.017106  -0.008771   0.000000  -0.027223   0.000000
   0 1  -0.065039   0.288293  -0.284916  -0.493490  -0.201455
         0.290145  -0.150392  -0.260486  -0.106340  -0.000427
         0.032923  -0.008771   0.033353   0.013612   0.023576
   0 1  -0.065039   0.288293  -0.284916   0.493490  -0.201455
         0.290145  -0.150392   0.260486  -0.106340  -0.000427
         0.032923  -0.008771  -0.033353   0.013612  -0.023576
   0 1   1.010938  -0.011975   0.000000   0.000000   0.000000
        -0.054085   0.000000   0.000000  -0.000000  -0.003174
        -0.003174  -0.003174   0.000000   0.000000   0.000000
 MINI         5   5
   1 0  -0.104883   0.308874   0.000000   0.000000   0.521806
   0 1  -0.104883   0.308874   0.491961   0.000000  -0.173934
   0 1  -0.104883   0.308876  -0.245980  -0.426050  -0.173933
   0 1  -0.104883   0.308876  -0.245980   0.426050  -0.173933
   0 1   0.988209   0.063992   0.000000   0.000000   0.000000
 $END
 
 $DATA
 FMO calculation
 C1 
 H.1-1    1
      N31 6
   
 O.1-1    8
      N31 6
      d 1
      1 0.800 1.0
   
 C.1-1    6
      N31 6
      d 1
      1 0.800 1.0
   
 N.1-1    7
      N31 6
      d 1
      1 0.800 1.0
   
 P.1-1   15
      N31 6
      d 1
      1 0.550 1.0
   
 $END
 $FMOXYZ
    1    H    1.127    -11.251    3.357
    2    O    0.663    -10.894    2.580
    3    C    0.641    -11.939    1.597
    4    H    0.163    -12.842    2.038
    5    H    1.687    -12.194    1.311
    6    C    -0.122    -11.543    0.329
    7    H    -0.074    -12.349    -0.434
    8    O    -1.527    -11.320    0.646
    9    C    -2.012    -10.227    -0.118
    10    H    -2.894    -10.595    -0.690
    11    N    -2.434    -9.110    0.745
    12    C    -3.251    -8.074    0.388
    13    N    -5.167    -6.450    -1.990
    14    H    -5.043    -7.015    -2.804
    15    H    -5.737    -5.625    -2.055
    16    N    -3.803    -7.891    -0.822
    17    C    -4.554    -6.794    -0.875
    18    N    -4.787    -5.993    0.213
    19    H    -5.384    -5.190    0.090
    20    C    -4.248    -6.166    1.482
    21    O    -4.510    -5.390    2.408
    22    C    -3.397    -7.304    1.529
    23    N    -2.654    -7.831    2.581
    24    C    -2.098    -8.903    2.062
    25    H    -1.445    -9.598    2.597
    26    C    -0.918    -9.825    -1.081
    27    H    -0.930    -8.739    -1.298
    28    O    -1.036    -10.548    -2.289
    29    H    -0.286    -10.266    -2.824
    30    C    0.340    -10.227    -0.315
    31    H    0.526    -9.510    0.518
    32    O    1.515    -10.464    -1.129
    33    P    2.509    -9.268    -1.397
    34    O    2.759    -8.557    -0.129
    35    O    3.693    -9.779    -2.118
    36    O    1.694    -8.325    -2.348
    37    C    1.379    -8.710    -3.703
    38    H    0.889    -9.709    -3.736
    39    H    2.307    -8.772    -4.316
    40    C    0.443    -7.687    -4.364
    41    H    0.160    -8.009    -5.388
    42    O    -0.783    -7.568    -3.591
    43    C    -1.221    -6.215    -3.607
    44    H    -2.250    -6.237    -4.033
    45    N    -1.279    -5.607    -2.248
    46    C    -0.549    -6.149    -1.216
    47    H    0.059    -7.016    -1.466
    48    C    -0.614    -5.654    0.025
    49    H    -0.077    -6.103    0.858
    50    C    -2.046    -4.467    -2.021
    51    O    -2.662    -3.952    -2.966
    52    N    -2.112    -3.944    -0.776
    53    C    -1.438    -4.514    0.238
    54    N    -1.555    -4.002    1.458
    55    H    -2.146    -3.206    1.608
    56    H    -1.109    -4.418    2.255
    57    C    -0.313    -5.456    -4.552
    58    H    -0.166    -4.399    -4.252
    59    O    -0.833    -5.508    -5.866
    60    H    -0.172    -5.089    -6.428
    61    C    0.983    -6.251    -4.439
    62    H    1.480    -6.048    -3.462
    63    O    1.877    -6.119    -5.567
    64    P    2.965    -4.979    -5.558
    65    O    3.570    -4.899    -4.211
    66    O    3.890    -5.204    -6.691
    67    O    2.155    -3.662    -5.794
    68    C    1.470    -3.322    -7.015
    69    H    0.741    -4.108    -7.310
    70    H    2.198    -3.223    -7.852
    71    C    0.711    -1.991    -6.877
    72    H    0.182    -1.731    -7.819
    73    O    -0.297    -2.095    -5.832
    74    C    -0.386    -0.865    -5.124
    75    H    -1.437    -0.516    -5.254
    76    N    -0.083    -1.044    -3.676
    77    C    0.693    -2.096    -3.247
    78    H    1.068    -2.746    -4.034
    79    C    -0.597    -0.135    -2.776
    80    O    -1.267    0.833    -3.116
    81    N    -0.309    -0.407    -1.462
    82    H    -0.657    0.267    -0.790
    83    C    0.410    -1.469    -0.958
    84    O    0.552    -1.599    0.256
    85    C    0.941    -2.346    -1.954
    86    H    1.523    -3.209    -1.640
    87    C    0.549    0.123    -5.806
    88    H    1.037    0.813    -5.086
    89    O    -0.155    0.873    -6.777
    90    H    0.501    1.419    -7.227
    91    C    1.578    -0.799    -6.456
    92    H    2.285    -1.181    -5.685
    93    O    2.246    -0.250    -7.615
    94    P    3.612    0.509    -7.430
    95    O    4.474    -0.278    -6.520
    96    O    4.172    0.816    -8.759
    97    O    3.218    1.842    -6.707
    98    C    2.539    2.915    -7.394
    99    H    1.592    2.568    -7.866
    100    H    3.181    3.338    -8.203
    101    C    2.214    4.046    -6.412
    102    H    1.724    4.895    -6.932
    103    O    1.305    3.563    -5.374
    104    C    1.620    4.200    -4.144
    105    H    0.699    4.753    -3.861
    106    N    1.967    3.231    -3.068
    107    C    2.694    2.107    -3.384
    108    H    2.955    1.987    -4.436
    109    C    3.019    1.201    -2.453
    110    H    3.571    0.294    -2.693
    111    C    1.605    3.468    -1.743
    112    O    0.993    4.509    -1.453
    113    N    1.918    2.560    -0.791
    114    C    2.599    1.446    -1.114
    115    N    2.868    0.547    -0.168
    116    H    2.561    0.701    0.775
    117    H    3.362    -0.297    -0.372
    118    C    2.722    5.211    -4.421
    119    H    3.426    5.332    -3.574
    120    O    2.145    6.453    -4.763
    121    H    2.848    7.067    -5.034
    122    C    3.408    4.590    -5.623
    123    H    3.992    3.696    -5.309
    124    O    4.160    5.528    -6.422
    125    P    5.729    5.536    -6.325
    126    O    6.193    6.897    -5.963
    127    O    6.183    4.441    -5.437
    128    O    6.218    5.248    -7.797
    129    C    6.233    3.907    -8.326
    130    H    5.357    3.310    -7.980
    131    H    7.157    3.382    -7.989
    132    C    6.226    3.897    -9.861
    133    H    6.320    2.853    -10.231
    134    O    4.963    4.412    -10.371
    135    C    5.171    4.947    -11.662
    136    H    4.582    4.312    -12.362
    137    N    4.695    6.324    -11.755
    138    C    4.119    8.309    -12.489
    139    N    3.858    8.307    -11.129
    140    C    4.206    7.105    -10.741
    141    H    4.154    6.733    -9.713
    142    N    4.286    8.963    -14.759
    143    C    4.750    7.736    -14.995
    144    H    4.987    7.520    -16.044
    145    N    4.959    6.727    -14.143
    146    C    4.619    7.087    -12.892
    147    C    3.962    9.292    -13.486
    148    N    3.482    10.517    -13.260
    149    H    3.172    10.812    -12.349
    150    H    2.990    10.963    -14.012
    151    C    6.651    4.825    -11.971
    152    H    7.037    5.700    -12.524
    153    O    6.890    3.646    -12.715
    154    H    7.844    3.491    -12.717
    155    C    7.273    4.749    -10.581
    156    H    7.260    5.745    -10.084
    157    O    8.567    4.109    -10.543
    158    P    9.879    4.980    -10.498
    159    O    9.820    5.883    -9.330
    160    O    11.044    4.073    -10.549
    161    O    9.842    5.868    -11.791
    162    C    10.075    5.336    -13.107
    163    H    9.438    4.443    -13.301
    164    H    11.141    5.024    -13.209
    165    C    9.770    6.392    -14.185
    166    H    9.921    5.976    -15.203
    167    O    8.376    6.811    -14.090
    168    C    8.276    8.211    -14.284
    169    H    7.509    8.383    -15.078
    170    N    7.847    8.889    -13.052
    171    C    7.030    10.333    -11.605
    172    N    7.377    9.210    -10.883
    173    C    7.841    8.381    -11.777
    174    H    8.180    7.371    -11.559
    175    N    6.265    12.486    -12.196
    176    C    6.630    12.183    -13.446
    177    H    6.464    12.973    -14.188
    178    N    7.174    11.056    -13.922
    179    C    7.330    10.156    -12.943
    180    C    6.448    11.559    -11.221
    181    N    6.104    11.845    -9.948
    182    H    6.279    11.210    -9.191
    183    H    5.722    12.746    -9.726
    184    C    9.623    8.678    -14.776
    185    H    9.834    9.730    -14.503
    186    O    9.678    8.529    -16.182
    187    H    10.581    8.735    -16.452
    188    C    10.565    7.703    -14.070
    189    H    10.628    7.944    -12.983
    190    O    11.864    7.542    -14.685
    191    P    13.066    8.442    -14.198
    192    O    13.116    8.427    -12.720
    193    O    14.296    8.032    -14.913
    194    O    12.663    9.889    -14.661
    195    C    12.631    10.221    -16.067
    196    H    11.961    9.542    -16.633
    197    H    13.648    10.133    -16.516
    198    C    12.139    11.655    -16.292
    199    H    12.130    11.905    -17.376
    200    O    10.769    11.799    -15.809
    201    C    10.625    13.076    -15.194
    202    H    9.776    13.566    -15.729
    203    N    10.292    12.989    -13.741
    204    C    10.539    11.832    -13.039
    205    H    10.996    11.022    -13.603
    206    C    10.227    11.713    -11.743
    207    H    10.399    10.796    -11.182
    208    C    9.748    14.087    -13.078
    209    O    9.557    15.141    -13.706
    210    N    9.447    13.996    -11.762
    211    C    9.657    12.846    -11.097
    212    N    9.334    12.772    -9.809
    213    H    8.908    13.561    -9.359
    214    H    9.472    11.935    -9.276
    215    C    11.904    13.859    -15.459
    216    H    12.151    14.552    -14.627
    217    O    11.782    14.585    -16.674
    218    H    12.651    14.949    -16.913
    219    C    12.932    12.736    -15.552
    220    H    13.180    12.352    -14.539
    221    O    14.126    13.078    -16.279
    222    H    14.643    13.728    -15.772
    223    H    4.221    21.256    -4.829
    224    O    4.431    21.067    -5.762
    225    C    4.547    22.338    -6.421
    226    H    5.284    22.967    -5.872
    227    H    3.565    22.862    -6.387
    228    C    4.989    22.227    -7.885
    229    H    4.975    23.221    -8.379
    230    O    6.359    21.730    -7.951
    231    C    6.477    20.850    -9.061
    232    H    7.310    21.231    -9.690
    233    N    6.787    19.479    -8.640
    234    C    7.318    18.498    -9.434
    235    N    8.484    17.423    -12.513
    236    H    8.335    18.215    -13.104
    237    H    8.839    16.572    -12.914
    238    N    7.634    18.622    -10.736
    239    C    8.140    17.500    -11.243
    240    N    8.347    16.370    -10.498
    241    H    8.738    15.561    -10.955
    242    C    8.040    16.215    -9.154
    243    O    8.262    15.151    -8.569
    244    C    7.470    17.399    -8.612
    245    N    7.013    17.673    -7.328
    246    C    6.615    18.924    -7.391
    247    H    6.200    19.505    -6.564
    248    C    5.189    20.923    -9.844
    249    H    4.942    19.967    -10.351
    250    O    5.260    21.963    -10.800
    251    H    4.397    21.982    -11.233
    252    C    4.182    21.246    -8.747
    253    H    3.996    20.343    -8.117
    254    O    2.965    21.882    -9.210
    255    P    1.733    20.957    -9.553
    256    O    1.561    19.968    -8.468
    257    O    0.553    21.793    -9.884
    258    O    2.191    20.188    -10.851
    259    C    2.317    20.883    -12.112
    260    H    2.997    21.761    -12.028
    261    H    1.326    21.264    -12.442
    262    C    2.867    19.962    -13.215
    263    H    2.986    20.531    -14.164
    264    O    4.189    19.463    -12.844
    265    C    4.347    18.130    -13.320
    266    H    5.239    18.143    -13.988
    267    N    4.554    17.143    -12.214
    268    C    4.193    17.443    -10.922
    269    H    3.724    18.419    -10.785
    270    C    5.125    15.924    -12.517
    271    O    5.477    15.628    -13.654
    272    N    5.287    15.074    -11.450
    273    H    5.650    14.155    -11.685
    274    C    4.940    15.301    -10.138
    275    O    5.105    14.424    -9.287
    276    C    4.395    16.605    -9.895
    277    H    4.114    16.875    -8.880
    278    C    3.114    17.809    -14.142
    279    H    2.823    16.747    -14.054
    280    O    3.331    18.135    -15.505
    281    H    2.465    18.124    -15.941
    282    C    2.054    18.696    -13.510
    283    H    1.735    18.289    -12.522
    284    O    0.947    18.990    -14.391
    285    P    -0.392    18.171    -14.247
    286    O    -0.955    18.445    -12.907
    287    O    -1.250    18.487    -15.412
    288    O    0.038    16.656    -14.283
    289    C    0.340    15.959    -15.510
    290    H    1.105    16.507    -16.109
    291    H    -0.575    15.873    -16.129
    292    C    0.866    14.528    -15.273
    293    H    1.214    14.075    -16.229
    294    O    2.016    14.573    -14.384
    295    C    1.941    13.525    -13.437
    296    H    2.917    12.999    -13.507
    297    N    1.796    14.025    -12.060
    298    C    2.085    13.323    -10.922
    299    N    3.177    10.444    -9.376
    300    H    3.206    10.024    -8.460
    301    H    3.336    9.827    -10.151
    302    N    2.547    12.061    -10.871
    303    C    2.732    11.656    -9.623
    304    N    2.525    12.449    -8.521
    305    H    2.618    12.040    -7.600
    306    C    2.061    13.756    -8.544
    307    O    1.903    14.420    -7.511
    308    C    1.835    14.195    -9.874
    309    N    1.394    15.423    -10.346
    310    C    1.374    15.269    -11.648
    311    H    1.084    16.032    -12.366
    312    C    0.813    12.601    -13.848
    313    H    0.294    12.138    -12.977
    314    O    1.308    11.592    -14.712
    315    H    0.534    11.166    -15.106
    316    C    -0.113    13.551    -14.597
    317    H    -0.700    14.153    -13.866
    318    O    -0.932    12.897    -15.589
    319    P    -2.492    12.855    -15.504
    320    O    -3.040    14.215    -15.714
    321    O    -2.959    11.827    -16.462
    322    O    -2.778    12.350    -14.042
    323    C    -3.981    12.786    -13.368
    324    H    -4.824    12.976    -14.087
    325    H    -3.776    13.734    -12.822
    326    C    -4.460    11.745    -12.344
    327    H    -5.344    12.128    -11.793
    328    O    -4.896    10.549    -13.060
    329    C    -4.572    9.398    -12.293
    330    H    -5.533    8.858    -12.127
    331    N    -3.651    8.510    -13.007
    332    C    -2.507    6.740    -13.626
    333    N    -2.248    7.720    -14.578
    334    C    -2.944    8.754    -14.163
    335    H    -2.998    9.725    -14.663
    336    N    -2.525    4.698    -12.420
    337    C    -3.308    5.317    -11.532
    338    H    -3.623    4.713    -10.676
    339    N    -3.806    6.558    -11.567
    340    C    -3.359    7.221    -12.649
    341    C    -2.098    5.393    -13.505
    342    N    -1.334    4.763    -14.415
    343    H    -0.898    5.265    -15.168
    344    H    -0.971    3.856    -14.200
    345    C    -4.017    9.858    -10.962
    346    H    -3.227    9.185    -10.564
    347    O    -5.070    9.962    -10.024
    348    H    -4.727    10.469    -9.272
    349    C    -3.440    11.221    -11.310
    350    H    -2.475    11.094    -11.858
    351    O    -3.351    12.105    -10.163
    352    P    -1.937    12.620    -9.681
    353    O    -1.161    13.037    -10.864
    354    O    -2.145    13.643    -8.634
    355    O    -1.292    11.340    -9.014
    356    C    -1.820    10.772    -7.792
    357    H    -2.937    10.731    -7.799
    358    H    -1.493    11.388    -6.921
    359    C    -1.300    9.342    -7.561
    360    H    -1.715    8.910    -6.624
    361    O    -1.731    8.470    -8.653
    362    C    -0.665    7.594    -8.990
    363    H    -1.079    6.558    -8.952
    364    N    -0.163    7.871    -10.353
    365    C    0.658    7.619    -12.382
    366    N    0.296    8.949    -12.277
    367    C    -0.171    9.058    -11.061
    368    H    -0.563    9.981    -10.641
    369    N    1.490    5.562    -13.208
    370    C    1.217    5.070    -11.994
    371    H    1.454    4.010    -11.863
    372    N    0.656    5.660    -10.932
    373    C    0.400    6.948    -11.198
    374    C    1.197    6.867    -13.448
    375    N    1.404    7.389    -14.673
    376    H    1.308    8.370    -14.834
    377    H    1.847    6.838    -15.382
    378    C    0.411    7.742    -7.924
    379    H    1.431    7.551    -8.323
    380    O    0.141    6.869    -6.839
    381    H    0.877    6.897    -6.202
    382    C    0.230    9.209    -7.523
    383    H    0.619    9.874    -8.326
    384    O    0.733    9.586    -6.214
    385    P    2.295    9.785    -6.066
    386    O    3.029    9.022    -7.092
    387    O    2.543    11.239    -6.057
    388    O    2.595    9.217    -4.645
    389    C    3.790    9.561    -3.903
    390    H    4.342    10.431    -4.331
    391    H    4.486    8.691    -3.934
    392    C    3.474    9.872    -2.433
    393    H    2.824    10.772    -2.360
    394    O    2.737    8.762    -1.847
    395    C    3.135    8.578    -0.506
    396    H    2.201    8.658    0.099
    397    N    3.773    7.243    -0.307
    398    C    4.348    6.565    -1.362
    399    H    4.324    7.083    -2.323
    400    C    3.759    6.700    0.956
    401    O    3.285    7.284    1.921
    402    N    4.304    5.445    1.049
    403    H    4.332    5.039    1.979
    404    C    4.812    4.672    0.032
    405    O    5.188    3.525    0.259
    406    C    4.853    5.328    -1.240
    407    H    5.272    4.795    -2.091
    408    C    4.053    9.736    -0.156
    409    H    4.816    9.452    0.591
    410    O    3.296    10.828    0.329
    411    H    3.908    11.570    0.416
    412    C    4.681    10.061    -1.506
    413    H    5.424    9.282    -1.792
    414    O    5.195    11.407    -1.629
    415    P    6.713    11.701    -1.336
    416    O    7.520    10.662    -2.008
    417    O    7.009    13.114    -1.666
    418    O    6.859    11.497    0.220
    419    C    6.272    12.429    1.157
    420    H    5.195    12.595    0.940
    421    H    6.780    13.419    1.096
    422    C    6.374    11.923    2.607
    423    H    5.939    12.667    3.314
    424    O    5.619    10.687    2.760
    425    C    6.314    9.820    3.650
    426    H    5.589    9.589    4.464
    427    N    6.745    8.544    3.007
    428    C    6.951    8.501    1.649
    429    H    6.757    9.427    1.113
    430    C    7.304    7.371    1.026
    431    H    7.413    7.316    -0.055
    432    C    7.010    7.411    3.773
    433    O    6.898    7.473    5.007
    434    N    7.381    6.262    3.165
    435    C    7.520    6.216    1.829
    436    N    7.855    5.065    1.247
    437    H    7.975    4.247    1.818
    438    H    7.966    4.971    0.259
    439    C    7.472    10.605    4.232
    440    H    8.341    9.963    4.473
    441    O    7.063    11.293    5.397
    442    H    7.803    11.853    5.662
    443    C    7.784    11.571    3.093
    444    H    8.288    11.033    2.257
    445    O    8.471    12.777    3.484
    446    P    10.035    12.847    3.384
    447    O    10.485    12.295    2.090
    448    O    10.483    14.221    3.705
    449    O    10.506    11.867    4.522
    450    C    10.381    12.251    5.909
    451    H    9.326    12.495    6.170
    452    H    11.001    13.154    6.123
    453    C    10.849    11.125    6.841
    454    H    10.774    11.444    7.901
    455    O    10.006    9.939    6.696
    456    C    10.825    8.775    6.769
    457    H    10.389    8.135    7.571
    458    N    10.815    8.017    5.507
    459    C    10.950    6.404    4.013
    460    N    10.544    7.540    3.324
    461    C    10.485    8.465    4.250
    462    H    10.211    9.507    4.075
    463    N    11.619    4.196    4.541
    464    C    11.787    4.628    5.796
    465    H    12.145    3.877    6.508
    466    N    11.549    5.839    6.309
    467    C    11.129    6.688    5.357
    468    C    11.199    5.077    3.598
    469    N    11.051    4.651    2.329
    470    H    10.747    5.264    1.599
    471    H    11.231    3.692    2.092
    472    C    12.220    9.215    7.181
    473    H    13.013    8.576    6.738
    474    O    12.345    9.199    8.595
    475    H    11.724    9.837    8.987
    476    C    12.275    10.625    6.595
    477    H    12.438    10.575    5.497
    478    O    13.225    11.516    7.209
    479    H    14.125    11.147    7.126
    480    H    12.881    -5.096    2.398
    481    O    12.784    -4.397    3.077
    482    C    13.535    -4.824    4.223
    483    H    14.594    -4.992    3.924
    484    H    13.124    -5.797    4.572
    485    C    13.504    -3.826    5.389
    486    H    13.993    -4.262    6.286
    487    O    14.252    -2.621    5.047
    488    C    13.586    -1.484    5.579
    489    H    14.334    -0.945    6.208
    490    N    13.071    -0.588    4.500
    491    C    12.891    -1.052    3.213
    492    H    13.177    -2.090    3.041
    493    C    12.751    0.712    4.822
    494    O    12.865    1.155    5.960
    495    N    12.304    1.480    3.776
    496    H    12.058    2.434    4.010
    497    C    12.137    1.095    2.463
    498    O    11.761    1.912    1.621
    499    C    12.466    -0.275    2.207
    500    H    12.387    -0.658    1.193
    501    C    12.472    -2.004    6.473
    502    H    11.603    -1.319    6.499
    503    O    12.943    -2.224    7.789
    504    H    12.175    -2.514    8.296
    505    C    12.113    -3.318    5.790
    506    H    11.557    -3.121    4.844
    507    O    11.463    -4.290    6.642
    508    P    9.892    -4.332    6.685
    509    O    9.374    -4.208    5.307
    510    O    9.470    -5.523    7.455
    511    O    9.494    -3.038    7.483
    512    C    9.838    -2.878    8.880
    513    H    10.917    -3.079    9.072
    514    H    9.268    -3.602    9.502
    515    C    9.510    -1.459    9.373
    516    H    9.771    -1.337    10.445
    517    O    10.287    -0.476    8.628
    518    C    9.493    0.682    8.409
    519    H    10.055    1.549    8.826
    520    N    9.246    0.913    6.979
    521    C    8.837    2.082    6.396
    522    N    7.946    5.423    6.634
    523    H    7.987    5.594    7.615
    524    H    7.581    6.138    6.031
    525    N    8.576    3.238    7.034
    526    C    8.231    4.212    6.194
    527    N    8.131    4.034    4.842
    528    H    7.858    4.822    4.274
    529    C    8.395    2.856    4.158
    530    O    8.291    2.792    2.930
    531    C    8.765    1.813    5.043
    532    N    9.100    0.492    4.780
    533    C    9.376    -0.002    5.961
    534    H    9.659    -1.036    6.161
    535    C    8.208    0.498    9.178
    536    H    7.341    0.997    8.698
    537    O    8.361    0.977    10.495
    538    H    7.536    0.761    10.948
    539    C    8.051    -1.017    9.173
    540    H    7.746    -1.375    8.162
    541    O    7.216    -1.543    10.235
    542    P    5.669    -1.678    9.975
    543    O    5.450    -2.295    8.652
    544    O    5.061    -2.356    11.141
    545    O    5.143    -0.202    9.910
    546    C    5.070    0.632    11.084
    547    H    6.048    0.693    11.617
    548    H    4.330    0.228    11.810
    549    C    4.637    2.055    10.694
    550    H    4.639    2.724    11.581
    551    O    5.566    2.616    9.714
    552    C    4.844    3.379    8.759
    553    H    5.300    4.396    8.753
    554    N    4.937    2.802    7.406
    555    C    4.959    2.557    5.217
    556    N    5.277    1.315    5.749
    557    C    5.241    1.509    7.046
    558    H    5.441    0.745    7.797
    559    N    4.551    4.336    3.708
    560    C    4.351    5.102    4.787
    561    H    4.099    6.148    4.581
    562    N    4.424    4.773    6.083
    563    C    4.740    3.477    6.227
    564    C    4.867    3.025    3.888
    565    N    5.095    2.242    2.815
    566    H    5.377    1.282    2.916
    567    H    5.145    2.650    1.899
    568    C    3.417    3.470    9.244
    569    H    2.688    3.536    8.412
    570    O    3.279    4.591    10.096
    571    H    2.377    4.571    10.438
    572    C    3.258    2.162    10.013
    573    H    3.177    1.300    9.311
    574    O    2.208    2.166    11.007
    575    P    0.733    1.778    10.612
    576    O    0.730    0.500    9.872
    577    O    -0.102    1.831    11.829
    578    O    0.278    2.901    9.617
    579    C    -0.036    4.246    10.033
    580    H    0.793    4.694    10.624
    581    H    -0.942    4.256    10.681
    582    C    -0.301    5.149    8.817
    583    H    -0.463    6.201    9.131
    584    O    0.850    5.139    7.927
    585    C    0.408    5.177    6.579
    586    H    0.890    6.072    6.117
    587    N    0.816    3.971    5.835
    588    C    0.946    3.854    4.473
    589    N    0.719    5.208    1.288
    590    H    0.376    6.130    1.467
    591    H    0.851    4.906    0.339
    592    N    0.700    4.819    3.566
    593    C    0.937    4.413    2.319
    594    N    1.409    3.165    2.015
    595    H    1.553    2.930    1.044
    596    C    1.700    2.163    2.931
    597    O    2.137    1.067    2.567
    598    C    1.395    2.564    4.257
    599    N    1.501    1.865    5.453
    600    C    1.136    2.737    6.362
    601    H    1.105    2.556    7.435
    602    C    -1.091    5.364    6.594
    603    H    -1.587    4.857    5.744
    604    O    -1.424    6.737    6.575
    605    H    -2.387    6.768    6.629
    606    C    -1.471    4.719    7.922
    607    H    -1.408    3.609    7.847
    608    O    -2.718    5.185    8.485
    609    P    -4.038    4.368    8.228
    610    O    -3.737    2.921    8.267
    611    O    -5.080    4.856    9.156
    612    O    -4.441    4.735    6.757
    613    C    -4.868    6.056    6.368
    614    H    -4.168    6.837    6.742
    615    H    -5.876    6.269    6.792
    616    C    -4.943    6.165    4.837
    617    H    -5.289    7.172    4.524
    618    O    -3.611    5.968    4.273
    619    C    -3.721    5.242    3.056
    620    H    -3.229    5.863    2.271
    621    N    -3.044    3.942    3.140
    622    C    -1.964    2.092    2.647
    623    N    -2.129    2.086    4.028
    624    C    -2.785    3.194    4.265
    625    H    -3.113    3.526    5.251
    626    N    -1.338    1.505    0.438
    627    C    -1.924    2.640    0.050
    628    H    -1.884    2.837    -1.026