!*** FMO 5.3 (Gamess) INPUT generated by Facio 22.1.1.32 ***
 $CONTRL RUNTYP=ENERGY NPRINT=-5 ISPHER=1 MAXIT=200 $END
 $SYSTEM MWORDS=63 MEMDDI=63 $END
 $GDDI NGROUP=1 $END
 $SCF DIRSCF=.TRUE. NPUNCH=0 $END
!*** NumCPU : 2  MemPerNode : 512MB
 $PCM SOLVNT=WATER IEF=-10 ICOMP=2 ICAV=1 IDISP=1 IFMO=-1 $END
 $PCMCAV RADII=SUAHF $END
 $TESCAV NTSALL=60 $END
 $FMOPRP
    NAODIR=200
    NGRFMO(1)=1, 1, 0, 0, 0,   0, 0, 0, 0, 0
    IPIEDA=1
    NPRINT=9
 $END
 $FMO
      SCFTYP(1)=RHF
      MODGRD=10
      MODMUL=0
      MAXCAO=5
      MAXBND=24
      NLAYER=1
      MPLEVL(1)=2
      NFRAG=22
      ICHARG(1)=-1, -1, -1, -1, -1, -1, 0, -1, -1, -1, -1, -1, -1, -1, 0,
-1, -1, -1, -1, -1, -1, 0
      FRGNAM(1)=F1, F2, F3, F4, F5, F6, F7, F8, F9, F10, F11, F12, F13,
F14, F15, F16, F17, F18, F19, F20, F21, F22
      indat(1)=0
               1   -36   0
               37   -67   0
               68   -97   0
               98   -128   0
               129   -161   0
               162   -194   0
               195   -224   0
               225   -258   0
               259   -288   0
               289   -322   0
               323   -355   0
               356   -388   0
               389   -418   0
               419   -449   0
               450   -481   0
               482   -511   0
               512   -545   0
               546   -578   0
               579   -612   0
               613   -645   0
               646   -679   0
               680   -707   0
 $END

 $FMOBND
   -37   36       6-31G*    MINI
   -68   67       6-31G*    MINI
   -98   97       6-31G*    MINI
   -129   128       6-31G*    MINI
   -162   161       6-31G*    MINI
   -195   194       6-31G*    MINI
   -225   224       6-31G*    MINI
   -259   258       6-31G*    MINI
   -289   288       6-31G*    MINI
   -323   322       6-31G*    MINI
   -356   355       6-31G*    MINI
   -389   388       6-31G*    MINI
   -419   418       6-31G*    MINI
   -450   449       6-31G*    MINI
   -482   481       6-31G*    MINI
   -512   511       6-31G*    MINI
   -546   545       6-31G*    MINI
   -579   578       6-31G*    MINI
   -613   612       6-31G*    MINI
   -646   645       6-31G*    MINI
   -680   679       6-31G*    MINI
 $END
 $FMOHYB
 6-31G*      15   5
   1 0  -0.065034   0.288264   0.000000   0.000000   0.604412
         0.290129   0.000000   0.000000   0.319045  -0.017106
        -0.017106   0.057934   0.000000   0.000000   0.000000
   0 1  -0.065040   0.288293   0.569832   0.000000  -0.201456
         0.290147   0.300783   0.000000  -0.106342   0.049598
        -0.017106  -0.008771   0.000000  -0.027223   0.000000
   0 1  -0.065039   0.288293  -0.284916  -0.493490  -0.201455
         0.290145  -0.150392  -0.260486  -0.106340  -0.000427
         0.032923  -0.008771   0.033353   0.013612   0.023576
   0 1  -0.065039   0.288293  -0.284916   0.493490  -0.201455
         0.290145  -0.150392   0.260486  -0.106340  -0.000427
         0.032923  -0.008771  -0.033353   0.013612  -0.023576
   0 1   1.010938  -0.011975   0.000000   0.000000   0.000000
        -0.054085   0.000000   0.000000  -0.000000  -0.003174
        -0.003174  -0.003174   0.000000   0.000000   0.000000
 MINI         5   5
   1 0  -0.104883   0.308874   0.000000   0.000000   0.521806
   0 1  -0.104883   0.308874   0.491961   0.000000  -0.173934
   0 1  -0.104883   0.308876  -0.245980  -0.426050  -0.173933
   0 1  -0.104883   0.308876  -0.245980   0.426050  -0.173933
   0 1   0.988209   0.063992   0.000000   0.000000   0.000000
 $END
 
 $DATA
 FMO calculation
 C1 
 H.1-1    1
      N31 6
   
 O.1-1    8
      N31 6
      d 1
      1 0.800 1.0
   
 C.1-1    6
      N31 6
      d 1
      1 0.800 1.0
   
 N.1-1    7
      N31 6
      d 1
      1 0.800 1.0
   
 P.1-1   15
      N31 6
      d 1
      1 0.550 1.0
   
 $END
 $FMOXYZ
    1    H    -0.326    -9.911    4.919
    2    O    -0.503    -9.784    3.968
    3    C    -0.335    -11.066    3.345
    4    H    -1.045    -11.793    3.804
    5    H    0.699    -11.430    3.532
    6    C    -0.565    -11.040    1.835
    7    H    -0.388    -12.048    1.397
    8    O    -1.946    -10.679    1.547
    9    C    -1.977    -9.859    0.393
    10    H    -2.667    -10.348    -0.332
    11    N    -2.489    -8.518    0.701
    12    C    -2.980    -7.617    -0.204
    13    N    -3.710    -6.736    -3.469
    14    H    -3.398    -7.528    -3.985
    15    H    -4.088    -5.947    -3.963
    16    N    -3.054    -7.797    -1.534
    17    C    -3.583    -6.747    -2.157
    18    N    -4.032    -5.633    -1.499
    19    H    -4.435    -4.890    -2.049
    20    C    -3.987    -5.424    -0.128
    21    O    -4.428    -4.385    0.375
    22    C    -3.383    -6.524    0.542
    23    N    -3.125    -6.726    1.893
    24    C    -2.595    -7.927    1.942
    25    H    -2.262    -8.444    2.847
    26    C    -0.579    -9.834    -0.185
    27    H    -0.354    -8.884    -0.707
    28    O    -0.424    -10.918    -1.078
    29    H    0.481    -10.876    -1.412
    30    C    0.280    -10.018    1.058
    31    H    0.292    -9.081    1.662
    32    O    1.607    -10.552    0.818
    33    P    2.812    -9.553    0.616
    34    O    2.790    -8.539    1.692
    35    O    4.044    -10.357    0.477
    36    O    2.492    -8.859    -0.764
    37    C    2.592    -9.633    -1.984
    38    H    2.022    -10.587    -1.911
    39    H    3.656    -9.901    -2.188
    40    C    2.056    -8.855    -3.196
    41    H    2.086    -9.481    -4.109
    42    O    0.666    -8.482    -2.982
    43    C    0.434    -7.186    -3.517
    44    H    -0.402    -7.312    -4.245
    45    N    0.029    -6.184    -2.487
    46    C    0.331    -6.385    -1.160
    47    H    0.861    -7.305    -0.931
    48    C    -0.050    -5.518    -0.213
    49    H    0.143    -5.687    0.845
    50    C    -0.629    -5.018    -2.869
    51    O    -0.859    -4.817    -4.070
    52    N    -1.013    -4.126    -1.927
    53    C    -0.762    -4.357    -0.628
    54    N    -1.198    -3.483    0.275
    55    H    -1.720    -2.678    -0.016
    56    H    -1.058    -3.623    1.255
    57    C    1.684    -6.784    -4.271
    58    H    1.854    -5.691    -4.255
    59    O    1.604    -7.232    -5.612
    60    H    2.452    -7.020    -6.018
    61    C    2.768    -7.529    -3.501
    62    H    2.958    -7.042    -2.517
    63    O    3.979    -7.777    -4.254
    64    P    5.142    -6.715    -4.200
    65    O    5.354    -6.325    -2.788
    66    O    6.314    -7.253    -4.926
    67    O    4.592    -5.464    -4.967
    68    C    4.358    -5.457    -6.392
    69    H    3.736    -6.324    -6.710
    70    H    5.324    -5.532    -6.946
    71    C    3.635    -4.168    -6.830
    72    H    3.407    -4.211    -7.917
    73    O    2.366    -4.026    -6.123
    74    C    2.126    -2.654    -5.836
    75    H    1.142    -2.420    -6.306
    76    N    2.041    -2.381    -4.376
    77    C    2.518    -3.279    -3.453
    78    H    3.038    -4.140    -3.870
    79    C    1.429    -1.216    -3.975
    80    O    0.979    -0.399    -4.764
    81    N    1.342    -1.049    -2.617
    82    H    0.928    -0.172    -2.318
    83    C    1.731    -1.933    -1.637
    84    O    1.516    -1.681    -0.453
    85    C    2.378    -3.111    -2.132
    86    H    2.736    -3.854    -1.424
    87    C    3.213    -1.856    -6.527
    88    H    3.487    -0.928    -5.982
    89    O    2.776    -1.538    -7.836
    90    H    2.712    -2.355    -8.352
    91    C    4.370    -2.852    -6.539
    92    H    4.791    -2.952    -5.515
    93    O    5.380    -2.615    -7.544
    94    P    6.608    -1.678    -7.207
    95    O    7.211    -2.129    -5.933
    96    O    7.499    -1.636    -8.387
    97    O    6.014    -0.247    -6.975
    98    C    5.382    0.511    -8.027
    99    H    4.514    -0.037    -8.450
    100    H    6.093    0.685    -8.863
    101    C    4.875    1.876    -7.542
    102    H    4.212    2.331    -8.306
    103    O    4.093    1.774    -6.325
    104    C    4.717    2.524    -5.308
    105    H    4.216    3.521    -5.337
    106    N    4.552    1.867    -3.994
    107    C    5.033    0.592    -3.839
    108    H    5.516    0.155    -4.714
    109    C    4.888    -0.064    -2.679
    110    H    5.273    -1.072    -2.520
    111    C    3.883    2.489    -2.942
    112    O    3.435    3.631    -3.090
    113    N    3.741    1.853    -1.767
    114    C    4.216    0.611    -1.615
    115    N    4.031    0.007    -0.447
    116    H    3.479    0.466    0.253
    117    H    4.368    -0.917    -0.258
    118    C    6.166    2.712    -5.721
    119    H    6.771    1.809    -5.490
    120    O    6.750    3.867    -5.152
    121    H    6.234    4.605    -5.509
    122    C    6.014    2.855    -7.231
    123    H    6.942    2.461    -7.708
    124    O    5.687    4.195    -7.660
    125    P    6.427    4.870    -8.875
    126    O    6.486    6.316    -8.615
    127    O    7.719    4.190    -9.124
    128    O    5.484    4.642    -10.110
    129    C    5.376    3.374    -10.790
    130    H    5.148    2.555    -10.083
    131    H    6.336    3.121    -11.290
    132    C    4.260    3.373    -11.844
    133    H    4.012    2.340    -12.169
    134    O    3.040    3.970    -11.303
    135    C    2.424    4.760    -12.304
    136    H    1.379    4.390    -12.403
    137    N    2.391    6.177    -11.934
    138    C    1.938    8.326    -11.878
    139    N    2.706    8.058    -10.756
    140    C    2.954    6.774    -10.834
    141    H    3.542    6.196    -10.116
    142    N    0.609    9.418    -13.504
    143    C    0.510    8.234    -14.106
    144    H    -0.097    8.225    -15.021
    145    N    1.042    7.059    -13.754
    146    C    1.737    7.174    -12.613
    147    C    1.333    9.505    -12.362
    148    N    1.427    10.700    -11.773
    149    H    1.849    10.845    -10.867
    150    H    0.872    11.441    -12.142
    151    C    3.173    4.526    -13.594
    152    H    3.192    5.429    -14.227
    153    O    2.597    3.447    -14.306
    154    H    3.204    3.216    -15.024
    155    C    4.570    4.202    -13.098
    156    H    5.074    5.126    -12.729
    157    O    5.364    3.447    -14.044
    158    P    6.585    4.124    -14.781
    159    O    7.421    4.811    -13.778
    160    O    7.274    3.107    -15.607
    161    O    5.944    5.223    -15.706
    162    C    5.037    4.900    -16.780
    163    H    4.303    4.117    -16.478
    164    H    5.604    4.509    -17.651
    165    C    4.248    6.127    -17.255
    166    H    3.554    5.856    -18.081
    167    O    3.447    6.628    -16.159
    168    C    3.459    8.037    -16.155
    169    H    2.396    8.364    -16.127
    170    N    4.142    8.556    -14.969
    171    C    4.808    9.840    -13.315
    172    N    5.392    8.602    -13.110
    173    C    4.963    7.876    -14.105
    174    H    5.198    6.823    -14.253
    175    N    4.161    12.096    -13.083
    176    C    3.461    11.930    -14.208
    177    H    2.912    12.814    -14.550
    178    N    3.345    10.849    -14.984
    179    C    4.042    9.826    -14.466
    180    C    4.862    11.046    -12.589
    181    N    5.596    11.196    -11.468
    182    H    6.112    10.435    -11.066
    183    H    5.619    12.086    -11.004
    184    C    4.096    8.472    -17.449
    185    H    4.601    9.452    -17.363
    186    O    3.109    8.537    -18.459
    187    H    3.571    8.752    -19.277
    188    C    5.085    7.334    -17.697
    189    H    5.942    7.404    -16.988
    190    O    5.502    7.160    -19.072
    191    P    6.822    7.874    -19.559
    192    O    7.891    7.667    -18.559
    193    O    7.121    7.445    -20.944
    194    O    6.423    9.394    -19.552
    195    C    5.449    9.900    -20.496
    196    H    4.490    9.337    -20.446
    197    H    5.833    9.799    -21.537
    198    C    5.150    11.388    -20.253
    199    H    4.411    11.770    -20.988
    200    O    4.577    11.585    -18.927
    201    C    5.115    12.780    -18.360
    202    H    4.232    13.408    -18.107
    203    N    5.891    12.536    -17.112
    204    C    6.382    11.283    -16.836
    205    H    6.192    10.522    -17.589
    206    C    7.051    11.023    -15.707
    207    H    7.439    10.031    -15.473
    208    C    6.134    13.579    -16.225
    209    O    5.708    14.714    -16.495
    210    N    6.826    13.344    -15.085
    211    C    7.273    12.105    -14.809
    212    N    7.941    11.894    -13.679
    213    H    8.082    12.654    -13.040
    214    H    8.288    10.989    -13.422
    215    C    5.923    13.486    -19.439
    216    H    6.790    14.039    -19.019
    217    O    5.089    14.371    -20.171
    218    H    5.570    14.669    -20.961
    219    C    6.379    12.303    -20.282
    220    H    7.213    11.782    -19.769
    221    O    6.735    12.637    -21.636
    222    H    7.551    13.171    -21.647
    223    H    9.116    20.014    -6.258
    224    O    8.666    19.942    -7.118
    225    C    8.431    21.278    -7.583
    226    H    9.404    21.812    -7.697
    227    H    7.849    21.824    -6.811
    228    C    7.673    21.332    -8.915
    229    H    7.451    22.383    -9.204
    230    O    8.503    20.764    -9.979
    231    C    7.673    20.010    -10.854
    232    H    7.847    20.397    -11.885
    233    N    7.999    18.575    -10.825
    234    C    7.662    17.659    -11.789
    235    N    6.136    16.880    -14.795
    236    H    5.752    17.754    -15.086
    237    H    5.987    16.068    -15.368
    238    N    6.972    17.915    -12.917
    239    C    6.799    16.826    -13.659
    240    N    7.309    15.601    -13.325
    241    H    7.148    14.831    -13.957
    242    C    8.056    15.313    -12.193
    243    O    8.501    14.177    -11.993
    244    C    8.201    16.459    -11.362
    245    N    8.847    16.612    -10.140
    246    C    8.695    17.886    -9.853
    247    H    9.081    18.390    -8.963
    248    C    6.239    20.271    -10.461
    249    H    5.570    19.411    -10.673
    250    O    5.771    21.418    -11.137
    251    H    4.876    21.576    -10.813
    252    C    6.363    20.531    -8.966
    253    H    6.548    19.575    -8.422
    254    O    5.282    21.313    -8.396
    255    P    4.033    20.547    -7.812
    256    O    4.540    19.475    -6.927
    257    O    3.130    21.548    -7.202
    258    O    3.358    19.902    -9.081
    259    C    2.644    20.719    -10.040
    260    H    3.315    21.478    -10.490
    261    H    1.800    21.260    -9.551
    262    C    2.079    19.894    -11.209
    263    H    1.564    20.553    -11.942
    264    O    3.160    19.220    -11.923
    265    C    2.716    17.931    -12.338
    266    H    2.843    17.934    -13.446
    267    N    3.508    16.822    -11.742
    268    C    4.219    16.999    -10.579
    269    H    4.161    18.001    -10.154
    270    C    3.505    15.607    -12.396
    271    O    2.907    15.419    -13.447
    272    N    4.251    14.631    -11.790
    273    H    4.233    13.723    -12.244
    274    C    4.999    14.734    -10.640
    275    O    5.637    13.765    -10.232
    276    C    4.970    16.031    -10.033
    277    H    5.565    16.204    -9.143
    278    C    1.241    17.820    -12.005
    279    H    0.955    16.789    -11.712
    280    O    0.456    18.240    -13.107
    281    H    -0.438    18.405    -12.773
    282    C    1.119    18.764    -10.818
    283    H    1.565    18.287    -9.912
    284    O    -0.217    19.281    -10.603
    285    P    -1.063    18.698    -9.401
    286    O    -0.412    19.069    -8.130
    287    O    -2.463    19.139    -9.596
    288    O    -0.979    17.137    -9.568
    289    C    -1.797    16.496    -10.578
    290    H    -1.562    16.889    -11.595
    291    H    -2.882    16.666    -10.390
    292    C    -1.554    14.987    -10.610
    293    H    -2.126    14.515    -11.437
    294    O    -0.155    14.729    -10.891
    295    C    0.253    13.592    -10.162
    296    H    0.650    12.888    -10.920
    297    N    1.324    13.920    -9.213
    298    C    2.321    13.070    -8.835
    299    N    3.866    10.005    -9.031
    300    H    3.311    9.451    -9.657
    301    H    4.578    9.554    -8.475
    302    N    2.481    11.813    -9.273
    303    C    3.536    11.233    -8.724
    304    N    4.389    11.860    -7.856
    305    H    5.121    11.303    -7.450
    306    C    4.274    13.169    -7.414
    307    O    5.106    13.669    -6.646
    308    C    3.129    13.798    -7.978
    309    N    2.645    15.090    -7.823
    310    C    1.563    15.115    -8.570
    311    H    0.909    15.978    -8.714
    312    C    -0.971    12.983    -9.502
    313    H    -0.735    12.495    -8.529
    314    O    -1.594    12.057    -10.383
    315    H    -2.288    11.615    -9.880
    316    C    -1.841    14.216    -9.313
    317    H    -1.425    14.843    -8.489
    318    O    -3.261    13.945    -9.186
    319    P    -3.937    14.173    -7.783
    320    O    -3.637    15.543    -7.317
    321    O    -5.371    13.804    -7.866
    322    O    -3.203    13.149    -6.839
    323    C    -3.333    13.251    -5.398
    324    H    -4.341    13.623    -5.091
    325    H    -2.582    13.968    -4.996
    326    C    -3.094    11.893    -4.712
    327    H    -3.107    12.003    -3.606
    328    O    -4.185    10.991    -5.059
    329    C    -3.669    9.694    -5.313
    330    H    -4.253    9.000    -4.666
    331    N    -3.865    9.310    -6.712
    332    C    -4.136    8.138    -8.548
    333    N    -4.358    9.465    -8.904
    334    C    -4.179    10.116    -7.781
    335    H    -4.289    11.194    -7.656
    336    N    -3.913    5.781    -8.621
    337    C    -3.576    5.851    -7.332
    338    H    -3.344    4.893    -6.857
    339    N    -3.551    6.915    -6.523
    340    C    -3.823    8.035    -7.205
    341    C    -4.215    6.930    -9.273
    342    N    -4.594    6.866    -10.558
    343    H    -4.700    7.696    -11.109
    344    H    -4.493    5.995    -11.040
    345    C    -2.214    9.670    -4.895
    346    H    -1.586    9.004    -5.525
    347    O    -2.120    9.263    -3.539
    348    H    -2.441    8.343    -3.458
    349    C    -1.816    11.128    -5.113
    350    H    -1.664    11.312    -6.202
    351    O    -0.703    11.563    -4.313
    352    P    0.700    11.878    -4.937
    353    O    0.506    12.639    -6.185
    354    O    1.491    12.555    -3.882
    355    O    1.284    10.454    -5.296
    356    C    1.660    9.446    -4.340
    357    H    0.864    9.323    -3.569
    358    H    2.600    9.760    -3.830
    359    C    1.895    8.071    -5.006
    360    H    2.219    7.312    -4.258
    361    O    0.633    7.610    -5.584
    362    C    0.875    7.001    -6.840
    363    H    0.455    5.970    -6.769
    364    N    0.203    7.709    -7.917
    365    C    -0.843    8.156    -9.789
    366    N    -0.720    9.359    -9.116
    367    C    -0.085    9.050    -8.015
    368    H    0.180    9.756    -7.226
    369    N    -1.359    6.517    -11.420
    370    C    -0.767    5.637    -10.609
    371    H    -0.743    4.605    -10.981
    372    N    -0.168    5.842    -9.430
    373    C    -0.267    7.132    -9.066
    374    C    -1.433    7.815    -11.023
    375    N    -2.078    8.712    -11.790
    376    H    -1.976    9.688    -11.599
    377    H    -2.409    8.441    -12.695
    378    C    2.365    6.922    -7.062
    379    H    2.661    7.067    -8.121
    380    O    2.830    5.660    -6.630
    381    H    3.790    5.727    -6.550
    382    C    2.873    8.072    -6.206
    383    H    2.721    9.028    -6.749
    384    O    4.229    7.887    -5.794
    385    P    5.316    9.003    -5.815
    386    O    5.647    9.378    -7.206
    387    O    4.928    10.148    -4.957
    388    O    6.581    8.236    -5.268
    389    C    7.438    8.577    -4.165
    390    H    8.252    9.261    -4.490
    391    H    7.936    7.638    -3.829
    392    C    6.720    9.175    -2.959
    393    H    6.364    10.194    -3.208
    394    O    5.562    8.368    -2.632
    395    C    5.401    8.318    -1.253
    396    H    4.340    8.603    -1.084
    397    N    5.680    6.943    -0.743
    398    C    6.300    5.985    -1.524
    399    H    6.611    6.310    -2.519
    400    C    5.159    6.624    0.486
    401    O    4.522    7.411    1.154
    402    N    5.399    5.327    0.884
    403    H    5.043    5.096    1.808
    404    C    5.980    4.313    0.155
    405    O    6.056    3.177    0.622
    406    C    6.450    4.710    -1.135
    407    H    6.895    3.962    -1.787
    408    C    6.316    9.386    -0.684
    409    H    6.615    9.168    0.354
    410    O    5.666    10.647    -0.743
    411    H    5.450    10.810    -1.672
    412    C    7.492    9.319    -1.657
    413    H    8.083    8.383    -1.515
    414    O    8.308    10.513    -1.732
    415    P    9.574    10.626    -0.814
    416    O    10.305    9.346    -0.924
    417    O    10.326    11.841    -1.198
    418    O    9.042    10.758    0.665
    419    C    8.277    11.910    1.084
    420    H    7.451    12.136    0.369
    421    H    8.941    12.804    1.135
    422    C    7.651    11.707    2.477
    423    H    7.087    12.612    2.787
    424    O    6.694    10.610    2.459
    425    C    6.801    9.859    3.665
    426    H    5.775    9.851    4.100
    427    N    7.234    8.448    3.445
    428    C    7.920    8.109    2.304
    429    H    8.102    8.920    1.604
    430    C    8.295    6.848    2.058
    431    H    8.804    6.566    1.139
    432    C    6.985    7.472    4.407
    433    O    6.412    7.792    5.460
    434    N    7.358    6.192    4.178
    435    C    7.985    5.863    3.037
    436    N    8.307    4.587    2.822
    437    H    8.065    3.901    3.512
    438    H    8.761    4.280    1.984
    439    C    7.723    10.627    4.593
    440    H    8.306    9.963    5.259
    441    O    6.980    11.546    5.373
    442    H    7.620    12.094    5.846
    443    C    8.631    11.340    3.596
    444    H    9.347    10.609    3.148
    445    O    9.266    12.538    4.098
    446    P    10.767    12.465    4.564
    447    O    11.543    11.680    3.587
    448    O    11.246    13.838    4.838
    449    O    10.674    11.658    5.916
    450    C    10.101    12.323    7.069
    451    H    9.065    12.684    6.862
    452    H    10.716    13.206    7.357
    453    C    10.052    11.383    8.280
    454    H    9.663    11.913    9.176
    455    O    9.148    10.270    8.010
    456    C    9.693    9.086    8.578
    457    H    8.909    8.674    9.253
    458    N    9.999    8.092    7.540
    459    C    10.388    6.208    6.473
    460    N    10.419    7.209    5.512
    461    C    10.183    8.304    6.194
    462    H    10.130    9.308    5.769
    463    N    10.505    4.104    7.553
    464    C    10.286    4.764    8.697
    465    H    10.267    4.148    9.603
    466    N    10.087    6.073    8.889
    467    C    10.144    6.741    7.727
    468    C    10.559    4.809    6.394
    469    N    10.769    4.148    5.241
    470    H    10.870    4.633    4.368
    471    H    10.887    3.152    5.241
    472    C    10.914    9.473    9.396
    473    H    11.698    8.686    9.373
    474    O    10.535    9.738    10.740
    475    H    11.297    10.100    11.229
    476    C    11.385    10.724    8.656
    477    H    11.917    10.442    7.719
    478    O    12.188    11.620    9.447
    479    H    13.038    11.200    9.666
    480    H    10.937    -5.499    7.559
    481    O    10.808    -4.655    8.031
    482    C    10.981    -4.920    9.431
    483    H    12.025    -5.264    9.608
    484    H    10.290    -5.739    9.732
    485    C    10.705    -3.699    10.322
    486    H    10.769    -3.981    11.396
    487    O    11.705    -2.657    10.090
    488    C    11.072    -1.384    10.132
    489    H    11.628    -0.779    10.883
    490    N    11.100    -0.699    8.806
    491    C    11.322    -1.397    7.639
    492    H    11.501    -2.466    7.754
    493    C    10.865    0.664    8.786
    494    O    10.640    1.312    9.786
    495    N    10.927    1.231    7.535
    496    H    10.770    2.232    7.513
    497    C    11.198    0.612    6.339
    498    O    11.287    1.280    5.308
    499    C    11.374    -0.807    6.435
    500    H    11.593    -1.375    5.535
    501    C    9.658    -1.611    10.630
    502    H    8.944    -0.860    10.234
    503    O    9.631    -1.596    12.044
    504    H    8.724    -1.804    12.293
    505    C    9.356    -3.001    10.082
    506    H    9.202    -2.959    8.978
    507    O    8.301    -3.716    10.766
    508    P    6.808    -3.540    10.293
    509    O    6.746    -3.740    8.832
    510    O    5.945    -4.397    11.135
    511    O    6.489    -2.033    10.608
    512    C    6.273    -1.584    11.968
    513    H    7.159    -1.790    12.603
    514    H    5.406    -2.115    12.425
    515    C    5.992    -0.073    12.023
    516    H    5.874    0.274    13.072
    517    O    7.106    0.668    11.443
    518    C    6.594    1.772    10.706
    519    H    7.079    2.685    11.122
    520    N    6.919    1.668    9.276
    521    C    6.927    2.700    8.379
    522    N    6.432    6.048    7.652
    523    H    6.142    6.426    8.532
    524    H    6.434    6.641    6.840
    525    N    6.621    3.981    8.647
    526    C    6.716    4.761    7.575
    527    N    7.079    4.294    6.340
    528    H    7.134    4.953    5.578
    529    C    7.407    2.979    6.035
    530    O    7.732    2.646    4.892
    531    C    7.302    2.140    7.174
    532    N    7.515    0.774    7.308
    533    C    7.264    0.535    8.573
    534    H    7.316    -0.441    9.056
    535    C    5.102    1.841    10.946
    536    H    4.538    2.230    10.072
    537    O    4.832    2.639    12.082
    538    H    3.885    2.555    12.270
    539    C    4.772    0.380    11.210
    540    H    4.798    -0.200    10.259
    541    O    3.561    0.155    11.965
    542    P    2.191    0.199    11.188
    543    O    2.379    -0.302    9.808
    544    O    1.211    -0.506    12.045
    545    O    1.809    1.723    11.160
    546    C    0.746    2.171    10.275
    547    H    -0.232    2.149    10.811
    548    H    0.631    1.512    9.378
    549    C    0.990    3.609    9.771
    550    H    0.762    4.345    10.576
    551    O    2.395    3.783    9.419
    552    C    2.508    4.549    8.237
    553    H    3.205    5.391    8.469
    554    N    3.055    3.740    7.141
    555    C    3.937    3.125    5.224
    556    N    3.779    1.961    5.969
    557    C    3.259    2.377    7.099
    558    H    2.999    1.733    7.946
    559    N    4.464    4.657    3.500
    560    C    3.991    5.611    4.306
    561    H    4.032    6.628    3.905
    562    N    3.502    5.503    5.544
    563    C    3.492    4.223    5.939
    564    C    4.463    3.374    3.937
    565    N    4.985    2.428    3.136
    566    H    5.078    1.474    3.427
    567    H    5.389    2.697    2.258
    568    C    1.132    5.098    7.925
    569    H    0.958    5.247    6.837
    570    O    0.937    6.321    8.615
    571    H    -0.002    6.543    8.550
    572    C    0.241    3.997    8.482
    573    H    0.279    3.103    7.815
    574    O    -1.104    4.422    8.788
    575    P    -2.249    4.133    7.743
    576    O    -2.177    2.708    7.354
    577    O    -3.532    4.600    8.311
    578    O    -1.869    5.010    6.495
    579    C    -2.017    6.448    6.508
    580    H    -1.410    6.905    7.323
    581    H    -3.083    6.734    6.678
    582    C    -1.566    7.063    5.174
    583    H    -1.648    8.171    5.191
    584    O    -0.166    6.742    4.931
    585    C    0.027    6.481    3.547
    586    H    0.825    7.172    3.192
    587    N    0.466    5.093    3.320
    588    C    1.089    4.607    2.200
    589    N    2.453    5.130    -0.939
    590    H    2.224    6.081    -1.124
    591    H    2.867    4.565    -1.661
    592    N    1.395    5.314    1.099
    593    C    2.057    4.595    0.199
    594    N    2.380    3.277    0.384
    595    H    2.850    2.792    -0.366
    596    C    2.077    2.521    1.510
    597    O    2.404    1.332    1.619
    598    C    1.352    3.278    2.469
    599    N    0.867    2.919    3.725
    600    C    0.344    4.031    4.188
    601    H    -0.150    4.140    5.155
    602    C    -1.271    6.795    2.831
    603    H    -1.449    6.132    1.961
    604    O    -1.288    8.140    2.397
    605    H    -2.172    8.292    2.043
    606    C    -2.301    6.547    3.927
    607    H    -2.441    5.449    4.080
    608    O    -3.543    7.270    3.754
    609    P    -4.795    6.534    3.153
    610    O    -4.876    5.167    3.715
    611    O    -5.978    7.394    3.343
    612    O    -4.479    6.459    1.618
    613    C    -4.514    7.649    0.791
    614    H    -3.922    8.481    1.239
    615    H    -5.561    8.011    0.669
    616    C    -3.957    7.358    -0.609
    617    H    -3.990    8.265    -1.252
    618    O    -2.556    6.954    -0.504
    619    C    -2.311    5.931    -1.461
    620    H    -1.450    6.269    -2.084
    621    N    -1.971    4.663    -0.804
    622    C    -1.130    2.687    -0.331
    623    N    -1.842    3.079    0.792
    624    C    -2.326    4.248    0.457
    625    H    -2.930    4.877    1.106
    626    N    0.248    1.477    -1.820
    627    C    0.082    2.491    -2.675
    628    H    0.592    2.383    -3.638
    629    N    -0.643    3.606    -2.535