!*** FMO 5.3 (Gamess) INPUT generated by Facio 22.1.1.32 ***
 $CONTRL RUNTYP=ENERGY NPRINT=-5 ISPHER=1 MAXIT=200 $END
 $SYSTEM MWORDS=63 MEMDDI=63 $END
 $GDDI NGROUP=1 $END
 $SCF DIRSCF=.TRUE. NPUNCH=0 $END
!*** NumCPU : 2  MemPerNode : 512MB
 $PCM SOLVNT=WATER IEF=-10 ICOMP=2 ICAV=1 IDISP=1 IFMO=-1 $END
 $PCMCAV RADII=SUAHF $END
 $TESCAV NTSALL=60 $END
 $FMOPRP
    NAODIR=200
    NGRFMO(1)=1, 1, 0, 0, 0,   0, 0, 0, 0, 0
    IPIEDA=1
    NPRINT=9
 $END
 $FMO
      SCFTYP(1)=RHF
      MODGRD=10
      MODMUL=0
      MAXCAO=5
      MAXBND=24
      NLAYER=1
      MPLEVL(1)=2
      NFRAG=22
      ICHARG(1)=-1, -1, -1, -1, -1, -1, 0, -1, -1, -1, -1, -1, -1, -1, 0,
-1, -1, -1, -1, -1, -1, 0
      FRGNAM(1)=F1, F2, F3, F4, F5, F6, F7, F8, F9, F10, F11, F12, F13,
F14, F15, F16, F17, F18, F19, F20, F21, F22
      indat(1)=0
               1   -36   0
               37   -67   0
               68   -97   0
               98   -128   0
               129   -161   0
               162   -194   0
               195   -224   0
               225   -258   0
               259   -288   0
               289   -322   0
               323   -355   0
               356   -388   0
               389   -418   0
               419   -449   0
               450   -481   0
               482   -511   0
               512   -545   0
               546   -578   0
               579   -612   0
               613   -645   0
               646   -679   0
               680   -707   0
 $END

 $FMOBND
   -37   36       6-31G*    MINI
   -68   67       6-31G*    MINI
   -98   97       6-31G*    MINI
   -129   128       6-31G*    MINI
   -162   161       6-31G*    MINI
   -195   194       6-31G*    MINI
   -225   224       6-31G*    MINI
   -259   258       6-31G*    MINI
   -289   288       6-31G*    MINI
   -323   322       6-31G*    MINI
   -356   355       6-31G*    MINI
   -389   388       6-31G*    MINI
   -419   418       6-31G*    MINI
   -450   449       6-31G*    MINI
   -482   481       6-31G*    MINI
   -512   511       6-31G*    MINI
   -546   545       6-31G*    MINI
   -579   578       6-31G*    MINI
   -613   612       6-31G*    MINI
   -646   645       6-31G*    MINI
   -680   679       6-31G*    MINI
 $END
 $FMOHYB
 6-31G*      15   5
   1 0  -0.065034   0.288264   0.000000   0.000000   0.604412
         0.290129   0.000000   0.000000   0.319045  -0.017106
        -0.017106   0.057934   0.000000   0.000000   0.000000
   0 1  -0.065040   0.288293   0.569832   0.000000  -0.201456
         0.290147   0.300783   0.000000  -0.106342   0.049598
        -0.017106  -0.008771   0.000000  -0.027223   0.000000
   0 1  -0.065039   0.288293  -0.284916  -0.493490  -0.201455
         0.290145  -0.150392  -0.260486  -0.106340  -0.000427
         0.032923  -0.008771   0.033353   0.013612   0.023576
   0 1  -0.065039   0.288293  -0.284916   0.493490  -0.201455
         0.290145  -0.150392   0.260486  -0.106340  -0.000427
         0.032923  -0.008771  -0.033353   0.013612  -0.023576
   0 1   1.010938  -0.011975   0.000000   0.000000   0.000000
        -0.054085   0.000000   0.000000  -0.000000  -0.003174
        -0.003174  -0.003174   0.000000   0.000000   0.000000
 MINI         5   5
   1 0  -0.104883   0.308874   0.000000   0.000000   0.521806
   0 1  -0.104883   0.308874   0.491961   0.000000  -0.173934
   0 1  -0.104883   0.308876  -0.245980  -0.426050  -0.173933
   0 1  -0.104883   0.308876  -0.245980   0.426050  -0.173933
   0 1   0.988209   0.063992   0.000000   0.000000   0.000000
 $END
 
 $DATA
 FMO calculation
 C1 
 H.1-1    1
      N31 6
   
 O.1-1    8
      N31 6
      d 1
      1 0.800 1.0
   
 C.1-1    6
      N31 6
      d 1
      1 0.800 1.0
   
 N.1-1    7
      N31 6
      d 1
      1 0.800 1.0
   
 P.1-1   15
      N31 6
      d 1
      1 0.550 1.0
   
 $END
 $FMOXYZ
    1    H    2.680    -11.818    5.368
    2    O    1.969    -11.671    4.716
    3    C    1.931    -12.838    3.881
    4    H    1.668    -13.724    4.502
    5    H    2.941    -13.014    3.449
    6    C    0.919    -12.730    2.737
    7    H    0.918    -13.648    2.116
    8    O    -0.424    -12.574    3.276
    9    C    -1.154    -11.680    2.454
    10    H    -2.076    -12.215    2.130
    11    N    -1.538    -10.468    3.192
    12    C    -2.504    -9.573    2.821
    13    N    -4.988    -8.581    0.630
    14    H    -4.945    -9.276    -0.087
    15    H    -5.652    -7.832    0.542
    16    N    -3.262    -9.645    1.714
    17    C    -4.155    -8.664    1.648
    18    N    -4.291    -7.704    2.617
    19    H    -5.002    -7.000    2.493
    20    C    -3.529    -7.606    3.776
    21    O    -3.720    -6.709    4.604
    22    C    -2.548    -8.633    3.834
    23    N    -1.603    -8.918    4.812
    24    C    -1.028    -10.021    4.391
    25    H    -0.228    -10.560    4.907
    26    C    -0.297    -11.371    1.246
    27    H    -0.470    -10.350    0.853
    28    O    -0.546    -12.320    0.229
    29    H    0.048    -12.094    -0.498
    30    C    1.111    -11.524    1.809
    31    H    1.362    -10.658    2.463
    32    O    2.138    -11.818    0.828
    33    P    2.967    -10.629    0.211
    34    O    3.374    -9.720    1.301
    35    O    4.044    -11.184    -0.644
    36    O    1.921    -9.882    -0.699
    37    C    1.388    -10.514    -1.886
    38    H    0.988    -11.532    -1.672
    39    H    2.187    -10.632    -2.649
    40    C    0.268    -9.676    -2.519
    41    H    -0.139    -10.182    -3.422
    42    O    -0.829    -9.526    -1.577
    43    C    -1.388    -8.226    -1.717
    44    H    -2.466    -8.390    -1.951
    45    N    -1.288    -7.409    -0.475
    46    C    -0.356    -7.722    0.487
    47    H    0.286    -8.575    0.270
    48    C    -0.269    -7.029    1.630
    49    H    0.431    -7.292    2.423
    50    C    -2.118    -6.306    -0.295
    51    O    -2.922    -5.997    -1.187
    52    N    -2.039    -5.589    0.849
    53    C    -1.158    -5.931    1.805
    54    N    -1.132    -5.233    2.936
    55    H    -1.778    -4.477    3.067
    56    H    -0.507    -5.458    3.681
    57    C    -0.721    -7.571    -2.909
    58    H    -0.640    -6.470    -2.804
    59    O    -1.436    -7.885    -4.088
    60    H    -0.909    -7.543    -4.821
    61    C    0.649    -8.240    -2.905
    62    H    1.282    -7.842    -2.078
    63    O    1.325    -8.246    -4.183
    64    P    2.270    -7.053    -4.571
    65    O    3.158    -6.771    -3.422
    66    O    2.917    -7.349    -5.871
    67    O    1.297    -5.832    -4.738
    68    C    0.426    -5.705    -5.880
    69    H    -0.224    -6.600    -6.000
    70    H    1.027    -5.612    -6.814
    71    C    -0.468    -4.463    -5.773
    72    H    -1.159    -4.395    -6.639
    73    O    -1.285    -4.518    -4.567
    74    C    -1.449    -3.205    -4.050
    75    H    -2.548    -3.007    -4.023
    76    N    -0.881    -3.081    -2.674
    77    C    0.102    -3.939    -2.227
    78    H    0.446    -4.672    -2.955
    79    C    -1.365    -2.086    -1.856
    80    O    -2.217    -1.285    -2.219
    81    N    -0.836    -2.064    -0.591
    82    H    -1.173    -1.321    0.011
    83    C    0.096    -2.926    -0.057
    84    O    0.443    -2.809    1.116
    85    C    0.583    -3.912    -0.975
    86    H    1.321    -4.635    -0.629
    87    C    -0.791    -2.257    -5.042
    88    H    -0.353    -1.365    -4.549
    89    O    -1.727    -1.855    -6.024
    90    H    -1.248    -1.308    -6.658
    91    C    0.288    -3.138    -5.655
    92    H    1.112    -3.313    -4.925
    93    O    0.754    -2.715    -6.959
    94    P    2.013    -1.768    -7.036
    95    O    3.033    -2.268    -6.088
    96    O    2.439    -1.622    -8.443
    97    O    1.539    -0.360    -6.519
    98    C    0.597    0.453    -7.248
    99    H    -0.303    -0.131    -7.533
    100    H    1.068    0.850    -8.181
    101    C    0.119    1.648    -6.407
    102    H    -0.621    2.261    -6.967
    103    O    -0.539    1.173    -5.194
    104    C    -0.213    2.032    -4.111
    105    H    -1.196    2.412    -3.746
    106    N    0.487    1.321    -2.997
    107    C    1.328    0.269    -3.274
    108    H    1.406    -0.011    -4.321
    109    C    1.966    -0.397    -2.301
    110    H    2.610    -1.250    -2.501
    111    C    0.330    1.741    -1.679
    112    O    -0.399    2.715    -1.438
    113    N    0.973    1.089    -0.684
    114    C    1.776    0.049    -0.961
    115    N    2.384    -0.584    0.044
    116    H    2.210    -0.294    0.988
    117    H    2.997    -1.358    -0.105
    118    C    0.583    3.204    -4.675
    119    H    1.353    3.563    -3.961
    120    O    -0.272    4.277    -5.035
    121    H    0.265    4.931    -5.511
    122    C    1.235    2.575    -5.908
    123    H    2.081    1.919    -5.602
    124    O    1.621    3.502    -6.957
    125    P    2.835    4.478    -6.651
    126    O    2.314    5.855    -6.550
    127    O    3.595    3.959    -5.496
    128    O    3.697    4.328    -7.968
    129    C    4.960    5.035    -8.062
    130    H    5.682    4.681    -7.288
    131    H    4.811    6.128    -7.900
    132    C    5.591    4.859    -9.452
    133    H    5.742    3.783    -9.697
    134    O    4.685    5.415    -10.454
    135    C    5.422    6.134    -11.433
    136    H    5.122    5.731    -12.424
    137    N    5.106    7.570    -11.394
    138    C    4.982    9.729    -11.807
    139    N    4.081    9.478    -10.779
    140    C    4.192    8.186    -10.580
    141    H    3.642    7.609    -9.831
    142    N    6.287    10.810    -13.462
    143    C    6.783    9.604    -13.741
    144    H    7.537    9.588    -14.536
    145    N    6.542    8.430    -13.155
    146    C    5.614    8.559    -12.198
    147    C    5.347    10.909    -12.491
    148    N    4.821    12.115    -12.248
    149    H    4.102    12.280    -11.561
    150    H    5.168    12.888    -12.778
    151    C    6.885    5.849    -11.191
    152    H    7.530    6.702    -11.466
    153    O    7.287    4.699    -11.909
    154    H    8.167    4.449    -11.592
    155    C    6.910    5.620    -9.690
    156    H    6.783    6.602    -9.172
    157    O    8.063    4.856    -9.246
    158    P    9.019    5.521    -8.177
    159    O    8.190    6.264    -7.208
    160    O    9.911    4.483    -7.616
    161    O    9.886    6.564    -8.983
    162    C    10.622    6.186    -10.171
    163    H    10.102    5.395    -10.762
    164    H    11.622    5.792    -9.883
    165    C    10.828    7.385    -11.109
    166    H    11.383    7.084    -12.023
    167    O    9.531    7.880    -11.531
    168    C    9.544    9.289    -11.569
    169    H    9.184    9.581    -12.580
    170    N    8.645    9.851    -10.555
    171    C    7.311    11.186    -9.435
    172    N    7.274    9.968    -8.778
    173    C    8.071    9.209    -9.483
    174    H    8.271    8.159    -9.278
    175    N    6.932    13.438    -10.033
    176    C    7.800    13.243    -11.032
    177    H    7.990    14.118    -11.666
    178    N    8.486    12.139    -11.342
    179    C    8.169    11.132    -10.517
    180    C    6.651    12.407    -9.201
    181    N    5.789    12.600    -8.189
    182    H    5.638    11.910    -7.483
    183    H    5.394    13.515    -8.057
    184    C    10.976    9.723    -11.399
    185    H    11.063    10.722    -10.931
    186    O    11.616    9.740    -12.661
    187    H    12.540    9.961    -12.499
    188    C    11.517    8.615    -10.501
    189    H    11.119    8.723    -9.468
    190    O    12.948    8.441    -10.537
    191    P    13.850    9.176    -9.477
    192    O    13.268    8.995    -8.127
    193    O    15.253    8.741    -9.668
    194    O    13.714    10.688    -9.894
    195    C    14.286    11.154    -11.139
    196    H    13.913    10.572    -12.009
    197    H    15.393    11.042    -11.126
    198    C    13.969    12.638    -11.370
    199    H    14.423    13.001    -12.316
    200    O    12.529    12.830    -11.477
    201    C    12.167    14.048    -10.838
    202    H    11.650    14.650    -11.622
    203    N    11.235    13.840    -9.690
    204    C    11.141    12.605    -9.091
    205    H    11.781    11.828    -9.502
    206    C    10.298    12.376    -8.076
    207    H    10.195    11.396    -7.612
    208    C    10.487    14.900    -9.187
    209    O    10.625    16.027    -9.686
    210    N    9.628    14.691    -8.162
    211    C    9.519    13.471    -7.609
    212    N    8.658    13.281    -6.610
    213    H    8.076    14.042    -6.311
    214    H    8.562    12.392    -6.158
    215    C    13.454    14.758    -10.438
    216    H    13.337    15.343    -9.501
    217    O    13.877    15.610    -11.490
    218    H    14.782    15.910    -11.301
    219    C    14.399    13.577    -10.235
    220    H    14.183    13.073    -9.270
    221    O    15.799    13.898    -10.348
    222    H    16.073    14.489    -9.620
    223    H    2.054    21.619    -3.345
    224    O    2.739    21.511    -4.031
    225    C    3.124    22.826    -4.459
    226    H    3.560    23.373    -3.593
    227    H    2.221    23.382    -4.797
    228    C    4.150    22.822    -5.600
    229    H    4.382    23.859    -5.931
    230    O    5.397    22.220    -5.141
    231    C    5.948    21.440    -6.193
    232    H    6.985    21.814    -6.363
    233    N    6.004    20.014    -5.844
    234    C    6.784    19.074    -6.461
    235    N    9.136    18.237    -8.857
    236    H    9.308    19.109    -9.314
    237    H    9.654    17.426    -9.143
    238    N    7.612    19.297    -7.494
    239    C    8.280    18.206    -7.854
    240    N    8.137    16.999    -7.223
    241    H    8.695    16.224    -7.545
    242    C    7.299    16.739    -6.146
    243    O    7.250    15.616    -5.637
    244    C    6.556    17.895    -5.778
    245    N    5.617    18.082    -4.770
    246    C    5.313    19.358    -4.847
    247    H    4.613    19.888    -4.194
    248    C    5.121    21.692    -7.430
    249    H    5.092    20.819    -8.116
    250    O    5.623    22.824    -8.112
    251    H    5.053    22.954    -8.879
    252    C    3.755    21.979    -6.827
    253    H    3.297    21.039    -6.438
    254    O    2.866    22.732    -7.682
    255    P    1.887    21.955    -8.640
    256    O    1.173    20.937    -7.843
    257    O    1.052    22.945    -9.350
    258    O    2.839    21.243    -9.670
    259    C    3.500    22.031    -10.693
    260    H    4.152    22.810    -10.243
    261    H    2.757    22.555    -11.338
    262    C    4.374    21.174    -11.622
    263    H    4.853    21.814    -12.394
    264    O    5.456    20.540    -10.874
    265    C    5.683    19.237    -11.402
    266    H    6.756    19.220    -11.706
    267    N    5.425    18.169    -10.401
    268    C    4.589    18.386    -9.331
    269    H    4.157    19.386    -9.275
    270    C    6.018    16.941    -10.596
    271    O    6.735    16.696    -11.560
    272    N    5.754    16.012    -9.628
    273    H    6.167    15.096    -9.774
    274    C    4.937    16.156    -8.530
    275    O    4.787    15.225    -7.743
    276    C    4.342    17.451    -8.402
    277    H    3.709    17.652    -7.544
    278    C    4.817    19.089    -12.641
    279    H    4.455    18.049    -12.781
    280    O    5.536    19.507    -13.787
    281    H    4.888    19.666    -14.491
    282    C    3.659    20.026    -12.334
    283    H    2.970    19.570    -11.580
    284    O    2.982    20.524    -13.509
    285    P    1.574    19.961    -13.913
    286    O    0.602    20.297    -12.853
    287    O    1.262    20.444    -15.275
    288    O    1.776    18.399    -13.914
    289    C    2.461    17.732    -14.996
    290    H    3.490    18.137    -15.110
    291    H    1.920    17.893    -15.957
    292    C    2.563    16.215    -14.755
    293    H    3.107    15.711    -15.583
    294    O    3.306    15.954    -13.531
    295    C    2.729    14.841    -12.865
    296    H    3.555    14.118    -12.762
    297    N    2.251    15.196    -11.533
    298    C    2.256    14.397    -10.419
    299    N    2.908    11.372    -8.873
    300    H    2.651    10.939    -8.014
    301    H    3.257    10.811    -9.627
    302    N    2.709    13.130    -10.354
    303    C    2.554    12.615    -9.132
    304    N    2.090    13.328    -8.047
    305    H    1.947    12.845    -7.180
    306    C    1.610    14.633    -8.106
    307    O    1.163    15.226    -7.118
    308    C    1.733    15.183    -9.408
    309    N    1.407    16.452    -9.880
    310    C    1.730    16.407    -11.151
    311    H    1.628    17.227    -11.864
    312    C    1.641    14.264    -13.750
    313    H    0.784    13.848    -13.174
    314    O    2.192    13.242    -14.569
    315    H    2.123    12.410    -14.063
    316    C    1.220    15.501    -14.535
    317    H    0.617    16.173    -13.876
    318    O    0.583    15.234    -15.801
    319    P    -0.978    15.358    -15.927
    320    O    -1.425    16.707    -15.510
    321    O    -1.396    14.961    -17.290
    322    O    -1.586    14.321    -14.909
    323    C    -3.031    14.286    -14.739
    324    H    -3.587    14.617    -15.651
    325    H    -3.333    14.970    -13.910
    326    C    -3.527    12.880    -14.381
    327    H    -4.589    12.907    -14.052
    328    O    -3.477    12.043    -15.573
    329    C    -3.021    10.747    -15.218
    330    H    -3.785    10.029    -15.598
    331    N    -1.736    10.449    -15.855
    332    C    0.004    9.389    -16.671
    333    N    0.138    10.714    -17.069
    334    C    -0.913    11.306    -16.555
    335    H    -1.146    12.371    -16.639
    336    N    0.345    7.059    -16.411
    337    C    -0.780    7.052    -15.692
    338    H    -1.077    6.077    -15.293
    339    N    -1.593    8.069    -15.387
    340    C    -1.146    9.215    -15.926
    341    C    0.776    8.238    -16.928
    342    N    1.898    8.256    -17.664
    343    H    2.302    9.114    -17.986
    344    H    2.464    7.432    -17.708
    345    C    -2.966    10.665    -13.710
    346    H    -2.148    10.009    -13.345
    347    O    -4.207    10.207    -13.207
    348    H    -4.194    10.354    -12.251
    349    C    -2.702    12.113    -13.330
    350    H    -1.628    12.358    -13.507
    351    O    -3.147    12.461    -12.006
    352    P    -2.138    12.662    -10.819
    353    O    -1.057    13.572    -11.247
    354    O    -2.925    13.048    -9.630
    355    O    -1.547    11.222    -10.603
    356    C    -2.328    10.152    -10.025
    357    H    -3.306    10.035    -10.546
    358    H    -2.551    10.375    -8.960
    359    C    -1.595    8.798    -10.112
    360    H    -2.230    7.977    -9.708
    361    O    -1.372    8.504    -11.524
    362    C    -0.097    7.920    -11.699
    363    H    -0.274    6.960    -12.237
    364    N    0.778    8.775    -12.520
    365    C    2.311    9.474    -13.936
    366    N    1.624    10.605    -13.524
    367    C    0.727    10.142    -12.690
    368    H    -0.010    10.759    -12.178
    369    N    3.851    8.038    -15.008
    370    C    3.282    7.045    -14.321
    371    H    3.708    6.051    -14.492
    372    N    2.275    7.088    -13.441
    373    C    1.814    8.343    -13.312
    374    C    3.370    9.296    -14.849
    375    N    3.891    10.315    -15.559
    376    H    3.594    11.260    -15.433
    377    H    4.702    10.153    -16.126
    378    C    0.475    7.633    -10.325
    379    H    1.578    7.732    -10.296
    380    O    0.107    6.330    -9.901
    381    H    0.402    6.231    -8.984
    382    C    -0.187    8.713    -9.469
    383    H    0.324    9.690    -9.631
    384    O    -0.241    8.339    -8.075
    385    P    -0.501    9.396    -6.949
    386    O    0.286    10.622    -7.215
    387    O    -1.962    9.541    -6.790
    388    O    0.034    8.701    -5.656
    389    C    1.369    8.915    -5.166
    390    H    1.941    9.689    -5.739
    391    H    1.934    7.959    -5.246
    392    C    1.340    9.355    -3.705
    393    H    0.748    10.286    -3.573
    394    O    0.755    8.318    -2.860
    395    C    1.460    8.273    -1.629
    396    H    0.694    8.455    -0.840
    397    N    2.125    6.956    -1.409
    398    C    2.469    6.142    -2.468
    399    H    2.215    6.525    -3.461
    400    C    2.396    6.578    -0.111
    401    O    2.139    7.291    0.851
    402    N    2.968    5.339    0.027
    403    H    3.187    5.059    0.977
    404    C    3.275    4.444    -0.976
    405    O    3.732    3.336    -0.699
    406    C    3.023    4.931    -2.299
    407    H    3.258    4.288    -3.144
    408    C    2.448    9.429    -1.639
    409    H    3.363    9.209    -1.056
    410    O    1.833    10.595    -1.133
    411    H    2.479    11.308    -1.214
    412    C    2.745    9.572    -3.126
    413    H    3.385    8.729    -3.479
    414    O    3.242    10.862    -3.540
    415    P    4.783    11.167    -3.534
    416    O    5.483    10.044    -4.189
    417    O    5.002    12.515    -4.085
    418    O    5.166    11.143    -2.009
    419    C    4.802    12.225    -1.125
    420    H    3.708    12.421    -1.161
    421    H    5.318    13.161    -1.430
    422    C    5.193    11.931    0.334
    423    H    4.858    12.751    1.003
    424    O    4.538    10.713    0.786
    425    C    5.413    9.991    1.638
    426    H    4.850    9.870    2.594
    427    N    5.761    8.637    1.105
    428    C    5.707    8.389    -0.247
    429    H    5.384    9.220    -0.869
    430    C    5.980    7.178    -0.751
    431    H    5.887    6.956    -1.812
    432    C    6.201    7.636    1.965
    433    O    6.323    7.891    3.174
    434    N    6.483    6.405    1.478
    435    C    6.370    6.156    0.161
    436    N    6.611    4.925    -0.295
    437    H    6.902    4.211    0.347
    438    H    6.553    4.695    -1.267
    439    C    6.631    10.864    1.885
    440    H    7.554    10.270    2.032
    441    O    6.414    11.684    3.017
    442    H    7.165    12.288    3.077
    443    C    6.688    11.684    0.596
    444    H    7.046    11.046    -0.243
    445    O    7.389    12.950    0.696
    446    P    8.898    13.041    0.246
    447    O    9.085    12.295    -1.012
    448    O    9.307    14.461    0.248
    449    O    9.659    12.259    1.373
    450    C    9.830    12.836    2.682
    451    H    8.849    13.060    3.155
    452    H    10.411    13.785    2.622
    453    C    10.593    11.872    3.596
    454    H    10.754    12.322    4.599
    455    O    9.810    10.655    3.781
    456    C    10.689    9.544    3.848
    457    H    10.489    9.045    4.824
    458    N    10.428    8.593    2.759
    459    C    10.288    6.770    1.535
    460    N    9.649    7.772    0.816
    461    C    9.767    8.831    1.577
    462    H    9.388    9.826    1.334
    463    N    11.203    4.687    2.194
    464    C    11.644    5.315    3.290
    465    H    12.225    4.704    3.990
    466    N    11.484    6.591    3.654
    467    C    10.779    7.266    2.731
    468    C    10.505    5.400    1.273
    469    N    10.049    4.773    0.173
    470    H    9.608    5.277    -0.572
    471    H    10.234    3.796    0.032
    472    C    12.111    10.077    3.839
    473    H    12.811    9.390    3.319
    474    O    12.545    10.297    5.170
    475    H    13.370    10.813    5.149
    476    C    11.948    11.379    3.062
    477    H    11.850    11.174    1.972
    478    O    12.984    12.348    3.305
    479    H    13.822    12.032    2.929
    480    H    12.561    -4.788    1.209
    481    O    12.564    -4.004    1.789
    482    C    13.586    -4.212    2.775
    483    H    14.561    -4.382    2.267
    484    H    13.354    -5.138    3.346
    485    C    13.739    -3.036    3.749
    486    H    14.444    -3.301    4.567
    487    O    14.304    -1.882    3.051
    488    C    13.699    -0.693    3.543
    489    H    14.531    -0.032    3.885
    490    N    12.890    -0.003    2.496
    491    C    12.451    -0.668    1.370
    492    H    12.748    -1.714    1.293
    493    C    12.569    1.320    2.698
    494    O    12.925    1.939    3.694
    495    N    11.830    1.899    1.701
    496    H    11.592    2.873    1.848
    497    C    11.387    1.312    0.536
    498    O    10.755    1.976    -0.286
    499    C    11.733    -0.072    0.406
    500    H    11.420    -0.612    -0.484
    501    C    12.857    -1.089    4.741
    502    H    11.973    -0.434    4.871
    503    O    13.641    -1.064    5.917
    504    H    13.057    -1.343    6.634
    505    C    12.438    -2.510    4.376
    506    H    11.665    -2.493    3.575
    507    O    12.059    -3.350    5.487
    508    P    10.574    -3.352    6.006
    509    O    9.655    -3.565    4.866
    510    O    10.494    -4.325    7.118
    511    O    10.363    -1.899    6.562
    512    C    10.941    -1.495    7.824
    513    H    12.046    -1.617    7.821
    514    H    10.554    -2.120    8.659
    515    C    10.614    -0.028    8.125
    516    H    11.104    0.306    9.064
    517    O    11.112    0.821    7.049
    518    C    10.192    1.883    6.829
    519    H    10.765    2.831    6.941
    520    N    9.615    1.836    5.480
    521    C    9.012    2.872    4.819
    522    N    7.901    6.149    4.720
    523    H    8.161    6.501    5.618
    524    H    7.341    6.726    4.117
    525    N    8.826    4.119    5.298
    526    C    8.198    4.901    4.424
    527    N    7.799    4.478    3.186
    528    H    7.332    5.138    2.582
    529    C    7.999    3.211    2.658
    530    O    7.611    2.925    1.523
    531    C    8.645    2.358    3.589
    532    N    8.993    1.017    3.486
    533    C    9.561    0.751    4.637
    534    H    9.966    -0.216    4.933
    535    C    9.133    1.798    7.902
    536    H    8.137    2.147    7.553
    537    O    9.542    2.548    9.028
    538    H    8.919    2.348    9.738
    539    C    9.114    0.304    8.206
    540    H    8.620    -0.256    7.375
    541    O    8.590    -0.042    9.514
    542    P    7.048    -0.332    9.654
    543    O    6.636    -1.273    8.594
    544    O    6.787    -0.756    11.046
    545    O    6.364    1.051    9.371
    546    C    6.438    2.155    10.297
    547    H    7.492    2.406    10.549
    548    H    5.922    1.903    11.252
    549    C    5.776    3.413    9.715
    550    H    5.898    4.270    10.411
    551    O    6.407    3.794    8.454
    552    C    5.425    4.369    7.602
    553    H    5.776    5.401    7.364
    554    N    5.277    3.626    6.347
    555    C    4.835    3.089    4.260
    556    N    5.422    1.970    4.837
    557    C    5.656    2.335    6.075
    558    H    6.112    1.708    6.845
    559    N    3.825    4.578    2.717
    560    C    3.802    5.468    3.714
    561    H    3.379    6.449    3.465
    562    N    4.235    5.340    4.973
    563    C    4.739    4.115    5.182
    564    C    4.357    3.353    2.955
    565    N    4.415    2.462    1.948
    566    H    4.819    1.551    2.078
    567    H    4.191    2.742    1.010
    568    C    4.136    4.446    8.387
    569    H    3.239    4.313    7.750
    570    O    4.075    5.685    9.064
    571    H    3.302    5.640    9.637
    572    C    4.286    3.291    9.373
    573    H    4.162    2.310    8.860
    574    O    3.480    3.410    10.572
    575    P    2.037    2.754    10.577
    576    O    2.141    1.343    10.145
    577    O    1.416    2.983    11.899
    578    O    1.224    3.536    9.487
    579    C    0.772    4.893    9.696
    580    H    1.604    5.561    10.017
    581    H    -0.002    4.929    10.495
    582    C    0.152    5.474    8.420
    583    H    -0.143    6.533    8.575
    584    O    1.127    5.458    7.341
    585    C    0.477    5.135    6.122
    586    H    0.736    5.942    5.399
    587    N    0.932    3.841    5.584
    588    C    0.830    3.433    4.283
    589    N    -0.118    4.042    1.012
    590    H    -0.597    4.916    1.089
    591    H    -0.183    3.524    0.153
    592    N    0.279    4.136    3.278
    593    C    0.368    3.503    2.113
    594    N    0.937    2.267    1.970
    595    H    0.942    1.849    1.052
    596    C    1.500    1.509    2.990
    597    O    1.997    0.401    2.768
    598    C    1.407    2.177    4.240
    599    N    1.840    1.789    5.501
    600    C    1.528    2.805    6.268
    601    H    1.721    2.865    7.338
    602    C    -1.009    5.148    6.390
    603    H    -1.566    4.443    5.742
    604    O    -1.524    6.456    6.215
    605    H    -2.441    6.424    6.515
    606    C    -1.058    4.718    7.851
    607    H    -0.827    3.632    7.953
    608    O    -2.257    5.112    8.551
    609    P    -3.465    4.114    8.664
    610    O    -2.970    2.736    8.862
    611    O    -4.411    4.632    9.676
    612    O    -4.150    4.163    7.255
    613    C    -4.820    5.329    6.742
    614    H    -4.189    6.243    6.843
    615    H    -5.756    5.514    7.316
    616    C    -5.175    5.130    5.260
    617    H    -5.708    6.022    4.860
    618    O    -3.941    4.975    4.493
    619    C    -4.148    4.032    3.453
    620    H    -3.882    4.546    2.501
    621    N    -3.298    2.846    3.624
    622    C    -2.100    1.036    3.271
    623    N    -2.007    1.303    4.632
    624    C    -2.750    2.369    4.791
    625    H    -2.922    2.873    5.742
    626    N    -1.824    0.051    1.136
    627    C    -2.600    1.035    0.667