!*** FMO 5.3 (Gamess) INPUT generated by Facio 22.1.1.32 ***
 $CONTRL RUNTYP=ENERGY NPRINT=-5 ISPHER=1 MAXIT=200 $END
 $SYSTEM MWORDS=63 MEMDDI=63 $END
 $GDDI NGROUP=1 $END
 $SCF DIRSCF=.TRUE. NPUNCH=0 $END
!*** NumCPU : 2  MemPerNode : 512MB
 $PCM SOLVNT=WATER IEF=-10 ICOMP=2 ICAV=1 IDISP=1 IFMO=-1 $END
 $PCMCAV RADII=SUAHF $END
 $TESCAV NTSALL=60 $END
 $FMOPRP
    NAODIR=200
    NGRFMO(1)=1, 1, 0, 0, 0,   0, 0, 0, 0, 0
    IPIEDA=1
    NPRINT=9
 $END
 $FMO
      SCFTYP(1)=RHF
      MODGRD=10
      MODMUL=0
      MAXCAO=5
      MAXBND=13
      NLAYER=1
      MPLEVL(1)=2
      NFRAG=11
      ICHARG(1)=-1, -1, -1, -1, -1, -1, -1, -1, -1, -1, 0
      FRGNAM(1)=F1, F2, F3, F4, F5, F6, F7, F8, F9, F10, F11
      indat(1)=0
               1   -33   0
               34   -64   0
               65   -94   0
               95   -124   0
               125   -158   0
               159   -189   0
               190   -220   0
               221   -253   0
               254   -286   0
               287   -320   0
               321   -351   0
 $END

 $FMOBND
   -34   33       6-31G*    MINI
   -65   64       6-31G*    MINI
   -95   94       6-31G*    MINI
   -125   124       6-31G*    MINI
   -159   158       6-31G*    MINI
   -190   189       6-31G*    MINI
   -221   220       6-31G*    MINI
   -254   253       6-31G*    MINI
   -287   286       6-31G*    MINI
   -321   320       6-31G*    MINI
 $END
 $FMOHYB
 6-31G*      15   5
   1 0  -0.065034   0.288264   0.000000   0.000000   0.604412
         0.290129   0.000000   0.000000   0.319045  -0.017106
        -0.017106   0.057934   0.000000   0.000000   0.000000
   0 1  -0.065040   0.288293   0.569832   0.000000  -0.201456
         0.290147   0.300783   0.000000  -0.106342   0.049598
        -0.017106  -0.008771   0.000000  -0.027223   0.000000
   0 1  -0.065039   0.288293  -0.284916  -0.493490  -0.201455
         0.290145  -0.150392  -0.260486  -0.106340  -0.000427
         0.032923  -0.008771   0.033353   0.013612   0.023576
   0 1  -0.065039   0.288293  -0.284916   0.493490  -0.201455
         0.290145  -0.150392   0.260486  -0.106340  -0.000427
         0.032923  -0.008771  -0.033353   0.013612  -0.023576
   0 1   1.010938  -0.011975   0.000000   0.000000   0.000000
        -0.054085   0.000000   0.000000  -0.000000  -0.003174
        -0.003174  -0.003174   0.000000   0.000000   0.000000
 MINI         5   5
   1 0  -0.104883   0.308874   0.000000   0.000000   0.521806
   0 1  -0.104883   0.308874   0.491961   0.000000  -0.173934
   0 1  -0.104883   0.308876  -0.245980  -0.426050  -0.173933
   0 1  -0.104883   0.308876  -0.245980   0.426050  -0.173933
   0 1   0.988209   0.063992   0.000000   0.000000   0.000000
 $END
 
 $DATA
 FMO calculation
 C1 
 H.1-1    1
      N31 6
   
 O.1-1    8
      N31 6
      d 1
      1 0.800 1.0
   
 C.1-1    6
      N31 6
      d 1
      1 0.800 1.0
   
 N.1-1    7
      N31 6
      d 1
      1 0.800 1.0
   
 P.1-1   15
      N31 6
      d 1
      1 0.550 1.0
   
 $END
 $FMOXYZ
    1    H    7.029    4.102    18.586
    2    O    7.028    4.529    17.711
    3    C    5.676    4.925    17.442
    4    H    5.307    5.563    18.278
    5    H    5.038    4.014    17.398
    6    C    5.526    5.690    16.120
    7    H    4.461    5.956    15.934
    8    O    6.279    6.936    16.185
    9    C    6.891    7.180    14.926
    10    H    6.543    8.188    14.611
    11    N    8.380    7.187    14.989
    12    C    9.031    6.630    16.067
    13    H    8.400    6.193    16.842
    14    C    10.366    6.657    16.168
    15    H    10.891    6.245    17.028
    16    C    9.124    7.760    13.961
    17    O    8.534    8.256    12.990
    18    N    10.473    7.781    14.037
    19    C    11.097    7.277    15.116
    20    N    12.424    7.362    15.194
    21    H    12.945    7.770    14.440
    22    H    12.918    7.002    15.985
    23    C    6.351    6.152    13.955
    24    H    7.083    5.893    13.169
    25    O    5.163    6.625    13.351
    26    H    4.873    5.926    12.753
    27    C    6.080    4.973    14.878
    28    H    7.043    4.505    15.188
    29    O    5.116    4.016    14.382
    30    P    5.627    2.749    13.596
    31    O    6.788    2.159    14.296
    32    O    4.467    1.860    13.355
    33    O    6.103    3.364    12.231
    34    C    5.135    3.920    11.308
    35    H    4.462    4.660    11.800
    36    H    4.487    3.113    10.895
    37    C    5.835    4.622    10.132
    38    H    5.081    5.066    9.445
    39    O    6.680    5.708    10.611
    40    C    7.864    5.767    9.817
    41    H    7.905    6.807    9.413
    42    N    9.111    5.512    10.600
    43    C    9.043    4.876    11.817
    44    H    8.052    4.560    12.135
    45    C    10.134    4.675    12.567
    46    H    10.088    4.207    13.548
    47    C    10.355    5.872    10.088
    48    O    10.427    6.373    8.958
    49    N    11.470    5.676    10.829
    50    C    11.384    5.113    12.046
    51    N    12.492    4.962    12.769
    52    H    13.373    5.258    12.389
    53    H    12.489    4.483    13.650
    54    C    7.682    4.801    8.665
    55    H    8.637    4.355    8.318
    56    O    7.038    5.461    7.588
    57    H    6.883    4.781    6.919
    58    C    6.775    3.750    9.291
    59    H    7.339    3.129    10.018
    60    O    6.014    2.969    8.344
    61    P    6.587    1.604    7.812
    62    O    7.232    0.897    8.938
    63    O    5.493    0.906    7.100
    64    O    7.700    2.032    6.798
    65    C    7.441    2.755    5.581
    66    H    6.811    3.660    5.747
    67    H    6.894    2.103    4.864
    68    C    8.758    3.191    4.920
    69    H    8.553    3.786    4.000
    70    O    9.521    4.052    5.814
    71    C    10.906    3.781    5.664
    72    H    11.372    4.748    5.365
    73    N    11.516    3.298    6.944
    74    C    10.734    2.702    7.906
    75    H    9.675    2.635    7.663
    76    C    12.872    3.451    7.139
    77    O    13.608    3.942    6.289
    78    N    13.338    3.036    8.365
    79    H    14.335    3.131    8.515
    80    C    12.588    2.529    9.410
    81    O    13.097    2.323    10.511
    82    C    11.205    2.324    9.102
    83    H    10.548    1.939    9.878
    84    C    11.047    2.785    4.517
    85    H    11.889    2.094    4.683
    86    O    11.235    3.458    3.286
    87    H    11.333    2.763    2.621
    88    C    9.709    2.045    4.555
    89    H    9.693    1.301    5.380
    90    O    9.259    1.468    3.326
    91    P    9.793    0.197    2.593
    92    O    9.037    0.151    1.322
    93    O    11.260    0.258    2.460
    94    O    9.357    -1.014    3.503
    95    C    8.733    -2.190    2.933
    96    H    8.905    -2.290    1.836
    97    H    7.633    -2.116    3.077
    98    C    9.214    -3.492    3.594
    99    H    8.424    -4.270    3.546
    100    O    10.342    -4.003    2.826
    101    C    11.274    -4.622    3.700
    102    H    11.367    -5.672    3.343
    103    N    12.605    -3.952    3.650
    104    C    12.759    -2.703    3.083
    105    H    11.840    -2.194    2.780
    106    C    13.694    -4.638    4.142
    107    O    13.599    -5.764    4.621
    108    N    14.895    -3.981    4.034
    109    H    15.703    -4.486    4.361
    110    C    15.130    -2.780    3.395
    111    O    16.277    -2.351    3.279
    112    C    13.956    -2.127    2.910
    113    H    14.057    -1.162    2.420
    114    C    10.673    -4.629    5.091
    115    H    11.455    -4.484    5.869
    116    O    9.971    -5.840    5.330
    117    H    9.524    -5.729    6.192
    118    C    9.729    -3.420    5.041
    119    H    10.314    -2.483    5.130
    120    O    8.614    -3.422    5.965
    121    P    8.825    -3.736    7.492
    122    O    7.960    -2.881    8.324
    123    O    8.682    -5.202    7.655
    124    O    10.324    -3.367    7.775
    125    C    10.784    -2.985    9.083
    126    H    10.247    -3.530    9.895
    127    H    10.577    -1.901    9.225
    128    C    12.294    -3.266    9.263
    129    H    12.447    -4.311    9.612
    130    O    13.056    -3.059    8.034
    131    C    13.717    -1.804    8.087
    132    H    14.801    -2.034    8.191
    133    N    13.482    -1.041    6.869
    134    C    14.371    -0.246    6.192
    135    N    17.513    1.149    5.837
    136    H    18.027    1.659    5.143
    137    H    17.994    0.784    6.640
    138    N    15.650    -0.008    6.537
    139    C    16.259    0.793    5.660
    140    N    15.656    1.299    4.541
    141    H    16.200    1.881    3.919
    142    C    14.354    1.037    4.150
    143    O    13.923    1.530    3.106
    144    C    13.680    0.215    5.094
    145    N    12.382    -0.266    5.103
    146    C    12.304    -1.001    6.172
    147    H    11.422    -1.553    6.501
    148    C    13.227    -1.089    9.322
    149    H    12.308    -0.497    9.121
    150    O    14.222    -0.288    9.906
    151    H    14.817    -0.936    10.312
    152    C    12.925    -2.267    10.235
    153    H    12.150    -1.938    10.968
    154    O    14.112    -2.805    10.873
    155    P    14.009    -3.459    12.298
    156    O    15.154    -2.998    13.111
    157    O    12.659    -3.221    12.857
    158    O    14.167    -5.002    11.980
    159    C    13.286    -5.973    12.618
    160    H    12.557    -6.348    11.868
    161    H    12.683    -5.541    13.454
    162    C    14.027    -7.184    13.216
    163    H    13.322    -7.827    13.785
    164    O    14.566    -8.014    12.156
    165    C    15.852    -8.490    12.533
    166    H    15.798    -9.598    12.438
    167    N    16.939    -7.986    11.644
    168    C    16.667    -7.012    10.704
    169    H    15.647    -6.618    10.690
    170    C    17.615    -6.565    9.871
    171    H    17.419    -5.803    9.121
    172    C    18.231    -8.511    11.738
    173    O    18.477    -9.386    12.586
    174    N    19.195    -8.071    10.897
    175    C    18.911    -7.140    9.971
    176    N    19.864    -6.765    9.125
    177    H    20.789    -7.113    9.281
    178    H    19.741    -6.013    8.479
    179    C    16.064    -8.128    13.993
    180    H    17.130    -7.910    14.219
    181    O    15.587    -9.148    14.860
    182    H    15.621    -8.785    15.759
    183    C    15.232    -6.859    14.111
    184    H    15.771    -6.000    13.651
    185    O    14.776    -6.544    15.434
    186    P    15.764    -6.197    16.603
    187    O    15.199    -5.016    17.293
    188    O    15.969    -7.431    17.398
    189    O    17.119    -5.816    15.921
    190    C    17.825    -4.586    16.206
    191    H    17.768    -4.307    17.284
    192    H    17.366    -3.759    15.615
    193    C    19.320    -4.681    15.831
    194    H    19.891    -5.223    16.614
    195    O    19.477    -5.450    14.601
    196    C    20.434    -4.836    13.767
    197    H    21.170    -5.644    13.540
    198    N    19.831    -4.333    12.504
    199    C    18.512    -3.925    12.478
    200    H    17.959    -4.025    13.417
    201    C    17.942    -3.487    11.346
    202    H    16.898    -3.185    11.300
    203    C    20.601    -4.267    11.346
    204    O    21.782    -4.647    11.382
    205    N    20.047    -3.798    10.204
    206    C    18.747    -3.462    10.170
    207    N    18.216    -3.147    8.987
    208    H    17.289    -2.790    8.902
    209    H    18.801    -3.147    8.173
    210    C    21.126    -3.752    14.577
    211    H    21.450    -2.896    13.950
    212    O    22.239    -4.294    15.271
    213    H    22.550    -3.625    15.904
    214    C    20.016    -3.338    15.538
    215    H    19.266    -2.719    14.993
    216    O    20.475    -2.730    16.770
    217    P    20.539    -1.159    16.879
    218    O    19.381    -0.611    16.135
    219    O    20.668    -0.751    18.297
    220    O    21.885    -0.768    16.163
    221    C    22.091    0.572    15.637
    222    H    22.714    1.166    16.344
    223    H    21.132    1.132    15.507
    224    C    22.804    0.544    14.272
    225    H    23.887    0.317    14.397
    226    O    22.254    -0.529    13.461
    227    C    22.148    -0.122    12.123
    228    H    22.701    -0.874    11.515
    229    N    20.746    -0.111    11.713
    230    C    18.927    -0.084    10.496
    231    N    18.503    -0.221    11.809
    232    C    19.618    -0.229    12.498
    233    H    19.688    -0.321    13.587
    234    N    18.955    0.143    8.142
    235    C    20.284    0.197    8.233
    236    H    20.817    0.309    7.284
    237    N    21.054    0.106    9.321
    238    C    20.304    -0.023    10.427
    239    C    18.231    -0.007    9.275
    240    N    16.904    -0.091    9.174
    241    H    16.311    0.145    9.943
    242    H    16.471    -0.015    8.265
    243    C    22.815    1.235    11.996
    244    H    22.330    1.883    11.237
    245    O    24.181    1.065    11.664
    246    H    24.625    1.914    11.800
    247    C    22.642    1.803    13.401
    248    H    21.589    2.144    13.546
    249    O    23.626    2.803    13.767
    250    P    23.236    4.326    13.644
    251    O    21.980    4.554    14.389
    252    O    24.406    5.158    14.025
    253    O    22.926    4.553    12.122
    254    C    23.956    4.664    11.119
    255    H    24.570    3.736    11.083
    256    H    24.636    5.519    11.340
    257    C    23.345    4.885    9.723
    258    H    24.139    4.986    8.952
    259    O    22.539    3.722    9.369
    260    C    21.347    4.146    8.726
    261    H    21.298    3.596    7.758
    262    N    20.161    3.814    9.524
    263    C    18.116    3.313    10.157
    264    N    18.912    3.202    11.289
    265    C    20.106    3.523    10.866
    266    H    21.000    3.546    11.487
    267    N    16.262    3.289    8.685
    268    C    17.120    3.666    7.730
    269    H    16.686    3.797    6.732
    270    N    18.437    3.888    7.812
    271    C    18.874    3.690    9.064
    272    C    16.738    3.094    9.944
    273    N    15.910    2.698    10.934
    274    H    16.234    2.584    11.880
    275    H    14.950    2.472    10.737
    276    C    21.479    5.627    8.452
    277    H    20.503    6.151    8.472
    278    O    22.095    5.831    7.196
    279    H    22.265    6.779    7.121
    280    C    22.380    6.081    9.595
    281    H    21.801    6.126    10.547
    282    O    23.119    7.298    9.328
    283    P    22.493    8.682    9.764
    284    O    22.038    8.568    11.165
    285    O    23.458    9.760    9.464
    286    O    21.229    8.873    8.852
    287    C    21.383    9.203    7.451
    288    H    22.058    8.484    6.929
    289    H    21.831    10.217    7.341
    290    C    20.022    9.208    6.738
    291    H    20.142    9.450    5.659
    292    O    19.411    7.884    6.827
    293    C    18.006    8.025    6.990
    294    H    17.529    7.449    6.163
    295    N    17.548    7.489    8.282
    296    C    16.264    7.139    8.602
    297    N    12.909    6.905    7.768
    298    H    12.886    7.252    6.831
    299    H    12.045    6.659    8.217
    300    N    15.193    7.241    7.794
    301    C    14.072    6.841    8.388
    302    N    14.037    6.345    9.664
    303    H    13.145    6.063    10.041
    304    C    15.128    6.216    10.511
    305    O    15.002    5.764    11.652
    306    C    16.322    6.675    9.902
    307    N    17.615    6.748    10.402
    308    C    18.306    7.247    9.405
    309    H    19.372    7.474    9.425
    310    C    17.678    9.494    6.837
    311    H    16.807    9.803    7.448
    312    O    17.422    9.786    5.478
    313    H    17.291    10.739    5.421
    314    C    18.966    10.153    7.328
    315    H    19.045    10.063    8.437
    316    O    19.189    11.501    6.849
    317    P    18.780    12.719    7.763
    318    O    19.194    12.448    9.154
    319    O    19.311    13.963    7.161
    320    O    17.211    12.711    7.673
    321    C    16.566    13.000    6.409
    322    H    16.943    12.341    5.596
    323    H    16.766    14.053    6.104
    324    C    15.047    12.825    6.521
    325    H    14.539    13.102    5.573
    326    O    14.727    11.432    6.798
    327    C    13.618    11.378    7.685
    328    H    12.833    10.768    7.181
    329    N    13.986    10.733    8.954
    330    C    13.127    10.186    9.868
    331    N    9.907    9.417    10.882
    332    H    9.353    9.843    10.169
    333    H    9.451    8.984    11.663
    334    N    11.787    10.160    9.773
    335    C    11.220    9.528    10.800
    336    N    11.935    8.999    11.843
    337    H    11.424    8.558    12.591
    338    C    13.318    9.032    11.980
    339    O    13.886    8.534    12.959
    340    C    13.928    9.685    10.876
    341    N    15.268    9.925    10.606
    342    C    15.254    10.557    9.459
    343    H    16.133    10.936    8.935
    344    C    13.109    12.797    7.882
    345    H    12.706    12.958    8.906
    346    O    12.113    13.087    6.913
    347    H    11.879    14.033    6.965
    348    C    14.386    13.603    7.666
    349    H    15.042    13.528    8.560
    350    O    14.180    14.980    7.293
    351    H    13.759    15.462    8.026
 $END
