!*** FMO 5.2 (Gamess) INPUT generated by Facio 21.1.1.32 ***
 $CONTRL RUNTYP=OPTFMO NPRINT=-5 ISPHER=-1 MAXIT=50 $END
 $SYSTEM MWORDS=29 $END
 $GDDI NGROUP=1 $END
 $INTGRL NINTIC=-9000000 $END
 $SCF DIRSCF=.FALSE. NPUNCH=0 $END
!*** NumCPU : 2  MemPerNode : 512MB
 $FMOPRP
    NAODIR=210
    NGRFMO(1)=1, 1, 0, 0, 0,   0, 0, 0, 0, 0
    NPRINT=9
 $END
 $FMO
      SCFTYP(1)=RHF
      MODGRD=10
      MODMUL=0
      MAXCAO=5
      MAXBND=34
      NLAYER=1
      NFRAG=32
      ICHARG(1)=-1, -1, -1, -1, -1, -1, -1, -1, -1, -1, 
-1, -1, -1, -1, -1, -1, -1, -1, -1, -1, 
-1, -1, -1, -1, -1, -1, -1, -1, -1, -1, 
-1, 0
      FRGNAM(1)=Frag1, Frag2, Frag3, Frag4, Frag5, Frag6, Frag7, Frag8, Frag9, Frag10, Frag11, Frag12, Frag13, Frag14, Frag15, Frag16, Frag17, Frag18, Frag19, Frag20, Frag21, Frag22, Frag23, Frag24, Frag25, Frag26, Frag27, Frag28, Frag29, Frag30, Frag31, Frag32
      indat(1)=0
               1   -36   0
               37   -69   0
               70   -103   0
               104   -134   0
               135   -167   0
               168   -201   0
               202   -231   0
               232   -261   0
               262   -292   0
               293   -323   0
               324   -354   0
               355   -385   0
               386   -415   0
               416   -449   0
               450   -480   0
               481   -513   0
               514   -543   0
               544   -576   0
               577   -609   0
               610   -643   0
               644   -677   0
               678   -710   0
               711   -740   0
               741   -774   0
               775   -807   0
               808   -840   0
               841   -871   0
               872   -902   0
               903   -936   0
               937   -966   0
               967   -996   0
               997   -1024   0
 $END

 $FMOBND
   -37   36       3-21G    MINI
   -70   69       3-21G    MINI
   -104   103       3-21G    MINI
   -135   134       3-21G    MINI
   -168   167       3-21G    MINI
   -202   201       3-21G    MINI
   -232   231       3-21G    MINI
   -262   261       3-21G    MINI
   -293   292       3-21G    MINI
   -324   323       3-21G    MINI
   -355   354       3-21G    MINI
   -386   385       3-21G    MINI
   -416   415       3-21G    MINI
   -450   449       3-21G    MINI
   -481   480       3-21G    MINI
   -514   513       3-21G    MINI
   -544   543       3-21G    MINI
   -577   576       3-21G    MINI
   -610   609       3-21G    MINI
   -644   643       3-21G    MINI
   -678   677       3-21G    MINI
   -711   710       3-21G    MINI
   -741   740       3-21G    MINI
   -775   774       3-21G    MINI
   -808   807       3-21G    MINI
   -841   840       3-21G    MINI
   -872   871       3-21G    MINI
   -903   902       3-21G    MINI
   -937   936       3-21G    MINI
   -967   966       3-21G    MINI
   -997   996       3-21G    MINI
 $END
 $FMOHYB
 3-21G        9   5
   1 0  -0.070459   0.164841   0.000000   0.000000   0.502116
         0.466939   0.000000   0.000000   0.418036
   0 1  -0.070465   0.164857   0.473392   0.000000  -0.167359
         0.466967   0.394111   0.000000  -0.139327
   0 1  -0.070465   0.164857  -0.236695  -0.409969  -0.167359
         0.466967  -0.197055  -0.341311  -0.139327
   0 1  -0.070465   0.164857  -0.236695   0.409969  -0.167359
         0.466967  -0.197055   0.341311  -0.139327
   0 1   1.006716   0.074826   0.000000   0.000000   0.000000
        -0.143830   0.000000   0.000000  -0.000003
 MINI         5   5
   1 0  -0.104883   0.308874   0.000000   0.000000   0.521806
   0 1  -0.104883   0.308874   0.491961   0.000000  -0.173934
   0 1  -0.104883   0.308876  -0.245980  -0.426050  -0.173933
   0 1  -0.104883   0.308876  -0.245980   0.426050  -0.173933
   0 1   0.988209   0.063992   0.000000   0.000000   0.000000
 $END

 $DATA
 FMO calculation : XXNAMEXX
 C1 
 C.1-1    6
      N21 3
   
 O.1-1    8
      N21 3
   
 N.1-1    7
      N21 3
   
 H.1-1    1
      N21 3
   
 P.1-1   15
      N21 3
   
 $END
 $FMOXYZ
    1    H    8.010    -21.538    -3.397
    2    O    7.156    -21.442    -3.909
    3    C    7.298    -22.092    -5.178
    4    H    7.417    -23.074    -5.029
    5    H    7.992    -21.611    -5.714
    6    C    6.026    -21.985    -6.017
    7    H    6.197    -22.355    -6.930
    8    O    4.953    -22.690    -5.429
    9    C    3.741    -22.179    -6.022
    10    H    3.526    -22.779    -6.793
    11    N    2.693    -22.202    -4.978
    12    C    1.333    -22.210    -5.190
    13    N    -1.375    -22.251    -7.360
    14    H    -2.384    -22.257    -7.393
    15    H    -0.895    -22.265    -8.248
    16    N    0.717    -22.222    -6.396
    17    C    -0.613    -22.227    -6.276
    18    N    -1.274    -22.219    -5.075
    19    H    -2.304    -22.223    -5.101
    20    C    -0.669    -22.206    -3.833
    21    O    -1.358    -22.197    -2.816
    22    C    0.749    -22.201    -3.942
    23    N    1.723    -22.191    -2.947
    24    C    2.833    -22.192    -3.618
    25    H    3.601    -22.185    -2.977
    26    C    4.049    -20.777    -6.553
    27    H    3.487    -20.122    -6.047
    28    O    3.854    -20.681    -7.969
    29    H    3.148    -21.229    -8.319
    30    C    5.510    -20.565    -6.184
    31    H    5.549    -20.098    -5.300
    32    O    6.216    -19.935    -7.263
    33    P    6.415    -18.336    -7.327
    34    O    7.254    -18.010    -8.503
    35    O    6.814    -17.878    -5.978
    36    O    4.914    -17.843    -7.623
    37    C    4.280    -18.192    -8.857
    38    H    4.310    -19.185    -8.969
    39    H    4.659    -17.626    -9.589
    40    C    2.794    -17.857    -8.853
    41    H    2.407    -18.042    -9.756
    42    O    2.093    -18.648    -7.870
    43    C    0.828    -17.984    -7.675
    44    H    0.202    -18.350    -8.364
    45    N    0.371    -18.270    -6.300
    46    C    -0.889    -18.710    -4.556
    47    N    0.412    -18.591    -4.074
    48    C    1.099    -18.332    -5.145
    49    H    2.062    -18.226    -4.896
    50    N    -3.208    -19.022    -4.696
    51    C    -3.115    -18.815    -6.011
    52    H    -3.896    -18.834    -6.635
    53    N    -2.011    -18.555    -6.707
    54    C    -0.926    -18.516    -5.907
    55    C    -2.107    -18.978    -3.927
    56    N    -2.215    -19.189    -2.618
    57    H    -3.126    -19.379    -2.226
    58    H    -1.383    -19.154    -2.046
    59    C    1.059    -16.498    -7.951
    60    H    1.025    -16.019    -7.074
    61    O    0.126    -15.982    -8.904
    62    H    -0.743    -16.390    -8.883
    63    C    2.472    -16.417    -8.505
    64    H    3.080    -16.116    -7.771
    65    O    2.489    -15.680    -9.736
    66    P    2.275    -14.082    -9.760
    67    O    2.632    -13.577    -11.106
    68    O    2.968    -13.606    -8.548
    69    O    0.684    -13.965    -9.559
    70    C    -0.214    -14.347    -10.604
    71    H    -0.030    -15.296    -10.860
    72    H    -0.189    -13.654    -11.324
    73    C    -1.659    -14.352    -10.127
    74    H    -2.302    -14.627    -10.842
    75    O    -1.793    -15.238    -9.016
    76    C    -3.068    -14.989    -8.384
    77    H    -3.741    -15.630    -8.752
    78    N    -2.878    -15.134    -6.926
    79    C    -3.870    -15.128    -5.974
    80    N    -7.230    -14.914    -5.129
    81    H    -7.867    -14.920    -4.346
    82    H    -7.643    -14.813    -6.045
    83    N    -5.197    -14.999    -6.209
    84    C    -5.910    -15.024    -5.084
    85    N    -5.364    -15.167    -3.835
    86    H    -6.011    -15.178    -3.033
    87    C    -4.014    -15.298    -3.566
    88    O    -3.631    -15.417    -2.406
    89    C    -3.238    -15.271    -4.758
    90    N    -1.860    -15.371    -4.934
    91    C    -1.718    -15.284    -6.221
    92    H    -0.746    -15.347    -6.446
    93    C    -3.401    -13.577    -8.879
    94    H    -3.619    -13.024    -8.075
    95    O    -4.445    -13.583    -9.858
    96    H    -5.099    -14.278    -9.749
    97    C    -2.123    -13.053    -9.507
    98    H    -1.470    -12.777    -8.802
    99    O    -2.406    -12.068    -10.502
    100    P    -2.202    -10.507    -10.155
    101    O    -2.526    -9.755    -11.384
    102    O    -0.896    -10.323    -9.479
    103    O    -3.373    -10.271    -9.079
    104    C    -4.738    -10.350    -9.497
    105    H    -4.904    -11.251    -9.898
    106    H    -4.957    -9.544    -10.047
    107    C    -5.708    -10.278    -8.325
    108    H    -6.654    -10.253    -8.650
    109    O    -5.539    -11.413    -7.468
    110    C    -6.046    -11.046    -6.172
    111    H    -6.924    -11.514    -6.066
    112    N    -5.051    -11.471    -5.167
    113    C    -3.733    -11.606    -5.495
    114    H    -3.270    -11.494    -6.374
    115    C    -2.825    -11.941    -4.562
    116    H    -1.836    -12.088    -4.588
    117    C    -5.498    -11.679    -3.873
    118    O    -6.691    -11.568    -3.604
    119    N    -4.586    -12.017    -2.922
    120    C    -3.290    -12.147    -3.230
    121    N    -2.418    -12.445    -2.273
    122    H    -2.753    -12.568    -1.328
    123    H    -1.436    -12.548    -2.484
    124    C    -6.286    -9.532    -6.190
    125    H    -5.873    -9.133    -5.371
    126    O    -7.676    -9.214    -6.324
    127    H    -8.275    -9.825    -5.889
    128    C    -5.497    -9.087    -7.409
    129    H    -4.527    -9.025    -7.174
    130    O    -6.032    -7.879    -7.967
    131    P    -5.456    -6.446    -7.513
    132    O    -6.083    -5.433    -8.389
    133    O    -3.979    -6.426    -7.339
    134    O    -6.119    -6.318    -6.056
    135    C    -7.546    -6.308    -5.935
    136    H    -7.911    -7.159    -6.312
    137    H    -7.898    -5.446    -6.300
    138    C    -7.997    -6.315    -4.480
    139    H    -8.991    -6.230    -4.417
    140    O    -7.580    -7.556    -3.812
    141    C    -7.588    -7.264    -2.401
    142    H    -8.410    -7.692    -2.026
    143    N    -6.352    -7.837    -1.830
    144    C    -4.887    -8.717    -0.450
    145    N    -4.265    -8.668    -1.695
    146    C    -5.175    -8.141    -2.458
    147    H    -4.815    -8.062    -3.387
    148    N    -5.324    -9.072    1.823
    149    C    -6.539    -8.560    1.629
    150    H    -7.224    -8.462    2.351
    151    N    -7.045    -8.103    0.486
    152    C    -6.154    -8.213    -0.520
    153    C    -4.462    -9.170    0.801
    154    N    -3.255    -9.686    1.015
    155    H    -3.012    -9.994    1.946
    156    H    -2.609    -9.758    0.242
    157    C    -7.706    -5.741    -2.253
    158    H    -6.999    -5.436    -1.615
    159    O    -9.025    -5.344    -1.863
    160    H    -9.481    -5.962    -1.287
    161    C    -7.382    -5.213    -3.641
    162    H    -6.392    -5.211    -3.781
    163    O    -7.993    -3.942    -3.883
    164    P    -7.147    -2.597    -3.612
    165    O    -8.009    -1.476    -4.035
    166    O    -5.735    -2.640    -4.074
    167    O    -7.140    -2.650    -2.008
    168    C    -8.389    -2.695    -1.311
    169    H    -9.002    -3.329    -1.782
    170    H    -8.710    -1.760    -1.157
    171    C    -8.248    -3.278    0.087
    172    H    -9.131    -3.492    0.504
    173    O    -7.472    -4.459    0.020
    174    C    -6.973    -4.740    1.342
    175    H    -7.550    -5.455    1.737
    176    N    -5.564    -5.167    1.200
    177    C    -4.760    -5.657    2.203
    178    N    -4.289    -6.541    5.528
    179    H    -3.610    -6.911    6.178
    180    H    -5.197    -6.314    5.906
    181    N    -5.115    -5.824    3.499
    182    C    -4.116    -6.321    4.232
    183    N    -2.877    -6.626    3.731
    184    H    -2.180    -7.003    4.388
    185    C    -2.490    -6.467    2.412
    186    O    -1.357    -6.783    2.064
    187    C    -3.545    -5.937    1.619
    188    N    -3.572    -5.626    0.261
    189    C    -4.778    -5.181    0.084
    190    H    -4.894    -4.927    -0.876
    191    C    -7.180    -3.442    2.128
    192    H    -6.319    -3.212    2.582
    193    O    -8.279    -3.537    3.041
    194    H    -8.412    -4.406    3.426
    195    C    -7.461    -2.411    1.047
    196    H    -6.607    -2.132    0.608
    197    O    -8.326    -1.392    1.552
    198    P    -7.704    0.023    2.005
    199    O    -8.832    0.945    2.250
    200    O    -6.623    0.355    1.053
    201    O    -7.064    -0.424    3.408
    202    C    -7.905    -0.805    4.501
    203    H    -8.520    -1.534    4.200
    204    H    -8.312    0.016    4.900
    205    C    -7.096    -1.425    5.634
    206    H    -7.663    -1.685    6.415
    207    O    -6.432    -2.564    5.152
    208    C    -5.226    -2.772    5.912
    209    H    -5.338    -3.618    6.434
    210    N    -4.101    -2.829    4.950
    211    C    -4.229    -2.310    3.690
    212    H    -5.017    -1.869    3.261
    213    C    -2.919    -3.410    5.372
    214    O    -2.777    -3.881    6.495
    215    N    -1.893    -3.427    4.450
    216    H    -1.003    -3.853    4.746
    217    C    -1.939    -2.928    3.165
    218    O    -0.957    -2.997    2.435
    219    C    -3.207    -2.341    2.806
    220    H    -3.156    -2.005    1.866
    221    C    -5.169    -1.596    6.880
    222    H    -4.221    -1.289    6.960
    223    O    -5.767    -1.905    8.143
    224    H    -5.643    -2.810    8.439
    225    C    -5.969    -0.541    6.141
    226    H    -5.449    -0.196    5.360
    227    O    -6.462    0.443    7.051
    228    P    -5.737    1.882    7.061
    229    O    -6.528    2.787    7.919
    230    O    -5.421    2.239    5.660
    231    O    -4.378    1.486    7.821
    232    C    -4.427    1.056    9.185
    233    H    -5.048    0.276    9.258
    234    H    -4.599    1.848    9.770
    235    C    -3.087    0.514    9.674
    236    H    -3.126    0.199    10.622
    237    O    -2.709    -0.566    8.845
    238    C    -1.274    -0.707    8.877
    239    H    -1.065    -1.533    9.401
    240    N    -0.809    -0.793    7.473
    241    C    -1.604    -0.362    6.446
    242    H    -2.528    0.019    6.472
    243    C    0.457    -1.297    7.239
    244    O    1.186    -1.694    8.143
    245    N    0.861    -1.333    5.922
    246    H    1.802    -1.705    5.728
    247    C    0.126    -0.918    4.831
    248    O    0.595    -0.993    3.701
    249    C    -1.184    -0.410    5.162
    250    H    -1.649    -0.136    4.320
    251    C    -0.765    0.518    9.650
    252    H    0.019    0.899    9.160
    253    O    -0.478    0.201    11.013
    254    H    -0.133    -0.683    11.160
    255    C    -1.932    1.492    9.551
    256    H    -1.952    1.907    8.641
    257    O    -1.913    2.555    10.526
    258    P    -1.485    4.056    10.097
    259    O    -1.695    4.990    11.227
    260    O    -1.929    4.543    8.760
    261    O    0.103    3.856    9.966
    262    C    0.821    3.352    11.101
    263    H    0.377    2.515    11.422
    264    H    0.953    4.094    11.758
    265    C    2.235    2.911    10.752
    266    H    2.732    2.506    11.519
    267    O    2.164    1.947    9.675
    268    C    3.427    1.866    8.990
    269    H    3.910    1.045    9.295
    270    N    3.146    1.847    7.536
    271    C    1.952    2.292    7.047
    272    H    1.152    2.657    7.524
    273    C    1.707    2.282    5.725
    274    H    0.919    2.555    5.172
    275    C    4.141    1.375    6.693
    276    O    5.213    0.986    7.154
    277    N    3.902    1.363    5.355
    278    C    2.734    1.796    4.862
    279    N    2.535    1.777    3.549
    280    H    3.272    1.435    2.949
    281    H    1.662    2.099    3.155
    282    C    4.157    3.105    9.530
    283    H    4.566    3.567    8.743
    284    O    5.111    2.759    10.538
    285    H    5.513    1.893    10.435
    286    C    3.089    4.006    10.134
    287    H    2.563    4.463    9.416
    288    O    3.607    5.035    11.001
    289    P    3.693    6.569    10.492
    290    O    4.232    7.394    11.591
    291    O    2.537    7.166    9.757
    292    O    4.860    6.476    9.388
    293    C    6.139    5.950    9.768
    294    H    6.003    5.099    10.275
    295    H    6.673    6.675    10.204
    296    C    6.973    5.542    8.565
    297    H    7.850    5.123    8.799
    298    O    6.222    4.631    7.772
    299    C    6.627    4.751    6.395
    300    H    7.066    3.893    6.126
    301    N    5.405    5.039    5.607
    302    C    4.274    5.493    6.222
    303    H    4.101    5.697    7.186
    304    C    3.157    5.738    5.516
    305    H    2.246    6.064    5.767
    306    C    5.442    4.820    4.234
    307    O    6.473    4.422    3.700
    308    N    4.311    5.066    3.512
    309    C    3.198    5.510    4.108
    310    N    2.109    5.735    3.380
    311    H    2.143    5.565    2.385
    312    H    1.260    6.070    3.812
    313    C    7.677    5.863    6.413
    314    H    7.585    6.413    5.583
    315    O    8.998    5.354    6.608
    316    H    9.172    4.507    6.190
    317    C    7.224    6.686    7.604
    318    H    6.356    7.141    7.406
    319    O    8.250    7.570    8.059
    320    P    8.209    9.106    7.590
    321    O    9.273    9.804    8.339
    322    O    6.823    9.640    7.606
    323    O    8.670    8.979    6.059
    324    C    9.980    8.489    5.762
    325    H    10.083    7.576    6.156
    326    H    10.653    9.186    6.012
    327    C    10.188    8.282    4.272
    328    H    11.113    7.973    4.051
    329    O    9.246    7.324    3.777
    330    C    8.971    7.637    2.398
    331    H    9.301    6.868    1.851
    332    N    7.506    7.831    2.280
    333    C    6.753    8.127    3.380
    334    H    7.026    8.258    4.333
    335    C    5.423    8.289    3.280
    336    H    4.707    8.503    3.944
    337    C    6.925    7.688    1.025
    338    O    7.620    7.432    0.044
    339    N    5.577    7.852    0.914
    340    C    4.831    8.142    1.990
    341    N    3.516    8.298    1.850
    342    H    3.107    8.194    0.932
    343    H    2.935    8.517    2.647
    344    C    9.804    8.875    2.069
    345    H    9.288    9.480    1.463
    346    O    11.092    8.542    1.545
    347    H    11.109    7.775    0.968
    348    C    9.881    9.505    3.448
    349    H    8.982    9.857    3.710
    350    O    11.076    10.266    3.534
    351    P    10.980    11.819    3.122
    352    O    12.314    12.369    3.406
    353    O    9.772    12.058    3.924
    354    O    10.648    11.792    1.552
    355    C    11.643    11.444    0.588
    356    H    11.922    10.495    0.736
    357    H    12.354    12.147    0.586
    358    C    11.052    11.471    -0.816
    359    H    11.722    11.219    -1.514
    360    O    9.935    10.569    -0.893
    361    C    9.035    11.042    -1.911
    362    H    9.097    10.401    -2.676
    363    N    7.683    11.081    -1.308
    364    C    7.533    11.136    0.046
    365    H    8.221    11.174    0.771
    366    C    6.312    11.146    0.602
    367    H    5.990    11.182    1.548
    368    C    6.584    11.036    -2.156
    369    O    6.739    10.997    -3.374
    370    N    5.341    11.045    -1.599
    371    C    5.185    11.098    -0.270
    372    N    3.962    11.096    0.247
    373    H    3.169    11.054    -0.377
    374    H    3.825    11.135    1.247
    375    C    9.569    12.405    -2.359
    376    H    8.800    13.041    -2.422
    377    O    10.308    12.318    -3.579
    378    H    9.990    11.658    -4.199
    379    C    10.462    12.820    -1.196
    380    H    9.897    13.153    -0.441
    381    O    11.427    13.822    -1.548
    382    P    11.148    15.341    -1.087
    383    O    12.295    16.211    -1.430
    384    O    10.605    15.444    0.292
    385    O    9.949    15.749    -2.076
    386    C    10.162    15.668    -3.490
    387    H    10.525    14.763    -3.713
    388    H    10.683    16.468    -3.787
    389    C    8.870    15.753    -4.287
    390    H    9.044    15.623    -5.263
    391    O    7.961    14.761    -3.845
    392    C    6.648    15.200    -4.234
    393    H    6.413    14.690    -5.061
    394    N    5.731    14.900    -3.113
    395    C    6.212    14.706    -1.847
    396    H    7.154    14.725    -1.513
    397    C    4.379    14.829    -3.389
    398    O    3.925    14.999    -4.517
    399    N    3.556    14.559    -2.316
    400    H    2.544    14.507    -2.500
    401    C    3.956    14.351    -1.013
    402    O    3.128    14.108    -0.139
    403    C    5.384    14.442    -0.812
    404    H    5.588    14.283    0.154
    405    C    6.742    16.693    -4.577
    406    H    6.075    17.182    -4.015
    407    O    6.565    16.928    -5.978
    408    H    5.962    16.324    -6.417
    409    C    8.147    17.085    -4.134
    410    H    8.133    17.338    -3.167
    411    O    8.717    18.287    -4.708
    412    P    8.882    19.628    -3.802
    413    O    9.427    20.700    -4.656
    414    O    9.483    19.645    -2.429
    415    O    7.366    20.081    -3.504
    416    C    6.482    20.282    -4.616
    417    H    6.579    19.516    -5.252
    418    H    6.613    21.207    -4.973
    419    C    5.004    20.248    -4.235
    420    H    4.427    20.487    -5.016
    421    O    4.656    18.944    -3.784
    422    C    3.594    19.052    -2.814
    423    H    2.783    18.629    -3.219
    424    N    4.038    18.380    -1.575
    425    C    3.226    17.842    -0.601
    426    N    0.062    17.053    0.592
    427    H    -0.427    16.630    1.367
    428    H    -0.509    17.401    -0.165
    429    N    1.876    17.785    -0.630
    430    C    1.373    17.201    0.461
    431    N    2.140    16.718    1.490
    432    H    1.648    16.288    2.286
    433    C    3.520    16.763    1.543
    434    O    4.108    16.303    2.513
    435    C    4.067    17.380    0.387
    436    N    5.395    17.621    0.047
    437    C    5.306    18.204    -1.106
    438    H    6.226    18.417    -1.435
    439    C    3.336    20.543    -2.629
    440    H    3.216    20.721    -1.652
    441    O    2.228    20.992    -3.418
    442    H    1.523    20.350    -3.530
    443    C    4.635    21.189    -3.095
    444    H    5.325    21.115    -2.375
    445    O    4.528    22.604    -3.335
    446    P    5.056    23.614    -2.182
    447    O    4.850    24.996    -2.655
    448    O    6.414    23.331    -1.645
    449    O    4.094    23.450    -0.880
    450    C    4.369    23.947    0.450
    451    H    4.359    24.947    0.433
    452    H    5.186    23.493    0.805
    453    C    3.265    23.574    1.448
    454    H    3.556    23.770    2.384
    455    O    2.114    24.356    1.147
    456    C    1.011    23.509    0.779
    457    H    0.259    23.750    1.393
    458    N    0.686    23.794    -0.638
    459    C    1.604    23.586    -1.629
    460    H    2.539    23.236    -1.579
    461    C    1.308    23.862    -2.911
    462    H    1.823    23.786    -3.765
    463    C    -0.579    24.292    -0.923
    464    O    -1.391    24.466    -0.018
    465    N    -0.886    24.573    -2.221
    466    C    0.009    24.374    -3.197
    467    N    -0.321    24.665    -4.453
    468    H    -1.243    25.031    -4.643
    469    H    0.338    24.523    -5.205
    470    C    1.417    22.053    1.035
    471    H    1.331    21.564    0.167
    472    O    0.646    21.451    2.078
    473    H    -0.253    21.777    2.157
    474    C    2.886    22.099    1.435
    475    H    3.404    21.636    0.715
    476    O    3.053    21.586    2.766
    477    P    2.851    20.013    3.084
    478    O    3.596    19.706    4.325
    479    O    3.169    19.300    1.829
    480    O    1.269    19.839    3.384
    481    C    0.644    20.441    4.536
    482    H    0.712    21.436    4.460
    483    H    1.002    20.009    5.364
    484    C    -0.870    20.173    4.599
    485    H    -1.232    20.477    5.480
    486    O    -1.503    20.917    3.555
    487    C    -2.357    20.068    2.785
    488    H    -3.290    20.272    3.083
    489    N    -2.167    20.383    1.356
    490    C    -2.512    21.088    -0.692
    491    N    -1.163    20.747    -0.620
    492    C    -1.030    20.338    0.604
    493    H    -0.081    20.061    0.753
    494    N    -4.602    21.811    -1.459
    495    C    -5.092    21.550    -0.248
    496    H    -6.049    21.688    0.006
    497    N    -4.429    21.078    0.803
    498    C    -3.129    20.866    0.504
    499    C    -3.305    21.594    -1.724
    500    N    -2.823    21.901    -2.925
    501    H    -3.446    22.293    -3.617
    502    H    -1.846    21.735    -3.117
    503    C    -2.034    18.627    3.125
    504    H    -1.417    18.281    2.418
    505    O    -3.225    17.850    3.273
    506    H    -3.956    18.117    2.711
    507    C    -1.284    18.693    4.450
    508    H    -0.461    18.132    4.360
    509    O    -2.162    18.242    5.502
    510    P    -2.732    16.723    5.609
    511    O    -2.996    16.388    7.030
    512    O    -1.883    15.778    4.840
    513    O    -4.176    16.739    4.871
    514    C    -5.376    16.203    5.471
    515    H    -5.533    16.658    6.348
    516    H    -5.325    15.204    5.464
    517    C    -6.625    16.525    4.648
    518    H    -7.411    16.003    4.979
    519    O    -6.909    17.926    4.771
    520    C    -7.011    18.512    3.467
    521    H    -7.980    18.516    3.221
    522    N    -6.484    19.912    3.519
    523    C    -5.556    20.272    4.467
    524    H    -5.147    19.723    5.196
    525    C    -6.939    20.838    2.580
    526    O    -7.758    20.563    1.712
    527    N    -6.402    22.104    2.669
    528    H    -6.731    22.798    1.983
    529    C    -5.468    22.539    3.584
    530    O    -5.057    23.695    3.554
    531    C    -5.048    21.527    4.522
    532    H    -4.375    21.922    5.147
    533    C    -6.258    17.567    2.518
    534    H    -5.282    17.783    2.557
    535    O    -6.768    17.645    1.181
    536    H    -7.076    18.514    0.915
    537    C    -6.492    16.197    3.168
    538    H    -5.672    15.641    3.030
    539    O    -7.762    15.700    2.724
    540    P    -7.865    14.688    1.469
    541    O    -9.273    14.246    1.354
    542    O    -6.778    13.749    1.793
    543    O    -7.465    15.566    0.173
    544    C    -8.353    16.554    -0.373
    545    H    -8.462    17.295    0.289
    546    H    -9.178    16.100    -0.708
    547    C    -7.742    17.217    -1.606
    548    H    -8.402    17.844    -2.020
    549    O    -6.543    17.951    -1.269
    550    C    -5.848    18.168    -2.496
    551    H    -6.101    19.086    -2.802
    552    N    -4.404    18.077    -2.224
    553    C    -2.229    18.312    -2.373
    554    N    -2.463    17.613    -1.189
    555    C    -3.758    17.510    -1.162
    556    H    -4.028    17.016    -0.335
    557    N    -1.189    19.413    -4.160
    558    C    -2.397    19.627    -4.679
    559    H    -2.557    20.112    -5.539
    560    N    -3.563    19.251    -4.172
    561    C    -3.403    18.594    -3.006
    562    C    -1.061    18.754    -2.998
    563    N    0.150    18.551    -2.500
    564    H    0.952    18.897    -3.007
    565    H    0.243    18.055    -1.625
    566    C    -6.359    17.143    -3.516
    567    H    -5.581    16.604    -3.839
    568    O    -7.068    17.779    -4.589
    569    H    -6.736    18.645    -4.836
    570    C    -7.273    16.246    -2.675
    571    H    -6.724    15.529    -2.245
    572    O    -8.368    15.819    -3.488
    573    P    -8.220    14.395    -4.223
    574    O    -9.423    14.203    -5.059
    575    O    -7.928    13.507    -3.083
    576    O    -6.920    14.457    -5.186
    577    C    -6.919    15.276    -6.361
    578    H    -7.179    16.208    -6.108
    579    H    -7.448    14.820    -7.076
    580    C    -5.528    15.434    -6.975
    581    H    -5.603    15.954    -7.826
    582    O    -4.648    16.151    -6.055
    583    C    -3.298    15.711    -6.309
    584    H    -2.816    16.498    -6.693
    585    N    -2.717    15.279    -5.023
    586    C    -1.309    14.762    -3.421
    587    N    -2.583    14.521    -2.913
    588    C    -3.358    14.840    -3.901
    589    H    -4.309    14.693    -3.629
    590    N    1.016    14.945    -3.649
    591    C    0.819    15.386    -4.893
    592    H    1.557    15.642    -5.518
    593    N    -0.348    15.559    -5.507
    594    C    -1.379    15.223    -4.704
    595    C    -0.032    14.622    -2.874
    596    N    0.178    14.205    -1.628
    597    H    1.126    14.139    -1.287
    598    H    -0.616    13.964    -1.052
    599    C    -3.350    14.590    -7.365
    600    H    -2.759    13.842    -7.063
    601    O    -3.022    15.080    -8.667
    602    H    -2.362    15.777    -8.683
    603    C    -4.805    14.131    -7.302
    604    H    -4.913    13.498    -6.536
    605    O    -5.236    13.277    -8.396
    606    P    -5.245    11.654    -8.223
    607    O    -5.899    11.012    -9.380
    608    O    -5.599    10.957    -6.946
    609    O    -3.693    11.264    -8.387
    610    C    -2.980    11.846    -9.487
    611    H    -3.157    12.830    -9.505
    612    H    -3.173    11.320    -10.315
    613    C    -1.466    11.758    -9.353
    614    H    -1.012    12.157    -10.149
    615    O    -1.031    12.460    -8.160
    616    C    0.246    11.904    -7.788
    617    H    0.939    12.566    -8.075