!*** FMO 5.3 (Gamess) INPUT generated by Facio 22.1.1.32 ***
 $CONTRL RUNTYP=ENERGY NPRINT=-5 ISPHER=1 MAXIT=200 $END
 $SYSTEM MWORDS=63 MEMDDI=63 $END
 $GDDI NGROUP=1 $END
 $SCF DIRSCF=.TRUE. NPUNCH=0 $END
!*** NumCPU : 2  MemPerNode : 512MB
 $PCM SOLVNT=WATER IEF=-10 ICOMP=2 ICAV=1 IDISP=1 IFMO=-1 $END
 $PCMCAV RADII=SUAHF $END
 $TESCAV NTSALL=60 $END
 $FMOPRP
    NAODIR=200
    NGRFMO(1)=1, 1, 0, 0, 0,   0, 0, 0, 0, 0
    IPIEDA=1
    NPRINT=9
 $END
 $FMO
      SCFTYP(1)=RHF
      MODGRD=10
      MODMUL=0
      MAXCAO=5
      MAXBND=13
      NLAYER=1
      MPLEVL(1)=2
      NFRAG=11
      ICHARG(1)=-1, -1, -1, -1, -1, -1, -1, -1, -1, -1, 0
      FRGNAM(1)=F1, F2, F3, F4, F5, F6, F7, F8, F9, F10, F11
      indat(1)=0
               1   -35   0
               36   -66   0
               67   -97   0
               98   -127   0
               128   -157   0
               158   -188   0
               189   -219   0
               220   -252   0
               253   -285   0
               286   -319   0
               320   -346   0
 $END

 $FMOBND
   -36   35       6-31G*    MINI
   -67   66       6-31G*    MINI
   -98   97       6-31G*    MINI
   -128   127       6-31G*    MINI
   -158   157       6-31G*    MINI
   -189   188       6-31G*    MINI
   -220   219       6-31G*    MINI
   -253   252       6-31G*    MINI
   -286   285       6-31G*    MINI
   -320   319       6-31G*    MINI
 $END
 $FMOHYB
 6-31G*      15   5
   1 0  -0.065034   0.288264   0.000000   0.000000   0.604412
         0.290129   0.000000   0.000000   0.319045  -0.017106
        -0.017106   0.057934   0.000000   0.000000   0.000000
   0 1  -0.065040   0.288293   0.569832   0.000000  -0.201456
         0.290147   0.300783   0.000000  -0.106342   0.049598
        -0.017106  -0.008771   0.000000  -0.027223   0.000000
   0 1  -0.065039   0.288293  -0.284916  -0.493490  -0.201455
         0.290145  -0.150392  -0.260486  -0.106340  -0.000427
         0.032923  -0.008771   0.033353   0.013612   0.023576
   0 1  -0.065039   0.288293  -0.284916   0.493490  -0.201455
         0.290145  -0.150392   0.260486  -0.106340  -0.000427
         0.032923  -0.008771  -0.033353   0.013612  -0.023576
   0 1   1.010938  -0.011975   0.000000   0.000000   0.000000
        -0.054085   0.000000   0.000000  -0.000000  -0.003174
        -0.003174  -0.003174   0.000000   0.000000   0.000000
 MINI         5   5
   1 0  -0.104883   0.308874   0.000000   0.000000   0.521806
   0 1  -0.104883   0.308874   0.491961   0.000000  -0.173934
   0 1  -0.104883   0.308876  -0.245980  -0.426050  -0.173933
   0 1  -0.104883   0.308876  -0.245980   0.426050  -0.173933
   0 1   0.988209   0.063992   0.000000   0.000000   0.000000
 $END
 
 $DATA
 FMO calculation
 C1 
 H.1-1    1
      N31 6
   
 O.1-1    8
      N31 6
      d 1
      1 0.800 1.0
   
 C.1-1    6
      N31 6
      d 1
      1 0.800 1.0
   
 N.1-1    7
      N31 6
      d 1
      1 0.800 1.0
   
 P.1-1   15
      N31 6
      d 1
      1 0.550 1.0
   
 $END
 $FMOXYZ
    1    H    -4.648    -8.352    6.929
    2    O    -3.946    -8.175    6.270
    3    C    -4.605    -7.631    5.116
    4    H    -5.171    -6.720    5.413
    5    H    -5.338    -8.374    4.730
    6    C    -3.638    -7.264    3.987
    7    H    -4.188    -6.884    3.099
    8    O    -2.735    -6.207    4.426
    9    C    -1.445    -6.446    3.890
    10    H    -1.159    -5.527    3.327
    11    N    -0.459    -6.675    4.953
    12    C    1.412    -6.809    6.105
    13    N    0.386    -7.085    6.999
    14    C    -0.702    -6.992    6.271
    15    H    -1.721    -7.145    6.635
    16    N    3.551    -6.430    5.162
    17    C    2.918    -6.240    3.998
    18    H    3.566    -6.015    3.145
    19    N    1.607    -6.277    3.732
    20    C    0.904    -6.562    4.840
    21    C    2.813    -6.723    6.263
    22    N    3.445    -6.913    7.439
    23    H    2.944    -7.110    8.285
    24    H    4.446    -6.875    7.489
    25    C    -1.561    -7.608    2.928
    26    H    -0.633    -8.210    2.875
    27    O    -1.896    -7.122    1.644
    28    H    -1.992    -7.892    1.071
    29    C    -2.714    -8.403    3.539
    30    H    -2.373    -8.918    4.468
    31    O    -3.426    -9.285    2.632
    32    P    -2.921    -10.776    2.496
    33    O    -2.740    -11.344    3.848
    34    O    -3.810    -11.530    1.580
    35    O    -1.507    -10.628    1.829
    36    C    -1.380    -10.223    0.446
    37    H    -1.891    -9.255    0.259
    38    H    -1.840    -10.978    -0.226
    39    C    0.091    -10.061    0.048
    40    H    0.174    -9.685    -0.993
    41    O    0.735    -9.081    0.909
    42    C    2.076    -9.481    1.148
    43    H    2.707    -8.638    0.784
    44    N    2.373    -9.709    2.589
    45    C    1.350    -9.962    3.473
    46    H    0.347    -9.985    3.046
    47    C    1.582    -10.137    4.779
    48    H    0.780    -10.301    5.496
    49    C    3.691    -9.707    3.043
    50    O    4.613    -9.532    2.231
    51    N    3.944    -9.893    4.358
    52    C    2.934    -10.083    5.223
    53    N    3.213    -10.226    6.517
    54    H    4.168    -10.164    6.815
    55    H    2.507    -10.372    7.211
    56    C    2.349    -10.703    0.293
    57    H    3.056    -11.405    0.774
    58    O    2.852    -10.305    -0.968
    59    H    2.900    -11.106    -1.503
    60    C    0.961    -11.320    0.165
    61    H    0.667    -11.825    1.118
    62    O    0.783    -12.153    -1.006
    63    P    0.933    -13.717    -0.884
    64    O    0.273    -14.162    0.361
    65    O    0.476    -14.349    -2.143
    66    O    2.477    -13.958    -0.717
    67    C    3.429    -13.651    -1.757
    68    H    3.226    -12.659    -2.223
    69    H    3.378    -14.418    -2.561
    70    C    4.866    -13.634    -1.212
    71    H    5.588    -13.371    -2.018
    72    O    4.980    -12.619    -0.176
    73    C    5.862    -13.072    0.839
    74    H    6.669    -12.305    0.906
    75    N    5.203    -13.202    2.172
    76    C    3.849    -13.424    2.254
    77    H    3.324    -13.491    1.305
    78    C    3.223    -13.508    3.433
    79    H    2.149    -13.654    3.517
    80    C    5.957    -13.125    3.340
    81    O    7.179    -12.947    3.252
    82    N    5.340    -13.223    4.541
    83    C    4.013    -13.396    4.610
    84    N    3.431    -13.473    5.803
    85    H    3.988    -13.399    6.630
    86    H    2.448    -13.612    5.909
    87    C    6.463    -14.373    0.357
    88    H    6.673    -15.059    1.193
    89    O    7.644    -14.124    -0.388
    90    H    7.862    -14.938    -0.864
    91    C    5.354    -14.925    -0.530
    92    H    4.507    -15.302    0.088
    93    O    5.807    -15.883    -1.513
    94    P    5.670    -17.431    -1.243
    95    O    4.234    -17.725    -1.049
    96    O    6.342    -18.160    -2.344
    97    O    6.424    -17.694    0.104
    98    C    7.853    -17.559    0.269
    99    H    8.213    -16.569    -0.078
    100    H    8.399    -18.325    -0.323
    101    C    8.258    -17.707    1.744
    102    H    9.360    -17.626    1.861
    103    O    7.667    -16.634    2.523
    104    C    7.281    -17.105    3.792
    105    H    7.816    -16.448    4.515
    106    N    5.805    -17.003    4.005
    107    C    4.928    -16.942    2.945
    108    H    5.390    -16.959    1.960
    109    C    5.348    -16.951    5.299
    110    O    6.106    -16.995    6.262
    111    N    3.987    -16.840    5.431
    112    H    3.649    -16.755    6.381
    113    C    3.052    -16.733    4.423
    114    O    1.863    -16.582    4.695
    115    C    3.603    -16.807    3.102
    116    H    2.931    -16.729    2.249
    117    C    7.794    -18.535    3.896
    118    H    7.115    -19.167    4.495
    119    O    9.100    -18.561    4.453
    120    H    9.022    -18.483    5.415
    121    C    7.790    -18.985    2.438
    122    H    6.749    -19.179    2.094
    123    O    8.695    -20.069    2.131
    124    P    8.187    -21.558    2.180
    125    O    7.199    -21.704    1.088
    126    O    9.357    -22.463    2.132
    127    O    7.447    -21.753    3.550
    128    C    8.152    -21.895    4.807
    129    H    8.846    -21.040    4.971
    130    H    8.765    -22.822    4.802
    131    C    7.179    -21.961    6.005
    132    H    7.734    -22.065    6.960
    133    O    6.407    -20.723    6.083
    134    C    5.066    -21.001    6.465
    135    H    4.886    -20.379    7.375
    136    N    4.084    -20.634    5.403
    137    C    4.456    -20.564    4.082
    138    H    5.502    -20.768    3.886
    139    C    2.791    -20.352    5.783
    140    O    2.422    -20.400    6.951
    141    N    1.949    -19.997    4.759
    142    H    1.012    -19.758    5.033
    143    C    2.259    -19.883    3.421
    144    O    1.409    -19.504    2.617
    145    C    3.615    -20.209    3.101
    146    H    3.940    -20.114    2.067
    147    C    5.006    -22.466    6.844
    148    H    4.028    -22.936    6.614
    149    O    5.292    -22.577    8.225
    150    H    4.483    -22.445    8.763
    151    C    6.117    -23.066    5.972
    152    H    5.784    -23.127    4.917
    153    O    6.687    -24.328    6.406
    154    P    5.737    -25.576    6.570
    155    O    4.675    -25.507    5.537
    156    O    6.577    -26.798    6.549
    157    O    5.129    -25.409    8.007
    158    C    4.281    -26.364    8.664
    159    H    4.503    -27.409    8.337
    160    H    3.218    -26.140    8.423
    161    C    4.449    -26.293    10.193
    162    H    3.712    -26.959    10.693
    163    O    5.779    -26.780    10.550
    164    C    6.286    -26.023    11.642
    165    H    6.503    -26.774    12.437
    166    N    7.540    -25.290    11.316
    167    C    7.813    -24.932    10.015
    168    H    7.056    -25.201    9.278
    169    C    8.954    -24.310    9.688
    170    H    9.207    -24.067    8.657
    171    C    8.423    -24.932    12.333
    172    O    8.156    -25.236    13.506
    173    N    9.572    -24.288    12.023
    174    C    9.864    -24.002    10.743
    175    N    11.043    -23.449    10.467
    176    H    11.631    -23.173    11.225
    177    H    11.323    -23.222    9.533
    178    C    5.183    -25.106    12.127
    179    H    5.567    -24.136    12.510
    180    O    4.429    -25.759    13.135
    181    H    3.652    -25.205    13.314
    182    C    4.370    -24.901    10.854
    183    H    4.905    -24.197    10.177
    184    O    2.993    -24.530    11.083
    185    P    2.600    -23.006    11.156
    186    O    3.291    -22.297    10.057
    187    O    1.121    -22.942    11.194
    188    O    3.149    -22.505    12.550
    189    C    3.422    -21.096    12.768
    190    H    2.507    -20.579    13.133
    191    H    3.741    -20.585    11.829
    192    C    4.562    -20.866    13.778
    193    H    4.234    -21.087    14.814
    194    O    5.667    -21.780    13.483
    195    C    6.895    -21.079    13.572
    196    H    7.541    -21.685    14.249
    197    N    7.569    -20.933    12.248
    198    C    6.841    -21.012    11.084
    199    H    5.775    -21.233    11.196
    200    C    7.425    -20.869    9.887
    201    H    6.869    -20.937    8.955
    202    C    8.934    -20.664    12.186
    203    O    9.570    -20.545    13.244
    204    N    9.551    -20.547    10.987
    205    C    8.831    -20.649    9.854
    206    N    9.447    -20.553    8.673
    207    H    8.936    -20.590    7.819
    208    H    10.441    -20.433    8.647
    209    C    6.601    -19.743    14.233
    210    H    7.305    -18.956    13.906
    211    O    6.631    -19.864    15.646
    212    H    6.325    -19.019    16.011
    213    C    5.190    -19.458    13.731
    214    H    5.220    -19.160    12.658
    215    O    4.422    -18.535    14.540
    216    P    4.608    -16.981    14.328
    217    O    4.734    -16.720    12.874
    218    O    3.519    -16.277    15.043
    219    O    5.963    -16.642    15.056
    220    C    6.689    -15.420    14.746
    221    H    6.556    -14.688    15.572
    222    H    6.322    -14.930    13.811
    223    C    8.194    -15.674    14.557
    224    H    8.691    -15.873    15.530
    225    O    8.373    -16.861    13.743
    226    C    9.463    -16.702    12.877
    227    H    10.149    -17.557    13.082
    228    N    9.023    -16.757    11.485
    229    C    8.964    -16.975    9.306
    230    N    7.647    -16.793    9.708
    231    C    7.732    -16.673    11.010
    232    H    6.886    -16.519    11.688
    233    N    10.891    -17.341    7.978
    234    C    11.590    -17.313    9.116
    235    H    12.671    -17.453    9.007
    236    N    11.158    -17.110    10.365
    237    C    9.820    -16.961    10.391
    238    C    9.550    -17.171    8.042
    239    N    8.860    -17.150    6.899
    240    H    7.860    -17.014    6.906
    241    H    9.358    -16.864    6.083
    242    C    10.142    -15.400    13.239
    243    H    10.589    -14.902    12.359
    244    O    11.137    -15.635    14.221
    245    H    11.399    -14.778    14.585
    246    C    8.980    -14.586    13.798
    247    H    8.320    -14.228    12.973
    248    O    9.379    -13.528    14.695
    249    P    9.550    -12.050    14.181
    250    O    8.267    -11.615    13.592
    251    O    10.099    -11.236    15.290
    252    O    10.605    -12.127    13.016
    253    C    12.013    -12.339    13.254
    254    H    12.181    -13.240    13.884
    255    H    12.451    -11.462    13.779
    256    C    12.790    -12.529    11.938
    257    H    13.869    -12.720    12.137
    258    O    12.271    -13.686    11.227
    259    C    12.202    -13.409    9.842
    260    H    12.750    -14.229    9.325
    261    N    10.816    -13.399    9.381
    262    C    9.009    -13.530    8.148
    263    N    8.575    -13.331    9.450
    264    C    9.679    -13.250    10.136
    265    H    9.724    -13.109    11.213
    266    N    9.060    -13.896    5.817
    267    C    10.389    -13.903    5.916
    268    H    10.920    -14.056    4.973
    269    N    11.155    -13.751    7.005
    270    C    10.390    -13.574    8.094
    271    C    8.319    -13.705    6.936
    272    N    6.980    -13.682    6.848
    273    H    6.383    -13.597    7.650
    274    H    6.595    -13.654    5.915
    275    C    12.905    -12.097    9.606
    276    H    12.474    -11.521    8.761
    277    O    14.283    -12.335    9.381
    278    H    14.746    -11.491    9.483
    279    C    12.665    -11.379    10.927
    280    H    11.608    -11.025    10.986
    281    O    13.627    -10.343    11.218
    282    P    13.264    -8.842    10.905
    283    O    11.975    -8.527    11.566
    284    O    14.424    -7.997    11.271
    285    O    13.044    -8.821    9.347
    286    C    14.155    -8.915    8.428
    287    H    14.734    -9.849    8.598
    288    H    14.853    -8.054    8.556
    289    C    13.674    -8.937    6.970
    290    H    14.534    -9.035    6.272
    291    O    12.810    -10.089    6.744
    292    C    11.750    -9.719    5.874
    293    H    11.749    -10.442    5.021
    294    N    10.451    -9.793    6.553
    295    C    9.229    -9.807    5.940
    296    N    7.304    -9.720    3.054
    297    H    7.984    -9.681    2.325
    298    H    6.328    -9.757    2.822
    299    N    9.012    -9.730    4.616
    300    C    7.717    -9.805    4.308
    301    N    6.731    -9.919    5.253
    302    H    5.782    -10.007    4.925
    303    C    6.923    -10.013    6.625
    304    O    5.967    -10.129    7.400
    305    C    8.304    -9.920    6.961
    306    N    8.939    -9.947    8.200
    307    C    10.214    -9.864    7.907
    308    H    11.033    -9.852    8.630
    309    C    12.051    -8.327    5.366
    310    H    11.133    -7.745    5.151
    311    O    12.843    -8.403    4.198
    312    H    13.090    -7.498    3.977
    313    C    12.832    -7.733    6.531
    314    H    12.144    -7.507    7.380
    315    O    13.699    -6.629    6.181
    316    P    13.224    -5.153    6.460
    317    O    12.518    -5.110    7.754
    318    O    14.379    -4.241    6.295
    319    O    12.174    -4.886    5.319
    320    C    12.581    -4.898    3.930
    321    H    13.127    -5.830    3.667
    322    H    13.262    -4.038    3.726
    323    C    11.376    -4.780    2.982
    324    H    11.708    -4.696    1.928
    325    O    10.541    -5.971    3.070
    326    C    9.171    -5.598    2.974
    327    H    8.751    -6.181    2.120
    328    N    8.425    -5.918    4.225
    329    C    9.091    -6.118    5.413
    330    H    10.172    -6.008    5.367
    331    C    7.052    -6.007    4.168
    332    O    6.420    -5.818    3.134
    333    N    6.442    -6.323    5.355
    334    H    5.430    -6.379    5.318
    335    C    7.045    -6.543    6.575
    336    O    6.365    -6.818    7.560
    337    C    8.469    -6.437    6.555
    338    H    9.017    -6.607    7.478
    339    C    9.129    -4.111    2.636
    340    H    8.245    -3.605    3.088
    341    O    9.123    -3.924    1.230
    342    H    9.273    -2.983    1.046
    343    C    10.421    -3.621    3.277
    344    H    10.296    -3.547    4.379
    345    O    10.940    -2.392    2.736
    346    H    10.325    -1.660    2.924
 $END
