!*** FMO 5.3 (Gamess) INPUT generated by Facio 22.1.1.32 ***
 $CONTRL RUNTYP=ENERGY NPRINT=-5 ISPHER=1 MAXIT=200 $END
 $SYSTEM MWORDS=63 MEMDDI=63 $END
 $GDDI NGROUP=1 $END
 $SCF DIRSCF=.TRUE. NPUNCH=0 $END
!*** NumCPU : 2  MemPerNode : 512MB
 $PCM SOLVNT=WATER IEF=-10 ICOMP=2 ICAV=1 IDISP=1 IFMO=-1 $END
 $PCMCAV RADII=SUAHF $END
 $TESCAV NTSALL=60 $END
 $FMOPRP
    NAODIR=200
    NGRFMO(1)=1, 1, 0, 0, 0,   0, 0, 0, 0, 0
    IPIEDA=1
    NPRINT=9
 $END
 $FMO
      SCFTYP(1)=RHF
      MODGRD=10
      MODMUL=0
      MAXCAO=5
      MAXBND=13
      NLAYER=1
      MPLEVL(1)=2
      NFRAG=11
      ICHARG(1)=-1, -1, -1, -1, -1, -1, -1, -1, -1, -1, 0
      FRGNAM(1)=F1, F2, F3, F4, F5, F6, F7, F8, F9, F10, F11
      indat(1)=0
               1   -35   0
               36   -66   0
               67   -97   0
               98   -127   0
               128   -157   0
               158   -188   0
               189   -219   0
               220   -252   0
               253   -285   0
               286   -319   0
               320   -346   0
 $END

 $FMOBND
   -36   35       6-31G*    MINI
   -67   66       6-31G*    MINI
   -98   97       6-31G*    MINI
   -128   127       6-31G*    MINI
   -158   157       6-31G*    MINI
   -189   188       6-31G*    MINI
   -220   219       6-31G*    MINI
   -253   252       6-31G*    MINI
   -286   285       6-31G*    MINI
   -320   319       6-31G*    MINI
 $END
 $FMOHYB
 6-31G*      15   5
   1 0  -0.065034   0.288264   0.000000   0.000000   0.604412
         0.290129   0.000000   0.000000   0.319045  -0.017106
        -0.017106   0.057934   0.000000   0.000000   0.000000
   0 1  -0.065040   0.288293   0.569832   0.000000  -0.201456
         0.290147   0.300783   0.000000  -0.106342   0.049598
        -0.017106  -0.008771   0.000000  -0.027223   0.000000
   0 1  -0.065039   0.288293  -0.284916  -0.493490  -0.201455
         0.290145  -0.150392  -0.260486  -0.106340  -0.000427
         0.032923  -0.008771   0.033353   0.013612   0.023576
   0 1  -0.065039   0.288293  -0.284916   0.493490  -0.201455
         0.290145  -0.150392   0.260486  -0.106340  -0.000427
         0.032923  -0.008771  -0.033353   0.013612  -0.023576
   0 1   1.010938  -0.011975   0.000000   0.000000   0.000000
        -0.054085   0.000000   0.000000  -0.000000  -0.003174
        -0.003174  -0.003174   0.000000   0.000000   0.000000
 MINI         5   5
   1 0  -0.104883   0.308874   0.000000   0.000000   0.521806
   0 1  -0.104883   0.308874   0.491961   0.000000  -0.173934
   0 1  -0.104883   0.308876  -0.245980  -0.426050  -0.173933
   0 1  -0.104883   0.308876  -0.245980   0.426050  -0.173933
   0 1   0.988209   0.063992   0.000000   0.000000   0.000000
 $END
 
 $DATA
 FMO calculation
 C1 
 H.1-1    1
      N31 6
   
 O.1-1    8
      N31 6
      d 1
      1 0.800 1.0
   
 C.1-1    6
      N31 6
      d 1
      1 0.800 1.0
   
 N.1-1    7
      N31 6
      d 1
      1 0.800 1.0
   
 P.1-1   15
      N31 6
      d 1
      1 0.550 1.0
   
 $END
 $FMOXYZ
    1    H    -4.800    -9.648    7.206
    2    O    -4.109    -9.476    6.533
    3    C    -4.801    -9.074    5.341
    4    H    -5.453    -8.202    5.573
    5    H    -5.456    -9.910    5.004
    6    C    -3.865    -8.699    4.190
    7    H    -4.453    -8.445    3.277
    8    O    -3.073    -7.525    4.541
    9    C    -1.758    -7.685    4.028
    10    H    -1.556    -6.792    3.391
    11    N    -0.766    -7.741    5.106
    12    C    1.108    -7.622    6.252
    13    N    0.110    -7.923    7.172
    14    C    -0.982    -7.985    6.445
    15    H    -1.983    -8.205    6.824
    16    N    3.203    -7.114    5.274
    17    C    2.558    -7.068    4.103
    18    H    3.185    -6.849    3.231
    19    N    1.255    -7.237    3.849
    20    C    0.581    -7.511    4.978
    21    C    2.493    -7.389    6.398
    22    N    3.130    -7.435    7.583
    23    H    2.633    -7.573    8.444
    24    H    4.124    -7.310    7.630
    25    C    -1.755    -8.926    3.162
    26    H    -0.774    -9.441    3.158
    27    O    -2.118    -8.588    1.839
    28    H    -2.144    -9.417    1.348
    29    C    -2.831    -9.774    3.832
    30    H    -2.450    -10.185    4.796
    31    O    -3.447    -10.782    2.995
    32    P    -2.829    -12.234    2.979
    33    O    -2.604    -12.688    4.367
    34    O    -3.668    -13.097    2.122
    35    O    -1.436    -12.019    2.293
    36    C    -1.341    -11.721    0.881
    37    H    -1.934    -10.818    0.604
    38    H    -1.728    -12.571    0.273
    39    C    0.115    -11.464    0.475
    40    H    0.179    -11.179    -0.596
    41    O    0.668    -10.363    1.252
    42    C    2.038    -10.625    1.524
    43    H    2.599    -9.770    1.082
    44    N    2.343    -10.702    2.982
    45    C    1.336    -10.953    3.886
    46    H    0.342    -11.098    3.464
    47    C    1.573    -10.987    5.204
    48    H    0.780    -11.139    5.933
    49    C    3.652    -10.550    3.434
    50    O    4.562    -10.364    2.611
    51    N    3.911    -10.599    4.760
    52    C    2.914    -10.787    5.640
    53    N    3.196    -10.788    6.940
    54    H    4.140    -10.617    7.233
    55    H    2.494    -10.901    7.646
    56    C    2.415    -11.892    0.781
    57    H    3.178    -12.485    1.321
    58    O    2.887    -11.576    -0.515
    59    H    3.014    -12.418    -0.972
    60    C    1.084    -12.628    0.719
    61    H    0.827    -13.050    1.718
    62    O    0.979    -13.591    -0.352
    63    P    1.236    -15.119    -0.077
    64    O    0.673    -15.465    1.242
    65    O    0.762    -15.900    -1.240
    66    O    2.795    -15.240    0.024
    67    C    3.705    -14.953    -1.053
    68    H    3.417    -14.027    -1.604
    69    H    3.705    -15.794    -1.782
    70    C    5.139    -14.779    -0.523
    71    H    5.838    -14.534    -1.355
    72    O    5.173    -13.671    0.427
    73    C    6.066    -13.975    1.492
    74    H    6.822    -13.155    1.494
    75    N    5.397    -14.017    2.832
    76    C    4.057    -14.308    2.924
    77    H    3.546    -14.494    1.982
    78    C    3.419    -14.317    4.101
    79    H    2.350    -14.505    4.184
    80    C    6.127    -13.782    3.997
    81    O    7.338    -13.537    3.905
    82    N    5.501    -13.811    5.199
    83    C    4.185    -14.055    5.271
    84    N    3.592    -14.054    6.463
    85    H    4.127    -13.834    7.276
    86    H    2.614    -14.224    6.576
    87    C    6.757    -15.274    1.136
    88    H    6.985    -15.872    2.034
    89    O    7.949    -15.019    0.411
    90    H    8.237    -15.857    0.019
    91    C    5.717    -15.969    0.267
    92    H    4.884    -16.358    0.898
    93    O    6.272    -16.966    -0.624
    94    P    6.118    -18.499    -0.276
    95    O    4.677    -18.824    -0.278
    96    O    6.957    -19.251    -1.234
    97    O    6.701    -18.650    1.171
    98    C    8.122    -18.526    1.410
    99    H    8.526    -17.575    0.997
    100    H    8.672    -19.356    0.917
    101    C    8.433    -18.546    2.911
    102    H    9.526    -18.460    3.094
    103    O    7.792    -17.403    3.541
    104    C    7.283    -17.767    4.796
    105    H    7.713    -17.014    5.490
    106    N    5.802    -17.711    4.862
    107    C    5.007    -17.736    3.741
    108    H    5.542    -17.681    2.798
    109    C    5.252    -17.657    6.115
    110    O    5.949    -17.633    7.126
    111    N    3.886    -17.630    6.148
    112    H    3.524    -17.643    7.099
    113    C    3.018    -17.613    5.072
    114    O    1.809    -17.486    5.245
    115    C    3.668    -17.690    3.795
    116    H    3.063    -17.641    2.892
    117    C    7.810    -19.151    5.101
    118    H    7.101    -19.710    5.739
    119    O    9.076    -19.081    5.740
    120    H    9.044    -18.414    6.443
    121    C    7.898    -19.750    3.695
    122    H    6.870    -19.967    3.320
    123    O    8.797    -20.872    3.586
    124    P    8.494    -22.100    2.645
    125    O    8.656    -21.690    1.233
    126    O    9.350    -23.209    3.113
    127    O    6.997    -22.475    2.957
    128    C    6.075    -22.783    1.890
    129    H    6.577    -23.312    1.044
    130    H    5.639    -21.840    1.487
    131    C    4.936    -23.690    2.379
    132    H    4.204    -23.852    1.555
    133    O    5.474    -25.005    2.715
    134    C    4.841    -25.496    3.891
    135    H    4.469    -26.512    3.620
    136    N    5.791    -25.628    5.037
    137    C    7.121    -25.279    4.895
    138    H    7.388    -24.766    3.968
    139    C    5.354    -26.256    6.187
    140    O    4.211    -26.681    6.322
    141    N    6.301    -26.400    7.167
    142    H    5.981    -26.841    8.017
    143    C    7.643    -26.093    7.087
    144    O    8.390    -26.329    8.035
    145    C    8.037    -25.499    5.846
    146    H    9.072    -25.194    5.715
    147    C    3.657    -24.591    4.173
    148    H    3.416    -24.510    5.255
    149    O    2.533    -25.086    3.458
    150    H    2.684    -24.957    2.511
    151    C    4.155    -23.247    3.632
    152    H    4.896    -22.805    4.329
    153    O    3.147    -22.283    3.272
    154    P    1.991    -21.832    4.259
    155    O    1.359    -20.621    3.710
    156    O    1.063    -22.953    4.517
    157    O    2.679    -21.411    5.614
    158    C    1.829    -21.118    6.764
    159    H    0.793    -21.529    6.654
    160    H    1.722    -20.014    6.865
    161    C    2.365    -21.673    8.104
    162    H    1.519    -21.984    8.755
    163    O    3.202    -22.852    7.900
    164    C    4.307    -22.807    8.788
    165    H    4.289    -23.774    9.335
    166    N    5.610    -22.681    8.085
    167    C    5.641    -22.171    6.816
    168    H    4.685    -21.876    6.391
    169    C    6.780    -22.074    6.134
    170    H    6.795    -21.695    5.120
    171    C    6.799    -23.068    8.702
    172    O    6.761    -23.530    9.853
    173    N    7.969    -22.935    8.035
    174    C    7.984    -22.459    6.780
    175    N    9.141    -22.345    6.138
    176    H    9.188    -21.931    5.224
    177    H    9.990    -22.651    6.565
    178    C    4.061    -21.676    9.764
    179    H    4.999    -21.203    10.120
    180    O    3.322    -22.151    10.869
    181    H    3.106    -21.376    11.402
    182    C    3.233    -20.707    8.930
    183    H    3.883    -20.179    8.193
    184    O    2.392    -19.818    9.714
    185    P    2.844    -18.334    9.979
    186    O    3.586    -17.892    8.791
    187    O    1.662    -17.512    10.341
    188    O    3.840    -18.408    11.196
    189    C    3.399    -18.830    12.508
    190    H    2.703    -19.701    12.447
    191    H    2.870    -17.994    13.028
    192    C    4.583    -19.244    13.395
    193    H    4.225    -19.594    14.385
    194    O    5.282    -20.359    12.779
    195    C    6.674    -20.250    13.046
    196    H    6.938    -21.190    13.587
    197    N    7.496    -20.156    11.808
    198    C    6.965    -19.601    10.666
    199    H    5.926    -19.267    10.739
    200    C    7.672    -19.540    9.529
    201    H    7.258    -19.124    8.613
    202    C    8.819    -20.595    11.814
    203    O    9.298    -21.055    12.862
    204    N    9.555    -20.525    10.682
    205    C    9.008    -20.044    9.555
    206    N    9.748    -20.057    8.450
    207    H    9.390    -19.860    7.539
    208    H    10.684    -20.405    8.518
    209    C    6.876    -19.075    13.982
    210    H    7.833    -18.540    13.801
    211    O    6.810    -19.511    15.329
    212    H    6.721    -18.720    15.884
    213    C    5.687    -18.197    13.623
    214    H    5.866    -17.713    12.633
    215    O    5.320    -17.270    14.672
    216    P    5.265    -15.724    14.367
    217    O    4.772    -15.519    12.992
    218    O    4.506    -15.060    15.447
    219    O    6.765    -15.252    14.452
    220    C    7.554    -15.385    15.658
    221    H    7.304    -16.316    16.216
    222    H    7.369    -14.521    16.338
    223    C    9.056    -15.442    15.343
    224    H    9.652    -15.565    16.274
    225    O    9.313    -16.608    14.505
    226    C    10.259    -16.285    13.510
    227    H    11.081    -17.033    13.597
    228    N    9.667    -16.370    12.169
    229    C    9.390    -16.612    10.006
    230    N    8.129    -16.398    10.527
    231    C    8.345    -16.256    11.810
    232    H    7.566    -16.088    12.548
    233    N    11.165    -17.012    8.500
    234    C    11.978    -16.966    9.560
    235    H    13.041    -17.118    9.346
    236    N    11.667    -16.769    10.849
    237    C    10.345    -16.597    11.002
    238    C    9.839    -16.838    8.694
    239    N    9.024    -16.896    7.629
    240    H    8.048    -16.698    7.754
    241    H    9.447    -16.633    6.758
    242    C    10.792    -14.904    13.816
    243    H    11.022    -14.337    12.896
    244    O    11.944    -14.999    14.629
    245    H    12.140    -14.107    14.947
    246    C    9.631    -14.252    14.556
    247    H    8.839    -13.941    13.836
    248    O    10.022    -13.185    15.454
    249    P    10.008    -11.688    14.951
    250    O    8.641    -11.349    14.504
    251    O    10.580    -10.841    16.024
    252    O    10.957    -11.676    13.697
    253    C    12.395    -11.679    13.799
    254    H    12.754    -12.504    14.453
    255    H    12.752    -10.722    14.237
    256    C    13.059    -11.838    12.419
    257    H    14.163    -11.912    12.520
    258    O    12.597    -13.058    11.771
    259    C    12.462    -12.836    10.380
    260    H    13.073    -13.614    9.866
    261    N    11.066    -12.960    9.957
    262    C    9.254    -13.281    8.761
    263    N    8.824    -13.026    10.056
    264    C    9.934    -12.842    10.723
    265    H    9.991    -12.616    11.789
    266    N    9.311    -13.784    6.454
    267    C    10.637    -13.672    6.532
    268    H    11.180    -13.828    5.594
    269    N    11.397    -13.418    7.603
    270    C    10.635    -13.233    8.689
    271    C    8.565    -13.594    7.572
    272    N    7.228    -13.721    7.504
    273    H    6.638    -13.613    8.309
    274    H    6.809    -13.835    6.590
    275    C    13.026    -11.468    10.093
    276    H    12.523    -10.968    9.242
    277    O    14.418    -11.568    9.851
    278    H    14.790    -10.678    9.923
    279    C    12.738    -10.740    11.399
    280    H    11.648    -10.522    11.501
    281    O    13.570    -9.582    11.625
    282    P    13.034    -8.166    11.188
    283    O    11.715    -7.953    11.820
    284    O    14.086    -7.165    11.468
    285    O    12.832    -8.288    9.633
    286    C    13.959    -8.288    8.727
    287    H    14.678    -9.100    8.978
    288    H    14.505    -7.315    8.778
    289    C    13.502    -8.497    7.275
    290    H    14.370    -8.582    6.587
    291    O    12.732    -9.727    7.156
    292    C    11.661    -9.532    6.250
    293    H    11.755    -10.317    5.466
    294    N    10.358    -9.676    6.918
    295    C    9.147    -9.878    6.306
    296    N    7.278    -10.312    3.425
    297    H    7.972    -10.261    2.711
    298    H    6.314    -10.429    3.173
    299    N    8.937    -9.962    4.981
    300    C    7.655    -10.176    4.683
    301    N    6.672    -10.280    5.633
    302    H    5.734    -10.483    5.321
    303    C    6.862    -10.216    7.009
    304    O    5.916    -10.337    7.795
    305    C    8.226    -9.968    7.332
    306    N    8.844    -9.805    8.567
    307    C    10.109    -9.633    8.272
    308    H    10.915    -9.488    8.993
    309    C    11.838    -8.162    5.631
    310    H    10.870    -7.684    5.381
    311    O    12.628    -8.249    4.463
    312    H    12.778    -7.342    4.174
    313    C    12.566    -7.411    6.742
    314    H    11.857    -7.183    7.573
    315    O    13.343    -6.265    6.312
    316    P    12.686    -4.832    6.442
    317    O    11.960    -4.743    7.725
    318    O    13.709    -3.795    6.183
    319    O    11.632    -4.810    5.275
    320    C    12.052    -4.849    3.893
    321    H    12.685    -5.740    3.681
    322    H    12.654    -3.946    3.642
    323    C    10.845    -4.893    2.943
    324    H    11.168    -4.851    1.882
    325    O    10.121    -6.147    3.123
    326    C    8.720    -5.902    3.024
    327    H    8.352    -6.580    2.219
    328    N    8.007    -6.198    4.300
    329    C    8.684    -6.239    5.497
    330    H    9.750    -6.039    5.434
    331    C    6.651    -6.432    4.254
    332    O    6.007    -6.387    3.211
    333    N    6.070    -6.715    5.463
    334    H    5.073    -6.892    5.431
    335    C    6.686    -6.780    6.695
    336    O    6.031    -7.046    7.701
    337    C    8.094    -6.530    6.663
    338    H    8.656    -6.581    7.592
    339    C    8.545    -4.456    2.581
    340    H    7.620    -3.998    2.998
    341    O    8.521    -4.388    1.164
    342    H    8.590    -3.455    0.897
    343    C    9.789    -3.801    3.171
    344    H    9.665    -3.659    4.266
    345    O    10.169    -2.567    2.531
    346    H    9.501    -1.880    2.716
 $END
