!*** FMO 5.3 (Gamess) INPUT generated by Facio 22.1.1.32 ***
 $CONTRL RUNTYP=ENERGY NPRINT=-5 ISPHER=1 MAXIT=200 $END
 $SYSTEM MWORDS=63 MEMDDI=63 $END
 $GDDI NGROUP=1 $END
 $SCF DIRSCF=.TRUE. NPUNCH=0 $END
!*** NumCPU : 2  MemPerNode : 512MB
 $PCM SOLVNT=WATER IEF=-10 ICOMP=2 ICAV=1 IDISP=1 IFMO=-1 $END
 $PCMCAV RADII=SUAHF $END
 $TESCAV NTSALL=60 $END
 $FMOPRP
    NAODIR=200
    NGRFMO(1)=1, 1, 0, 0, 0,   0, 0, 0, 0, 0
    IPIEDA=1
    NPRINT=9
 $END
 $FMO
      SCFTYP(1)=RHF
      MODGRD=10
      MODMUL=0
      MAXCAO=5
      MAXBND=10
      NLAYER=1
      MPLEVL(1)=2
      NFRAG=8
      ICHARG(1)=-1, -1, -1, -1, -1, -1, -1, 0
      FRGNAM(1)=F1, F2, F3, F4, F5, F6, F7, F8
      indat(1)=0
               1   -36   0
               37   -67   0
               68   -97   0
               98   -128   0
               129   -161   0
               162   -192   0
               193   -226   0
               227   -254   0
 $END

 $FMOBND
   -37   36       6-31G*    MINI
   -68   67       6-31G*    MINI
   -98   97       6-31G*    MINI
   -129   128       6-31G*    MINI
   -162   161       6-31G*    MINI
   -193   192       6-31G*    MINI
   -227   226       6-31G*    MINI
 $END
 $FMOHYB
 6-31G*      15   5
   1 0  -0.065034   0.288264   0.000000   0.000000   0.604412
         0.290129   0.000000   0.000000   0.319045  -0.017106
        -0.017106   0.057934   0.000000   0.000000   0.000000
   0 1  -0.065040   0.288293   0.569832   0.000000  -0.201456
         0.290147   0.300783   0.000000  -0.106342   0.049598
        -0.017106  -0.008771   0.000000  -0.027223   0.000000
   0 1  -0.065039   0.288293  -0.284916  -0.493490  -0.201455
         0.290145  -0.150392  -0.260486  -0.106340  -0.000427
         0.032923  -0.008771   0.033353   0.013612   0.023576
   0 1  -0.065039   0.288293  -0.284916   0.493490  -0.201455
         0.290145  -0.150392   0.260486  -0.106340  -0.000427
         0.032923  -0.008771  -0.033353   0.013612  -0.023576
   0 1   1.010938  -0.011975   0.000000   0.000000   0.000000
        -0.054085   0.000000   0.000000  -0.000000  -0.003174
        -0.003174  -0.003174   0.000000   0.000000   0.000000
 MINI         5   5
   1 0  -0.104883   0.308874   0.000000   0.000000   0.521806
   0 1  -0.104883   0.308874   0.491961   0.000000  -0.173934
   0 1  -0.104883   0.308876  -0.245980  -0.426050  -0.173933
   0 1  -0.104883   0.308876  -0.245980   0.426050  -0.173933
   0 1   0.988209   0.063992   0.000000   0.000000   0.000000
 $END
 
 $DATA
 FMO calculation
 C1 
 H.1-1    1
      N31 6
   
 O.1-1    8
      N31 6
      d 1
      1 0.800 1.0
   
 C.1-1    6
      N31 6
      d 1
      1 0.800 1.0
   
 N.1-1    7
      N31 6
      d 1
      1 0.800 1.0
   
 P.1-1   15
      N31 6
      d 1
      1 0.550 1.0
   
 $END
 $FMOXYZ
    1    H    -6.547    -6.906    9.019
    2    O    -6.798    -6.002    9.283
    3    C    -6.808    -5.973    10.718
    4    H    -5.789    -6.206    11.097
    5    H    -7.496    -6.756    11.095
    6    C    -7.233    -4.619    11.291
    7    H    -7.275    -4.649    12.401
    8    O    -6.247    -3.608    10.920
    9    C    -6.916    -2.393    10.622
    10    H    -6.464    -1.608    11.271
    11    N    -6.731    -2.001    9.216
    12    C    -6.916    -0.749    8.691
    13    N    -7.810    2.572    9.085
    14    H    -8.032    2.630    10.056
    15    H    -7.863    3.403    8.524
    16    N    -7.330    0.336    9.368
    17    C    -7.409    1.416    8.592
    18    N    -7.055    1.415    7.268
    19    H    -7.131    2.281    6.757
    20    C    -6.604    0.316    6.546
    21    O    -6.305    0.401    5.349
    22    C    -6.568    -0.851    7.356
    23    N    -6.197    -2.151    7.040
    24    C    -6.318    -2.803    8.174
    25    H    -6.103    -3.864    8.324
    26    C    -8.369    -2.575    10.996
    27    H    -9.049    -1.968    10.366
    28    O    -8.545    -2.234    12.357
    29    H    -9.466    -2.424    12.571
    30    C    -8.570    -4.071    10.768
    31    H    -8.603    -4.294    9.677
    32    O    -9.673    -4.674    11.497
    33    P    -11.100    -4.709    10.817
    34    O    -10.962    -5.273    9.460
    35    O    -12.042    -5.397    11.728
    36    O    -11.481    -3.188    10.697
    37    C    -11.868    -2.433    11.866
    38    H    -11.061    -2.426    12.628
    39    H    -12.777    -2.872    12.337
    40    C    -12.184    -0.977    11.511
    41    H    -12.445    -0.397    12.423
    42    O    -11.019    -0.340    10.916
    43    C    -11.445    0.558    9.901
    44    H    -11.043    1.554    10.202
    45    N    -10.908    0.223    8.556
    46    C    -10.459    -1.046    8.284
    47    H    -10.564    -1.769    9.093
    48    C    -9.925    -1.357    7.096
    49    H    -9.539    -2.350    6.875
    50    C    -10.871    1.198    7.563
    51    O    -11.302    2.334    7.814
    52    N    -10.356    0.895    6.348
    53    C    -9.879    -0.336    6.103
    54    N    -9.366    -0.596    4.904
    55    H    -9.340    0.126    4.208
    56    H    -8.957    -1.481    4.679
    57    C    -12.959    0.601    9.935
    58    H    -13.396    0.755    8.926
    59    O    -13.387    1.627    10.814
    60    H    -14.325    1.480    11.009
    61    C    -13.304    -0.782    10.480
    62    H    -13.153    -1.558    9.695
    63    O    -14.598    -0.876    11.125
    64    P    -15.847    -1.370    10.295
    65    O    -15.667    -2.808    9.998
    66    O    -17.070    -0.976    11.031
    67    O    -15.784    -0.578    8.943
    68    C    -16.251    0.785    8.838
    69    H    -15.620    1.472    9.444
    70    H    -17.302    0.871    9.199
    71    C    -16.197    1.260    7.382
    72    H    -16.607    2.288    7.284
    73    O    -14.814    1.305    6.928
    74    C    -14.760    0.928    5.566
    75    H    -14.298    1.802    5.057
    76    N    -13.920    -0.274    5.352
    77    C    -13.722    -1.175    6.372
    78    H    -14.245    -0.952    7.302
    79    C    -13.316    -0.444    4.126
    80    O    -13.476    0.339    3.192
    81    N    -12.511    -1.550    4.030
    82    H    -12.042    -1.679    3.143
    83    C    -12.220    -2.461    5.025
    84    O    -11.407    -3.357    4.823
    85    C    -12.905    -2.228    6.260
    86    H    -12.719    -2.899    7.097
    87    C    -16.192    0.762    5.088
    88    H    -16.302    -0.017    4.304
    89    O    -16.656    2.014    4.623
    90    H    -16.605    2.035    3.644
    91    C    -16.912    0.360    6.369
    92    H    -16.679    -0.695    6.636
    93    O    -18.330    0.631    6.392
    94    P    -19.327    -0.371    5.701
    95    O    -19.117    -1.703    6.313
    96    O    -20.691    0.198    5.806
    97    O    -18.910    -0.434    4.182
    98    C    -19.369    -1.505    3.324
    99    H    -20.374    -1.258    2.911
    100    H    -19.464    -2.468    3.877
    101    C    -18.393    -1.726    2.152
    102    H    -18.412    -0.844    1.478
    103    O    -17.030    -1.926    2.629
    104    C    -16.678    -3.301    2.527
    105    H    -15.958    -3.343    1.680
    106    N    -16.047    -3.813    3.769
    107    C    -16.507    -3.367    4.986
    108    H    -17.320    -2.635    4.957
    109    C    -15.945    -3.779    6.130
    110    H    -16.260    -3.403    7.103
    111    C    -15.025    -4.761    3.711
    112    O    -14.647    -5.177    2.604
    113    N    -14.445    -5.189    4.858
    114    C    -14.862    -4.703    6.043
    115    N    -14.230    -5.076    7.154
    116    H    -13.498    -5.753    7.076
    117    H    -14.532    -4.794    8.063
    118    C    -17.921    -4.072    2.126
    119    H    -18.501    -4.383    3.023
    120    O    -17.632    -5.196    1.319
    121    H    -17.279    -4.862    0.477
    122    C    -18.691    -3.004    1.348
    123    H    -19.777    -3.236    1.458
    124    O    -18.282    -2.866    -0.034
    125    P    -19.344    -2.734    -1.193
    126    O    -18.922    -3.620    -2.299
    127    O    -20.709    -2.943    -0.655
    128    O    -19.235    -1.243    -1.675
    129    C    -18.005    -0.648    -2.146
    130    H    -17.588    -1.215    -3.008
    131    H    -17.240    -0.665    -1.336
    132    C    -18.210    0.824    -2.578
    133    H    -18.774    0.875    -3.537
    134    O    -19.011    1.526    -1.579
    135    C    -18.522    2.840    -1.401
    136    H    -19.382    3.526    -1.577
    137    N    -18.022    3.028    -0.040
    138    C    -17.425    3.902    1.885
    139    N    -17.202    2.534    1.988
    140    C    -17.590    2.059    0.834
    141    H    -17.600    1.000    0.561
    142    N    -17.576    6.217    2.370
    143    C    -17.968    6.372    1.102
    144    H    -18.177    7.406    0.802
    145    N    -18.204    5.444    0.165
    146    C    -17.908    4.220    0.629
    147    C    -17.274    4.968    2.802
    148    N    -16.897    4.798    4.081
    149    H    -16.782    3.880    4.477
    150    H    -16.779    5.601    4.670
    151    C    -17.453    3.088    -2.445
    152    H    -16.639    3.747    -2.072
    153    O    -18.037    3.661    -3.603
    154    H    -17.346    3.702    -4.283
    155    C    -16.930    1.676    -2.699
    156    H    -16.275    1.353    -1.856
    157    O    -16.312    1.490    -3.994
    158    P    -14.775    1.818    -4.170
    159    O    -14.099    1.605    -2.873
    160    O    -14.270    1.050    -5.330
    161    O    -14.712    3.352    -4.542
    162    C    -13.495    4.116    -4.302
    163    H    -12.929    4.244    -5.252
    164    H    -12.803    3.605    -3.590
    165    C    -13.783    5.515    -3.718
    166    H    -14.156    6.200    -4.511
    167    O    -14.836    5.418    -2.713
    168    C    -14.503    6.207    -1.591
    169    H    -15.390    6.856    -1.410
    170    N    -14.240    5.385    -0.371
    171    C    -13.882    4.055    -0.480
    172    H    -13.817    3.647    -1.494
    173    C    -13.659    3.303    0.608
    174    H    -13.394    2.250    0.544
    175    C    -14.337    5.972    0.891
    176    O    -14.632    7.176    0.984
    177    N    -14.108    5.222    1.994
    178    C    -13.789    3.925    1.883
    179    N    -13.603    3.220    2.995
    180    H    -13.765    3.702    3.856
    181    H    -13.496    2.224    2.989
    182    C    -13.330    7.081    -1.987
    183    H    -12.704    7.321    -1.118
    184    O    -13.776    8.285    -2.586
    185    H    -12.995    8.746    -2.932
    186    C    -12.599    6.183    -2.980
    187    H    -12.063    5.374    -2.432
    188    O    -11.745    6.877    -3.918
    189    P    -10.242    7.187    -3.536
    190    O    -9.667    5.996    -2.874
    191    O    -9.552    7.647    -4.761
    192    O    -10.281    8.414    -2.541
    193    C    -9.272    8.543    -1.498
    194    H    -8.667    9.461    -1.671
    195    H    -8.547    7.690    -1.470
    196    C    -9.902    8.644    -0.105
    197    H    -10.484    9.585    0.000
    198    O    -10.823    7.550    0.089
    199    C    -10.794    7.118    1.424
    200    H    -11.837    7.195    1.811
    201    N    -10.356    5.724    1.500
    202    C    -10.436    4.907    2.593
    203    N    -11.304    4.380    5.895
    204    H    -11.680    5.264    6.169
    205    H    -11.269    3.637    6.570
    206    N    -10.918    5.246    3.803
    207    C    -10.875    4.233    4.659
    208    N    -10.410    2.988    4.334
    209    H    -10.412    2.277    5.049
    210    C    -9.920    2.607    3.094
    211    O    -9.520    1.459    2.885
    212    C    -9.934    3.689    2.177
    213    N    -9.533    3.740    0.849
    214    C    -9.811    4.969    0.481
    215    H    -9.647    5.389    -0.518
    216    C    -9.887    8.066    2.176
    217    H    -9.355    7.571    3.011
    218    O    -10.645    9.148    2.677
    219    H    -10.025    9.775    3.069
    220    C    -8.934    8.517    1.075
    221    H    -8.232    7.691    0.813
    222    O    -8.277    9.784    1.317
    223    P    -6.826    9.772    1.927
    224    O    -6.044    8.705    1.269
    225    O    -6.292    11.150    1.831
    226    O    -7.045    9.378    3.433
    227    C    -7.776    10.245    4.327
    228    H    -8.792    10.471    3.935
    229    H    -7.239    11.216    4.456
    230    C    -7.936    9.593    5.705
    231    H    -8.423    10.296    6.417
    232    O    -8.796    8.420    5.604
    233    C    -8.303    7.408    6.476
    234    H    -9.155    7.141    7.145
    235    N    -7.857    6.189    5.742
    236    C    -7.536    6.263    4.406
    237    H    -7.651    7.240    3.943
    238    C    -7.145    5.185    3.716
    239    H    -6.918    5.225    2.653
    240    C    -7.716    4.978    6.413
    241    O    -7.959    4.929    7.627
    242    N    -7.318    3.876    5.735
    243    C    -7.034    3.955    4.422
    244    N    -6.668    2.853    3.774
    245    H    -6.574    1.990    4.275
    246    H    -6.459    2.859    2.796
    247    C    -7.190    8.023    7.314
    248    H    -6.405    7.281    7.576
    249    O    -7.733    8.593    8.495
    250    H    -7.046    9.122    8.940
    251    C    -6.645    9.076    6.354
    252    H    -6.020    8.599    5.568
    253    O    -5.937    10.153    6.991
    254    H    -5.126    9.815    7.411
 $END
