!*** FMO 5.3 (Gamess) INPUT generated by Facio 22.1.1.32 ***
 $CONTRL RUNTYP=ENERGY NPRINT=-5 ISPHER=1 MAXIT=200 $END
 $SYSTEM MWORDS=63 MEMDDI=63 $END
 $GDDI NGROUP=1 $END
 $SCF DIRSCF=.TRUE. NPUNCH=0 $END
!*** NumCPU : 2  MemPerNode : 512MB
 $PCM SOLVNT=WATER IEF=-10 ICOMP=2 ICAV=1 IDISP=1 IFMO=-1 $END
 $PCMCAV RADII=SUAHF $END
 $TESCAV NTSALL=60 $END
 $FMOPRP
    NAODIR=200
    NGRFMO(1)=1, 1, 0, 0, 0,   0, 0, 0, 0, 0
    IPIEDA=1
    NPRINT=9
 $END
 $FMO
      SCFTYP(1)=RHF
      MODGRD=10
      MODMUL=0
      MAXCAO=5
      MAXBND=38
      NLAYER=1
      MPLEVL(1)=2
      NFRAG=36
      ICHARG(1)=-1, -1, -1, -1, -1, -1, -1, -1, -1, -1, -1, -1, -1, -1,
-1, -1, -1, -1, -1, -1, -1, -1, -1, -1, -1, -1, -1, -1,
-1, -1, -1, -1, -1, -1, -1, 0
      FRGNAM(1)=F1, F2, F3, F4, F5, F6, F7, F8, F9, F10, F11, F12, F13,
F14, F15, F16, F17, F18, F19, F20, F21, F22, F23, F24,
F25, F26, F27, F28, F29, F30, F31, F32, F33, F34, F35, F36
      indat(1)=0
               1   -36   0
               37   -70   0
               71   -103   0
               104   -137   0
               138   -170   0
               171   -204   0
               205   -238   0
               239   -268   0
               269   -298   0
               299   -329   0
               330   -359   0
               360   -392   0
               393   -426   0
               427   -456   0
               457   -486   0
               487   -519   0
               520   -549   0
               550   -582   0
               583   -613   0
               614   -644   0
               645   -675   0
               676   -705   0
               706   -736   0
               737   -766   0
               767   -799   0
               800   -829   0
               830   -862   0
               863   -895   0
               896   -928   0
               929   -961   0
               962   -994   0
               995   -1027   0
               1028   -1058   0
               1059   -1088   0
               1089   -1121   0
               1122   -1151   0
 $END

 $FMOBND
   -37   36       6-31G*    MINI
   -71   70       6-31G*    MINI
   -104   103       6-31G*    MINI
   -138   137       6-31G*    MINI
   -171   170       6-31G*    MINI
   -205   204       6-31G*    MINI
   -239   238       6-31G*    MINI
   -269   268       6-31G*    MINI
   -299   298       6-31G*    MINI
   -330   329       6-31G*    MINI
   -360   359       6-31G*    MINI
   -393   392       6-31G*    MINI
   -427   426       6-31G*    MINI
   -457   456       6-31G*    MINI
   -487   486       6-31G*    MINI
   -520   519       6-31G*    MINI
   -550   549       6-31G*    MINI
   -583   582       6-31G*    MINI
   -614   613       6-31G*    MINI
   -645   644       6-31G*    MINI
   -676   675       6-31G*    MINI
   -706   705       6-31G*    MINI
   -737   736       6-31G*    MINI
   -767   766       6-31G*    MINI
   -800   799       6-31G*    MINI
   -830   829       6-31G*    MINI
   -863   862       6-31G*    MINI
   -896   895       6-31G*    MINI
   -929   928       6-31G*    MINI
   -962   961       6-31G*    MINI
   -995   994       6-31G*    MINI
   -1028   1027       6-31G*    MINI
   -1059   1058       6-31G*    MINI
   -1089   1088       6-31G*    MINI
   -1122   1121       6-31G*    MINI
 $END
 $FMOHYB
 6-31G*      15   5
   1 0  -0.065034   0.288264   0.000000   0.000000   0.604412
         0.290129   0.000000   0.000000   0.319045  -0.017106
        -0.017106   0.057934   0.000000   0.000000   0.000000
   0 1  -0.065040   0.288293   0.569832   0.000000  -0.201456
         0.290147   0.300783   0.000000  -0.106342   0.049598
        -0.017106  -0.008771   0.000000  -0.027223   0.000000
   0 1  -0.065039   0.288293  -0.284916  -0.493490  -0.201455
         0.290145  -0.150392  -0.260486  -0.106340  -0.000427
         0.032923  -0.008771   0.033353   0.013612   0.023576
   0 1  -0.065039   0.288293  -0.284916   0.493490  -0.201455
         0.290145  -0.150392   0.260486  -0.106340  -0.000427
         0.032923  -0.008771  -0.033353   0.013612  -0.023576
   0 1   1.010938  -0.011975   0.000000   0.000000   0.000000
        -0.054085   0.000000   0.000000  -0.000000  -0.003174
        -0.003174  -0.003174   0.000000   0.000000   0.000000
 MINI         5   5
   1 0  -0.104883   0.308874   0.000000   0.000000   0.521806
   0 1  -0.104883   0.308874   0.491961   0.000000  -0.173934
   0 1  -0.104883   0.308876  -0.245980  -0.426050  -0.173933
   0 1  -0.104883   0.308876  -0.245980   0.426050  -0.173933
   0 1   0.988209   0.063992   0.000000   0.000000   0.000000
 $END
 
 $DATA
 FMO calculation
 C1 
 H.1-1    1
      N31 6
   
 O.1-1    8
      N31 6
      d 1
      1 0.800 1.0
   
 C.1-1    6
      N31 6
      d 1
      1 0.800 1.0
   
 N.1-1    7
      N31 6
      d 1
      1 0.800 1.0
   
 P.1-1   15
      N31 6
      d 1
      1 0.550 1.0
   
 $END
 $FMOXYZ
    1    H    -13.798    -15.598    -7.171
    2    O    -13.479    -15.857    -8.056
    3    C    -12.978    -14.661    -8.652
    4    H    -12.168    -14.297    -7.998
    5    H    -13.806    -13.916    -8.669
    6    C    -12.418    -14.774    -10.078
    7    H    -12.856    -13.933    -10.651
    8    O    -10.954    -14.643    -10.102
    9    C    -10.399    -15.908    -10.454
    10    H    -10.232    -15.899    -11.551
    11    N    -9.120    -16.146    -9.786
    12    C    -8.155    -17.055    -10.136
    13    N    -7.022    -19.642    -12.148
    14    H    -6.235    -20.261    -12.179
    15    H    -7.814    -19.817    -12.733
    16    N    -8.213    -17.929    -11.161
    17    C    -7.121    -18.690    -11.236
    18    N    -6.057    -18.569    -10.381
    19    H    -5.273    -19.188    -10.494
    20    C    -5.958    -17.657    -9.338
    21    O    -4.955    -17.600    -8.618
    22    C    -7.123    -16.853    -9.237
    23    N    -7.428    -15.830    -8.350
    24    C    -8.624    -15.440    -8.717
    25    H    -9.198    -14.634    -8.261
    26    C    -11.479    -16.906    -10.120
    27    H    -11.571    -17.009    -9.017
    28    O    -11.324    -18.183    -10.709
    29    H    -11.395    -18.058    -11.667
    30    C    -12.672    -16.164    -10.714
    31    H    -13.629    -16.590    -10.341
    32    O    -12.663    -16.194    -12.156
    33    P    -13.048    -15.021    -13.124
    34    O    -14.368    -14.473    -12.729
    35    O    -12.921    -15.515    -14.513
    36    O    -11.908    -13.948    -12.926
    37    C    -12.232    -12.541    -12.942
    38    H    -12.934    -12.284    -12.115
    39    H    -12.715    -12.256    -13.907
    40    C    -10.972    -11.687    -12.776
    41    H    -10.377    -11.996    -11.890
    42    O    -10.139    -11.810    -13.963
    43    C    -9.669    -10.524    -14.343
    44    H    -8.560    -10.598    -14.419
    45    N    -10.238    -10.120    -15.631
    46    C    -9.554    -9.651    -16.719
    47    N    -6.583    -8.812    -18.288
    48    H    -6.284    -8.449    -19.171
    49    H    -5.900    -9.015    -17.591
    50    N    -8.220    -9.489    -16.807
    51    C    -7.855    -9.025    -18.005
    52    N    -8.741    -8.743    -19.013
    53    H    -8.377    -8.383    -19.877
    54    C    -10.120    -8.895    -18.942
    55    O    -10.863    -8.613    -19.890
    56    C    -10.521    -9.397    -17.677
    57    N    -11.788    -9.707    -17.200
    58    C    -11.570    -10.134    -15.982
    59    H    -12.348    -10.477    -15.297
    60    C    -10.039    -9.546    -13.250
    61    H    -10.267    -8.532    -13.645
    62    O    -9.001    -9.456    -12.295
    63    H    -9.385    -9.078    -11.489
    64    C    -11.294    -10.187    -12.674
    65    H    -12.175    -9.991    -13.322
    66    O    -11.576    -9.857    -11.324
    67    P    -12.131    -8.498    -10.810
    68    O    -13.290    -8.109    -11.640
    69    O    -11.025    -7.522    -10.697
    70    O    -12.644    -8.907    -9.378
    71    C    -13.632    -9.957    -9.199
    72    H    -13.587    -10.726    -10.010
    73    H    -14.646    -9.505    -9.242
    74    C    -13.498    -10.690    -7.846
    75    H    -14.478    -11.089    -7.497
    76    O    -12.650    -11.843    -8.075
    77    C    -11.574    -11.890    -7.164
    78    H    -11.542    -12.919    -6.738
    79    N    -10.300    -11.656    -7.824
    80    C    -8.229    -11.616    -8.529
    81    N    -8.953    -10.888    -9.438
    82    C    -10.164    -10.960    -8.970
    83    H    -11.064    -10.553    -9.383
    84    N    -6.465    -12.682    -7.431
    85    C    -7.367    -13.109    -6.542
    86    H    -6.973    -13.745    -5.746
    87    N    -8.680    -12.871    -6.482
    88    C    -9.048    -12.101    -7.517
    89    C    -6.869    -11.941    -8.475
    90    N    -5.979    -11.585    -9.422
    91    H    -6.271    -11.042    -10.211
    92    H    -5.008    -11.802    -9.349
    93    C    -11.880    -10.931    -6.072
    94    H    -10.974    -10.391    -5.736
    95    O    -12.474    -11.660    -5.015
    96    H    -11.760    -11.862    -4.389
    97    C    -12.812    -9.907    -6.713
    98    H    -12.174    -9.106    -7.155
    99    O    -13.806    -9.345    -5.835
    100    P    -13.436    -8.238    -4.782
    101    O    -14.508    -8.173    -3.764
    102    O    -13.164    -6.981    -5.511
    103    O    -12.100    -8.702    -4.070
    104    C    -12.180    -9.569    -2.909
    105    H    -12.923    -10.389    -3.048
    106    H    -12.538    -8.988    -2.029
    107    C    -10.822    -10.214    -2.543
    108    H    -10.984    -11.065    -1.850
    109    O    -10.097    -10.742    -3.687
    110    C    -8.709    -10.668    -3.452
    111    H    -8.382    -11.729    -3.391
    112    N    -7.962    -10.033    -4.560
    113    C    -6.622    -10.193    -4.800
    114    N    -3.583    -11.640    -3.983
    115    H    -3.738    -11.909    -3.032
    116    H    -2.622    -11.547    -4.255
    117    N    -5.776    -10.912    -4.053
    118    C    -4.543    -10.948    -4.559
    119    N    -4.184    -10.281    -5.694
    120    H    -3.211    -10.309    -5.955
    121    C    -5.031    -9.506    -6.480
    122    O    -4.615    -8.935    -7.494
    123    C    -6.355    -9.483    -5.953
    124    N    -7.502    -8.850    -6.416
    125    C    -8.431    -9.203    -5.554
    126    H    -9.477    -8.884    -5.591
    127    C    -8.505    -9.993    -2.109
    128    H    -7.668    -9.265    -2.113
    129    O    -8.277    -10.988    -1.131
    130    H    -7.370    -11.335    -1.225
    131    C    -9.842    -9.275    -1.875
    132    H    -9.894    -8.324    -2.454
    133    O    -10.229    -9.107    -0.492
    134    P    -9.642    -7.920    0.344
    135    O    -10.075    -8.097    1.749
    136    O    -10.064    -6.668    -0.317
    137    O    -8.078    -8.043    0.264
    138    C    -7.390    -8.932    1.181
    139    H    -7.811    -9.966    1.146
    140    H    -7.490    -8.557    2.227
    141    C    -5.894    -9.011    0.866
    142    H    -5.403    -9.856    1.393
    143    O    -5.663    -9.181    -0.548
    144    C    -4.394    -8.665    -0.848
    145    H    -3.729    -9.520    -0.782
    146    N    -4.292    -8.119    -2.198
    147    C    -3.593    -7.450    -4.172
    148    N    -4.973    -7.293    -4.163
    149    C    -5.335    -7.701    -2.976
    150    H    -6.361    -7.726    -2.602
    151    N    -1.329    -7.551    -4.879
    152    C    -1.067    -8.055    -3.675
    153    H    -0.011    -8.278    -3.494
    154    N    -1.888    -8.250    -2.642
    155    C    -3.157    -7.962    -2.967
    156    C    -2.616    -7.234    -5.170
    157    N    -2.901    -6.734    -6.383
    158    H    -3.844    -6.572    -6.683
    159    H    -2.164    -6.650    -7.063
    160    C    -3.985    -7.709    0.243
    161    H    -3.895    -6.681    -0.147
    162    O    -2.786    -8.181    0.835
    163    H    -2.569    -7.674    1.634
    164    C    -5.155    -7.731    1.213
    165    H    -5.869    -6.917    0.954
    166    O    -4.794    -7.711    2.602
    167    P    -4.548    -6.377    3.382
    168    O    -4.842    -6.650    4.803
    169    O    -5.304    -5.284    2.736
    170    O    -3.018    -6.094    3.195
    171    C    -2.022    -6.768    3.989
    172    H    -2.088    -7.871    3.856
    173    H    -2.162    -6.547    5.070
    174    C    -0.617    -6.338    3.572
    175    H    0.152    -6.647    4.312
    176    O    -0.322    -7.020    2.312
    177    C    0.399    -6.158    1.448
    178    H    1.319    -6.697    1.127
    179    N    -0.385    -5.754    0.260
    180    C    0.033    -5.397    -0.997
    181    N    2.492    -4.534    -3.196
    182    H    2.562    -4.085    -4.089
    183    H    3.289    -4.593    -2.608
    184    N    1.298    -5.309    -1.419
    185    C    1.361    -4.846    -2.659
    186    N    0.289    -4.603    -3.456
    187    H    0.468    -4.289    -4.393
    188    C    -1.027    -4.721    -3.071
    189    O    -1.922    -4.475    -3.881
    190    C    -1.124    -5.105    -1.709
    191    N    -2.227    -5.190    -0.897
    192    C    -1.732    -5.563    0.253
    193    H    -2.316    -5.753    1.144
    194    C    0.753    -4.981    2.283
    195    H    0.749    -4.065    1.685
    196    O    1.988    -5.217    2.937
    197    H    2.695    -4.936    2.341
    198    C    -0.420    -4.855    3.238
    199    H    -1.315    -4.494    2.688
    200    O    -0.183    -4.055    4.418
    201    P    -0.110    -2.476    4.331
    202    O    0.580    -1.991    5.548
    203    O    -1.477    -1.954    4.113
    204    O    0.757    -2.109    3.057
    205    C    2.200    -2.247    3.119
    206    H    2.523    -3.167    3.629
    207    H    2.605    -1.498    3.804
    208    C    2.914    -2.143    1.747
    209    H    3.955    -2.537    1.809
    210    O    2.245    -2.880    0.698
    211    C    2.326    -2.197    -0.524
    212    H    2.862    -2.902    -1.184
    213    N    0.999    -1.924    -1.133
    214    C    0.759    -1.413    -2.391
    215    N    1.938    -0.327    -5.462
    216    H    1.587    0.036    -6.324
    217    H    2.926    -0.448    -5.322
    218    N    1.689    -1.048    -3.288
    219    C    1.167    -0.657    -4.449
    220    N    -0.174    -0.575    -4.671
    221    H    -0.486    -0.249    -5.571
    222    C    -1.161    -0.912    -3.758
    223    O    -2.345    -0.795    -4.072
    224    C    -0.611    -1.381    -2.530
    225    N    -1.230    -1.872    -1.386
    226    C    -0.238    -2.193    -0.590
    227    H    -0.343    -2.620    0.410
    228    C    3.153    -0.956    -0.283
    229    H    2.794    -0.084    -0.872
    230    O    4.528    -1.186    -0.557
    231    H    5.001    -0.465    -0.086
    232    C    2.964    -0.728    1.207
    233    H    1.988    -0.234    1.410
    234    O    4.080    -0.053    1.778
    235    P    4.054    0.765    3.100
    236    O    5.210    0.400    3.942
    237    O    2.723    0.697    3.738
    238    O    4.170    2.240    2.589
    239    C    3.392    2.674    1.453
    240    H    3.049    3.712    1.648
    241    H    2.476    2.063    1.259
    242    C    4.256    2.670    0.206
    243    H    4.201    1.676    -0.285
    244    O    3.745    3.636    -0.757
    245    C    4.853    4.028    -1.504
    246    H    5.148    3.141    -2.094
    247    N    4.629    5.219    -2.327
    248    C    4.073    6.338    -1.782
    249    H    3.670    6.175    -0.789
    250    C    5.297    5.291    -3.509
    251    O    6.045    4.428    -3.918
    252    N    5.158    6.431    -4.196
    253    H    5.619    6.411    -5.091
    254    C    4.576    7.593    -3.746
    255    O    4.560    8.576    -4.472
    256    C    4.050    7.517    -2.425
    257    H    3.620    8.417    -2.000
    258    C    5.893    4.267    -0.475
    259    H    5.623    5.128    0.150
    260    O    7.136    4.514    -1.069
    261    H    7.030    5.075    -1.832
    262    C    5.766    2.994    0.378
    263    H    5.957    3.325    1.428
    264    O    6.586    1.864    -0.016
    265    P    7.467    1.070    1.040
    266    O    7.005    -0.335    1.094
    267    O    7.531    1.757    2.352
    268    O    8.931    1.010    0.395
    269    C    9.112    0.375    -0.903
    270    H    8.154    -0.048    -1.299
    271    H    9.791    -0.501    -0.803
    272    C    9.714    1.311    -1.972
    273    H    10.819    1.241    -2.014
    274    O    9.178    0.874    -3.247
    275    C    8.812    1.973    -4.058
    276    H    9.489    1.909    -4.940
    277    N    7.396    1.884    -4.487
    278    C    6.407    1.543    -3.598
    279    H    6.752    1.297    -2.590
    280    C    7.083    2.356    -5.734
    281    O    7.928    2.822    -6.492
    282    N    5.748    2.346    -6.055
    283    H    5.546    2.595    -7.009
    284    C    4.710    1.973    -5.237
    285    O    3.555    1.996    -5.647
    286    C    5.102    1.577    -3.920
    287    H    4.324    1.287    -3.218
    288    C    9.098    3.260    -3.297
    289    H    8.236    3.952    -3.317
    290    O    10.218    3.939    -3.837
    291    H    11.012    3.470    -3.541
    292    C    9.327    2.782    -1.863
    293    H    8.364    2.695    -1.347
    294    O    10.281    3.558    -1.128
    295    P    10.131    4.267    0.270
    296    O    11.449    4.112    0.930
    297    O    8.972    3.825    1.053
    298    O    9.909    5.802    -0.061
    299    C    10.074    6.717    1.065
    300    H    11.101    7.146    1.032
    301    H    9.943    6.213    2.066
    302    C    9.077    7.885    1.022
    303    H    9.265    8.588    1.862
    304    O    9.234    8.651    -0.194
    305    C    7.985    9.194    -0.575
    306    H    8.075    10.277    -0.333
    307    N    7.747    9.021    -2.020
    308    C    7.940    7.779    -2.565
    309    H    8.241    6.991    -1.865
    310    C    7.799    7.583    -3.882
    311    H    7.914    6.599    -4.333
    312    C    7.382    10.099    -2.826
    313    O    7.222    11.216    -2.305
    314    N    7.234    9.920    -4.156
    315    C    7.404    8.697    -4.690
    316    N    7.122    8.512    -5.981
    317    H    6.738    9.283    -6.493
    318    H    7.265    7.639    -6.447
    319    C    6.895    8.600    0.306
    320    H    6.043    8.188    -0.278
    321    O    6.426    9.566    1.221
    322    H    5.908    9.060    1.866
    323    C    7.609    7.465    1.048
    324    H    7.545    6.524    0.458
    325    O    7.190    7.266    2.417
    326    P    5.858    6.493    2.723
    327    O    6.206    5.142    3.178
    328    O    4.913    6.659    1.597
    329    O    5.275    7.298    3.947
    330    C    3.832    7.504    3.978
    331    H    3.331    6.624    4.433
    332    H    3.380    7.631    2.963
    333    C    3.423    8.762    4.748
    334    H    3.667    8.674    5.828
    335    O    4.145    9.914    4.229
    336    C    3.312    11.064    4.232
    337    H    3.764    11.737    4.995
    338    N    3.287    11.774    2.918
    339    C    4.025    11.318    1.854
    340    H    4.533    10.379    2.040
    341    C    2.561    12.942    2.811
    342    O    1.935    13.430    3.746
    343    N    2.591    13.537    1.579
    344    H    2.002    14.353    1.491
    345    C    3.314    13.142    0.475
    346    O    3.267    13.809    -0.558
    347    C    4.080    11.946    0.670
    348    H    4.686    11.564    -0.149
    349    C    1.921    10.639    4.692
    350    H    1.125    11.027    4.022
    351    O    1.683    11.088    6.012
    352    H    0.905    10.604    6.332
    353    C    1.943    9.116    4.590
    354    H    1.648    8.819    3.555
    355    O    1.157    8.478    5.618
    356    P    0.221    7.248    5.354
    357    O    -0.121    6.686    6.678
    358    O    0.850    6.347    4.372
    359    O    -1.047    7.900    4.728
    360    C    -2.311    8.107    5.375
    361    H    -2.247    8.973    6.070
    362    H    -2.613    7.200    5.948
    363    C    -3.428    8.426    4.370
    364    H    -4.359    8.748    4.885
    365    O    -3.019    9.512    3.479
    366    C    -3.239    9.152    2.133
    367    H    -3.854    9.964    1.677
    368    N    -1.966    9.029    1.386
    369    C    -0.466    8.984    -0.221
    370    N    0.233    8.746    0.941
    371    C    -0.694    8.790    1.856
    372    H    -0.463    8.737    2.903
    373    N    -0.981    9.453    -2.454
    374    C    -2.257    9.574    -2.068
    375    H    -2.977    9.833    -2.848
    376    N    -2.777    9.448    -0.847
    377    C    -1.822    9.149    0.036
    378    C    -0.041    9.141    -1.547
    379    N    1.242    9.009    -1.939
    380    H    1.888    8.633    -1.283
    381    H    1.470    8.962    -2.911
    382    C    -4.043    7.869    2.123
    383    H    -3.646    7.217    1.343
    384    O    -5.432    8.076    1.933
    385    H    -5.856    7.213    2.032
    386    C    -3.736    7.237    3.469
    387    H    -2.793    6.648    3.393
    388    O    -4.819    6.479    4.031
    389    P    -4.880    4.921    4.030
    390    O    -5.961    4.528    4.965
    391    O    -3.533    4.389    4.322
    392    O    -5.295    4.554    2.556
    393    C    -4.250    4.383    1.565
    394    H    -3.971    3.309    1.521
    395    H    -3.307    4.933    1.806
    396    C    -4.732    4.782    0.172
    397    H    -5.791    5.114    0.166
    398    O    -3.946    5.877    -0.322
    399    C    -3.719    5.750    -1.688
    400    H    -4.235    6.619    -2.140
    401    N    -2.265    5.849    -1.981
    402    C    -1.647    6.062    -3.190
    403    N    -1.772    6.513    -6.618
    404    H    -1.173    6.649    -7.408
    405    H    -2.772    6.529    -6.746
    406    N    -2.252    6.194    -4.374
    407    C    -1.386    6.356    -5.379
    408    N    -0.037    6.331    -5.216
    409    H    0.529    6.488    -6.035
    410    C    0.614    6.243    -4.002
    411    O    1.841    6.274    -3.953
    412    C    -0.293    6.085    -2.923
    413    N    -0.051    5.907    -1.570
    414    C    -1.246    5.774    -1.052
    415    H    -1.455    5.633    0.010
    416    C    -4.379    4.436    -2.136
    417    H    -3.735    3.883    -2.851
    418    O    -5.654    4.635    -2.709
    419    H    -6.009    3.750    -2.879
    420    C    -4.554    3.665    -0.837
    421    H    -3.617    3.120    -0.581
    422    O    -5.726    2.830    -0.772
    423    P    -5.732    1.362    -1.283
    424    O    -5.043    0.550    -0.263
    425    O    -5.207    1.327    -2.664
    426    O    -7.279    1.035    -1.279
    427    C    -8.043    1.226    -0.062
    428    H    -8.153    2.314    0.150
    429    H    -7.518    0.766    0.807
    430    C    -9.439    0.588    -0.217
    431    H    -9.543    0.122    -1.221
    432    O    -9.698    -0.402    0.788
    433    C    -10.205    0.222    1.954
    434    H    -11.067    -0.399    2.283
    435    N    -9.179    0.314    3.043
    436    C    -9.410    1.205    4.070
    437    H    -10.345    1.772    4.032
    438    C    -8.078    -0.536    3.098
    439    O    -7.867    -1.442    2.302
    440    N    -7.217    -0.313    4.131
    441    H    -6.405    -0.912    4.147
    442    C    -7.347    0.604    5.143
    443    O    -6.484    0.677    6.018
    444    C    -8.544    1.388    5.080
    445    H    -8.729    2.115    5.867
    446    C    -10.706    1.605    1.529
    447    H    -10.047    2.415    1.911
    448    O    -12.042    1.838    1.932
    449    H    -12.599    1.307    1.335
    450    C    -10.574    1.560    0.011
    451    H    -10.225    2.565    -0.308
    452    O    -11.763    1.087    -0.650
    453    P    -12.247    1.695    -2.001
    454    O    -13.663    2.079    -1.793
    455    O    -11.935    0.749    -3.105
    456    O    -11.366    2.985    -2.192
    457    C    -11.835    4.310    -1.878
    458    H    -11.607    4.555    -0.816
    459    H    -12.934    4.395    -2.015
    460    C    -11.171    5.363    -2.779
    461    H    -10.099    5.462    -2.556
    462    O    -11.301    4.992    -4.184
    463    C    -12.347    5.747    -4.777
    464    H    -12.098    5.851    -5.859
    465    N    -13.710    5.154    -4.647
    466    C    -14.790    5.904    -5.062
    467    H    -14.548    6.872    -5.507
    468    C    -13.873    3.792    -4.548
    469    O    -12.959    2.998    -4.654
    470    N    -15.149    3.355    -4.408
    471    H    -15.238    2.367    -4.243
    472    C    -16.272    4.027    -4.802
    473    O    -17.345    3.433    -4.867
    474    C    -16.034    5.398    -5.156
    475    H    -16.853    5.966    -5.589
    476    C    -12.235    7.082    -4.103
    477    H    -13.137    7.720    -4.175
    478    O    -11.135    7.716    -4.685
    479    H    -10.383    7.542    -4.102
    480    C    -11.910    6.709    -2.655
    481    H    -12.881    6.503    -2.143
    482    O    -11.085    7.678    -1.958
    483    P    -11.443    8.148    -0.500
    484    O    -10.235    8.096    0.342
    485    O    -12.628    7.432    0.007
    486    O    -11.802    9.682    -0.624
    487    C    -12.965    10.134    -1.370
    488    H    -13.698    10.540    -0.638
    489    H    -13.498    9.302    -1.883
    490    C    -12.718    11.272    -2.407
    491    H    -13.344    12.146    -2.126
    492    O    -11.342    11.727    -2.403
    493    C    -10.711    11.496    -3.640
    494    H    -10.465    12.504    -4.053
    495    N    -9.488    10.698    -3.474
    496    C    -7.535    9.778    -3.836
    497    N    -7.887    9.417    -2.550
    498    C    -9.055    9.984    -2.385
    499    H    -9.630    9.954    -1.464
    500    N    -6.412    9.926    -5.890
    501    C    -7.439    10.649    -6.323
    502    H    -7.344    11.004    -7.353
    503    N    -8.503    11.087    -5.651
    504    C    -8.518    10.550    -4.422
    505    C    -6.373    9.572    -4.587
    506    N    -5.208    9.226    -4.023
    507    H    -5.205    8.592    -3.257
    508    H    -4.443    9.161    -4.676
    509    C    -11.661    10.802    -4.552
    510    H    -11.405    9.771    -4.628
    511    O    -11.606    11.345    -5.847
    512    H    -12.176    12.125    -5.839
    513    C    -13.025    10.921    -3.879
    514    H    -13.489    9.907    -3.882
    515    O    -13.864    11.911    -4.505
    516    P    -15.338    11.552    -4.929
    517    O    -15.978    12.809    -5.361
    518    O    -15.986    10.824    -3.816
    519    O    -15.247    10.575    -6.181
    520    C    -14.087    10.553    -7.036
    521    H    -13.328    9.888    -6.573
    522    H    -13.657    11.579    -7.144
    523    C    -14.366    10.001    -8.439
    524    H    -15.448    9.792    -8.573
    525    O    -13.950    10.971    -9.427
    526    C    -12.611    10.718    -9.838
    527    H    -12.667    10.767    -10.949
    528    N    -11.584    11.721    -9.404
    529    C    -10.244    11.348    -9.367
    530    H    -9.998    10.324    -9.659
    531    C    -11.934    13.041    -9.217
    532    O    -13.067    13.476    -9.394
    533    N    -10.912    13.868    -8.858
    534    H    -11.176    14.828    -8.700
    535    C    -9.576    13.572    -8.780
    536    O    -8.772    14.465    -8.530
    537    C    -9.257    12.208    -9.066
    538    H    -8.209    11.922    -9.084
    539    C    -12.256    9.323    -9.406
    540    H    -11.454    9.289    -8.633
    541    O    -11.893    8.628    -10.577
    542    H    -12.694    8.143    -10.831
    543    C    -13.535    8.758    -8.778
    544    H    -13.251    8.275    -7.811
    545    O    -14.259    7.867    -9.654
    546    P    -14.465    6.359    -9.262
    547    O    -15.638    5.865    -10.015
    548    O    -14.520    6.232    -7.796
    549    O    -13.168    5.641    -9.810
    550    C    -11.995    5.503    -8.970
    551    H    -11.823    4.425    -8.752
    552    H    -12.096    6.008    -7.978
    553    C    -10.764    6.049    -9.683
    554    H    -11.021    6.420    -10.696
    555    O    -10.236    7.157    -8.934
    556    C    -8.858    7.221    -9.071
    557    H    -8.598    8.228    -9.470
    558    N    -8.248    7.035    -7.782
    559    C    -6.792    6.801    -6.201
    560    N    -8.022    6.659    -5.585
    561    C    -8.859    6.817    -6.570
    562    H    -9.949    6.788    -6.490
    563    N    -4.486    7.007    -6.577
    564    C    -4.761    7.246    -7.844
    565    H    -3.885    7.410    -8.474
    566    N    -5.942    7.228    -8.449
    567    C    -6.922    7.046    -7.547
    568    C    -5.491    6.754    -5.729
    569    N    -5.128    6.459    -4.504
    570    H    -5.688    5.904    -3.878
    571    H    -4.134    6.388    -4.383
    572    C    -8.466    6.146    -10.048
    573    H    -7.497    5.688    -9.786
    574    O    -8.427    6.696    -11.351
    575    H    -9.327    6.934    -11.609
    576    C    -9.587    5.129    -9.871
    577    H    -9.466    4.577    -8.910
    578    O    -9.835    4.292    -11.011
    579    P    -9.430    2.786    -11.010
    580    O    -10.392    2.055    -11.865
    581    O    -9.265    2.324    -9.614
    582    O    -8.028    2.754    -11.707
    583    C    -7.573    3.725    -12.676
    584    H    -8.168    4.666    -12.696
    585    H    -7.652    3.290    -13.696
    586    C    -6.101    4.084    -12.438
    587    H    -5.685    4.643    -13.300
    588    O    -5.963    4.938    -11.288
    589    C    -4.774    4.633    -10.594
    590    H    -4.183    5.580    -10.584
    591    N    -5.020    4.174    -9.195
    592    C    -6.215    3.614    -8.807
    593    H    -6.990    3.557    -9.574