!*** FMO 5.3 (Gamess) INPUT generated by Facio 22.1.1.32 ***
 $CONTRL RUNTYP=ENERGY NPRINT=-5 ISPHER=1 MAXIT=200 $END
 $SYSTEM MWORDS=63 MEMDDI=63 $END
 $GDDI NGROUP=1 $END
 $SCF DIRSCF=.TRUE. NPUNCH=0 $END
!*** NumCPU : 2  MemPerNode : 512MB
 $PCM SOLVNT=WATER IEF=-10 ICOMP=2 ICAV=1 IDISP=1 IFMO=-1 $END
 $PCMCAV RADII=SUAHF $END
 $TESCAV NTSALL=60 $END
 $FMOPRP
    NAODIR=200
    NGRFMO(1)=1, 1, 0, 0, 0,   0, 0, 0, 0, 0
    IPIEDA=1
    NPRINT=9
 $END
 $FMO
      SCFTYP(1)=RHF
      MODGRD=10
      MODMUL=0
      MAXCAO=5
      MAXBND=16
      NLAYER=1
      MPLEVL(1)=2
      NFRAG=14
      ICHARG(1)=-1, -1, -1, -1, -1, -1, -1, -1, -1, -1, -1, -1, -1, 0
      FRGNAM(1)=F1, F2, F3, F4, F5, F6, F7, F8, F9, F10, F11, F12, F13, F14
      indat(1)=0
               1   -36   0
               37   -70   0
               71   -101   0
               102   -134   0
               135   -165   0
               166   -195   0
               196   -225   0
               226   -256   0
               257   -290   0
               291   -324   0
               325   -354   0
               355   -388   0
               389   -419   0
               420   -447   0
 $END

 $FMOBND
   -37   36       6-31G*    MINI
   -71   70       6-31G*    MINI
   -102   101       6-31G*    MINI
   -135   134       6-31G*    MINI
   -166   165       6-31G*    MINI
   -196   195       6-31G*    MINI
   -226   225       6-31G*    MINI
   -257   256       6-31G*    MINI
   -291   290       6-31G*    MINI
   -325   324       6-31G*    MINI
   -355   354       6-31G*    MINI
   -389   388       6-31G*    MINI
   -420   419       6-31G*    MINI
 $END
 $FMOHYB
 6-31G*      15   5
   1 0  -0.065034   0.288264   0.000000   0.000000   0.604412
         0.290129   0.000000   0.000000   0.319045  -0.017106
        -0.017106   0.057934   0.000000   0.000000   0.000000
   0 1  -0.065040   0.288293   0.569832   0.000000  -0.201456
         0.290147   0.300783   0.000000  -0.106342   0.049598
        -0.017106  -0.008771   0.000000  -0.027223   0.000000
   0 1  -0.065039   0.288293  -0.284916  -0.493490  -0.201455
         0.290145  -0.150392  -0.260486  -0.106340  -0.000427
         0.032923  -0.008771   0.033353   0.013612   0.023576
   0 1  -0.065039   0.288293  -0.284916   0.493490  -0.201455
         0.290145  -0.150392   0.260486  -0.106340  -0.000427
         0.032923  -0.008771  -0.033353   0.013612  -0.023576
   0 1   1.010938  -0.011975   0.000000   0.000000   0.000000
        -0.054085   0.000000   0.000000  -0.000000  -0.003174
        -0.003174  -0.003174   0.000000   0.000000   0.000000
 MINI         5   5
   1 0  -0.104883   0.308874   0.000000   0.000000   0.521806
   0 1  -0.104883   0.308874   0.491961   0.000000  -0.173934
   0 1  -0.104883   0.308876  -0.245980  -0.426050  -0.173933
   0 1  -0.104883   0.308876  -0.245980   0.426050  -0.173933
   0 1   0.988209   0.063992   0.000000   0.000000   0.000000
 $END
 
 $DATA
 FMO calculation
 C1 
 H.1-1    1
      N31 6
   
 O.1-1    8
      N31 6
      d 1
      1 0.800 1.0
   
 C.1-1    6
      N31 6
      d 1
      1 0.800 1.0
   
 N.1-1    7
      N31 6
      d 1
      1 0.800 1.0
   
 P.1-1   15
      N31 6
      d 1
      1 0.550 1.0
   
 $END
 $FMOXYZ
    1    H    -10.942    -9.207    5.982
    2    O    -11.360    -8.436    5.559
    3    C    -12.688    -8.838    5.198
    4    H    -13.190    -9.258    6.099
    5    H    -12.624    -9.651    4.441
    6    C    -13.565    -7.703    4.644
    7    H    -14.630    -8.016    4.648
    8    O    -13.467    -6.502    5.450
    9    C    -13.413    -5.363    4.600
    10    H    -14.254    -4.702    4.910
    11    N    -12.164    -4.616    4.761
    12    C    -11.932    -3.323    4.364
    13    N    -12.964    -0.405    2.796
    14    H    -12.575    0.477    2.547
    15    H    -13.874    -0.647    2.468
    16    N    -12.801    -2.522    3.714
    17    C    -12.276    -1.323    3.450
    18    N    -11.026    -0.939    3.859
    19    H    -10.730    -0.007    3.651
    20    C    -10.135    -1.730    4.574
    21    O    -9.040    -1.287    4.933
    22    C    -10.655    -3.029    4.808
    23    N    -10.080    -4.131    5.434
    24    C    -11.008    -5.056    5.365
    25    H    -10.916    -6.076    5.746
    26    C    -13.637    -5.809    3.184
    27    H    -13.036    -5.234    2.459
    28    O    -15.005    -5.691    2.844
    29    H    -15.449    -6.494    3.154
    30    C    -13.210    -7.266    3.231
    31    H    -12.099    -7.364    3.151
    32    O    -13.941    -8.090    2.303
    33    P    -13.525    -7.959    0.816
    34    O    -14.328    -8.933    0.046
    35    O    -12.079    -8.119    0.873
    36    O    -13.694    -6.530    0.200
    37    C    -13.603    -6.470    -1.254
    38    H    -14.587    -6.091    -1.615
    39    H    -13.450    -7.440    -1.780
    40    C    -12.560    -5.497    -1.812
    41    H    -12.783    -5.455    -2.902
    42    O    -12.863    -4.172    -1.246
    43    C    -11.681    -3.390    -1.274
    44    H    -11.922    -2.386    -1.691
    45    N    -11.044    -3.303    0.030
    46    C    -10.040    -2.455    0.302
    47    N    -7.828    -0.189    -0.878
    48    H    -8.366    0.120    -1.658
    49    H    -7.255    0.527    -0.485
    50    N    -9.589    -1.518    -0.530
    51    C    -8.462    -1.004    -0.108
    52    N    -7.834    -1.337    1.058
    53    H    -6.950    -0.924    1.260
    54    C    -8.256    -2.355    1.904
    55    O    -7.608    -2.675    2.900
    56    C    -9.495    -2.893    1.487
    57    N    -10.212    -3.963    1.986
    58    C    -11.130    -4.168    1.088
    59    H    -11.855    -4.983    1.077
    60    C    -10.732    -4.154    -2.175
    61    H    -9.669    -3.850    -2.052
    62    O    -11.125    -4.009    -3.528
    63    H    -11.049    -4.880    -3.951
    64    C    -10.992    -5.566    -1.660
    65    H    -10.816    -5.679    -0.583
    66    O    -10.246    -6.590    -2.375
    67    P    -9.287    -7.614    -1.567
    68    O    -9.486    -8.947    -2.175
    69    O    -9.423    -7.497    -0.106
    70    O    -7.790    -7.263    -1.796
    71    C    -6.970    -7.642    -2.912
    72    H    -7.473    -8.369    -3.584
    73    H    -6.056    -8.149    -2.520
    74    C    -6.539    -6.412    -3.725
    75    H    -6.988    -6.437    -4.741
    76    O    -7.035    -5.202    -3.088
    77    C    -6.053    -4.239    -3.024
    78    H    -6.572    -3.388    -3.528
    79    N    -5.692    -3.826    -1.649
    80    C    -5.775    -4.648    -0.555
    81    H    -6.112    -5.671    -0.747
    82    C    -5.474    -4.183    0.671
    83    H    -5.561    -4.798    1.565
    84    C    -5.310    -2.509    -1.505
    85    O    -5.304    -1.803    -2.519
    86    N    -4.975    -2.015    -0.289
    87    C    -5.073    -2.812    0.790
    88    N    -4.837    -2.278    1.989
    89    H    -4.528    -1.336    2.077
    90    H    -5.057    -2.779    2.827
    91    C    -4.892    -4.676    -3.871
    92    H    -3.912    -4.345    -3.474
    93    O    -5.108    -4.141    -5.156
    94    H    -5.748    -4.701    -5.615
    95    C    -5.022    -6.209    -3.850
    96    H    -4.540    -6.621    -2.932
    97    O    -4.593    -6.920    -5.021
    98    P    -3.158    -6.892    -5.636
    99    O    -3.111    -7.898    -6.718
    100    O    -2.170    -7.024    -4.544
    101    O    -3.027    -5.479    -6.237
    102    C    -2.660    -5.054    -7.550
    103    H    -3.574    -4.803    -8.131
    104    H    -2.107    -5.848    -8.103
    105    C    -1.794    -3.787    -7.496
    106    H    -1.799    -3.257    -8.471
    107    O    -2.240    -2.845    -6.465
    108    C    -1.109    -2.296    -5.820
    109    H    -1.203    -1.187    -5.884
    110    N    -1.024    -2.707    -4.411
    111    C    -0.594    -2.734    -2.254
    112    N    -1.175    -3.958    -2.546
    113    C    -1.405    -3.893    -3.837
    114    H    -1.858    -4.684    -4.428
    115    N    0.407    -0.916    -1.117
    116    C    0.464    -0.317    -2.313
    117    H    0.901    0.677    -2.339
    118    N    0.034    -0.736    -3.501
    119    C    -0.491    -1.960    -3.398
    120    C    -0.116    -2.168    -1.051
    121    N    -0.158    -2.807    0.134
    122    H    -0.484    -3.757    0.231
    123    H    0.221    -2.372    0.949
    124    C    0.102    -2.747    -6.594
    125    H    0.971    -2.885    -5.927
    126    O    0.405    -1.835    -7.635
    127    H    1.179    -2.189    -8.090
    128    C    -0.349    -4.097    -7.135
    129    H    -0.387    -4.858    -6.321
    130    O    0.355    -4.566    -8.306
    131    P    1.660    -5.426    -8.119
    132    O    2.269    -5.643    -9.448
    133    O    1.318    -6.623    -7.322
    134    O    2.610    -4.527    -7.265
    135    C    3.598    -3.689    -7.896
    136    H    3.173    -3.134    -8.762
    137    H    4.448    -4.306    -8.272
    138    C    4.152    -2.665    -6.908
    139    H    4.596    -1.806    -7.461
    140    O    3.115    -2.154    -6.010
    141    C    3.686    -1.915    -4.737
    142    H    3.405    -0.871    -4.471
    143    N    3.232    -2.857    -3.663
    144    C    2.620    -4.056    -3.921
    145    H    2.419    -4.270    -4.971
    146    C    2.292    -4.894    -2.923
    147    H    1.805    -5.850    -3.102
    148    C    3.520    -2.506    -2.356
    149    O    4.054    -1.414    -2.165
    150    N    3.233    -3.338    -1.331
    151    C    2.640    -4.513    -1.589
    152    N    2.389    -5.341    -0.577
    153    H    2.598    -5.045    0.355
    154    H    1.932    -6.220    -0.712
    155    C    5.178    -2.023    -4.951
    156    H    5.701    -2.266    -4.012
    157    O    5.660    -0.809    -5.510
    158    H    5.463    -0.074    -4.905
    159    C    5.192    -3.195    -5.932
    160    H    4.738    -4.093    -5.458
    161    O    6.426    -3.506    -6.604
    162    P    7.249    -4.803    -6.222
    163    O    8.109    -5.172    -7.367
    164    O    6.365    -5.864    -5.688
    165    O    8.177    -4.314    -5.059
    166    C    8.869    -3.053    -5.221
    167    H    8.375    -2.339    -5.921
    168    H    9.884    -3.253    -5.632
    169    C    9.002    -2.313    -3.896
    170    H    9.307    -1.258    -4.068
    171    O    7.787    -2.305    -3.115
    172    C    8.122    -2.303    -1.749
    173    H    7.716    -1.349    -1.342
    174    N    7.508    -3.468    -1.032
    175    C    7.026    -4.568    -1.720
    176    H    7.166    -4.547    -2.804
    177    C    7.362    -3.378    0.335
    178    O    7.745    -2.411    0.982
    179    N    6.733    -4.446    0.924
    180    H    6.634    -4.407    1.921
    181    C    6.214    -5.561    0.306
    182    O    5.653    -6.429    0.974
    183    C    6.395    -5.586    -1.113
    184    H    6.000    -6.432    -1.670
    185    C    9.653    -2.265    -1.692
    186    H    10.010    -2.790    -0.796
    187    O    10.113    -0.931    -1.697
    188    H    11.084    -0.929    -1.720
    189    C    10.005    -2.969    -2.994
    190    H    9.736    -4.046    -2.939
    191    O    11.272    -2.827    -3.593
    192    P    12.722    -2.371    -3.477
    193    O    13.177    -1.926    -4.816
    194    O    13.475    -3.487    -2.858
    195    O    12.810    -1.121    -2.504
    196    C    14.214    -0.723    -2.300
    197    H    14.843    -0.807    -3.225
    198    H    14.695    -1.385    -1.537
    199    C    14.382    0.729    -1.849
    200    H    15.466    0.964    -1.734
    201    O    13.868    1.634    -2.864
    202    C    12.992    2.567    -2.288
    203    H    13.612    3.469    -2.065
    204    N    11.869    2.846    -3.226
    205    C    11.183    1.797    -3.804
    206    H    11.541    0.803    -3.526
    207    C    11.512    4.149    -3.481
    208    O    12.087    5.107    -2.971
    209    N    10.461    4.302    -4.347
    210    H    10.168    5.252    -4.521
    211    C    9.724    3.313    -4.960
    212    O    8.789    3.616    -5.702
    213    C    10.159    1.979    -4.656
    214    H    9.638    1.143    -5.118
    215    C    12.504    1.980    -0.979
    216    H    11.593    1.367    -1.149
    217    O    12.245    3.022    -0.063
    218    H    12.038    2.641    0.812
    219    C    13.652    1.046    -0.536
    220    H    13.166    0.102    -0.188
    221    O    14.568    1.566    0.466
    222    P    15.332    0.525    1.393
    223    O    16.359    1.248    2.175
    224    O    15.818    -0.599    0.566
    225    O    14.239    -0.048    2.350
    226    C    14.043    0.433    3.699
    227    H    13.559    1.434    3.659
    228    H    15.009    0.551    4.241
    229    C    13.132    -0.484    4.550
    230    H    12.585    0.138    5.291
    231    O    12.146    -1.147    3.717
    232    C    12.208    -2.534    3.893
    233    H    11.480    -2.754    4.705
    234    N    11.868    -3.257    2.640
    235    C    12.365    -2.777    1.454
    236    H    12.893    -1.822    1.514
    237    C    12.129    -3.409    0.298
    238    H    12.492    -3.027    -0.652
    239    C    11.074    -4.402    2.651
    240    O    10.614    -4.806    3.731
    241    N    10.810    -5.047    1.489
    242    C    11.325    -4.589    0.335
    243    N    11.047    -5.236    -0.798
    244    H    11.453    -4.962    -1.669
    245    H    10.473    -6.056    -0.768
    246    C    13.608    -2.814    4.388
    247    H    14.336    -2.773    3.551
    248    O    13.699    -4.044    5.074
    249    H    13.160    -3.950    5.876
    250    C    13.825    -1.623    5.328
    251    H    14.919    -1.412    5.369
    252    O    13.241    -1.820    6.646
    253    P    13.930    -1.242    7.944
    254    O    15.370    -0.981    7.691
    255    O    13.606    -2.129    9.086
    256    O    13.225    0.133    8.202
    257    C    11.800    0.225    8.464
    258    H    11.600    0.037    9.540
    259    H    11.224    -0.522    7.868
    260    C    11.236    1.613    8.108
    261    H    11.449    2.342    8.923
    262    O    11.921    2.121    6.924
    263    C    11.074    2.966    6.204
    264    H    11.543    3.975    6.257
    265    N    10.967    2.562    4.786
    266    C    10.410    1.440    4.197
    267    N    8.794    -1.603    4.472
    268    H    8.618    -2.403    3.910
    269    H    8.795    -1.691    5.463
    270    N    9.786    0.429    4.825
    271    C    9.360    -0.511    3.994
    272    N    9.512    -0.446    2.633
    273    H    9.193    -1.211    2.069
    274    C    10.187    0.569    1.967
    275    O    10.318    0.568    0.744
    276    C    10.633    1.589    2.845
    277    N    11.303    2.778    2.579
    278    C    11.474    3.317    3.759
    279    H    11.972    4.271    3.944
    280    C    9.745    3.001    6.931
    281    H    8.942    3.018    6.194
    282    O    9.665    4.155    7.747
    283    H    8.901    4.039    8.330
    284    C    9.739    1.703    7.755
    285    H    9.519    0.821    7.126
    286    O    8.905    1.719    8.939
    287    P    7.460    1.053    8.994
    288    O    6.794    1.618    10.188
    289    O    7.571    -0.424    8.940
    290    O    6.636    1.551    7.779
    291    C    6.300    2.940    7.568
    292    H    6.929    3.633    8.177
    293    H    5.247    3.113    7.879
    294    C    6.435    3.364    6.096
    295    H    7.130    4.232    6.031
    296    O    7.034    2.307    5.299
    297    C    6.357    2.158    4.107
    298    H    7.135    2.084    3.312
    299    N    5.573    0.930    4.118
    300    C    5.155    0.272    3.012
    301    N    5.171    0.045    -0.378
    302    H    5.394    0.983    -0.628
    303    H    4.845    -0.592    -1.080
    304    N    5.365    0.670    1.759
    305    C    4.982    -0.225    0.884
    306    N    4.380    -1.429    1.211
    307    H    4.090    -2.043    0.472
    308    C    4.114    -1.847    2.518
    309    O    3.579    -2.928    2.784
    310    C    4.538    -0.876    3.468
    311    N    4.527    -0.908    4.858
    312    C    5.170    0.182    5.199
    313    H    5.378    0.496    6.221
    314    C    5.554    3.401    3.922
    315    H    4.690    3.254    3.254
    316    O    6.416    4.389    3.401
    317    H    6.908    4.763    4.142
    318    C    5.153    3.750    5.354
    319    H    4.332    3.099    5.724
    320    O    4.906    5.136    5.623
    321    P    3.873    6.087    4.934
    322    O    4.331    7.473    5.161
    323    O    2.540    5.730    5.455
    324    O    3.882    5.771    3.403
    325    C    4.591    6.541    2.404
    326    H    5.697    6.471    2.520
    327    H    4.323    7.620    2.482
    328    C    4.222    6.070    0.986
    329    H    4.808    6.620    0.220
    330    O    4.449    4.645    0.769
    331    C    3.387    4.116    -0.023
    332    H    3.870    3.672    -0.924
    333    N    2.614    3.079    0.713
    334    C    2.530    3.093    2.080
    335    H    3.062    3.919    2.541
    336    C    1.911    2.164    -0.020
    337    O    1.877    2.210    -1.239
    338    N    1.248    1.210    0.716
    339    H    0.812    0.468    0.183
    340    C    1.208    1.101    2.090
    341    O    0.617    0.161    2.615
    342    C    1.883    2.155    2.789
    343    H    1.896    2.150    3.878
    344    C    2.510    5.280    -0.453
    345    H    1.435    5.003    -0.507
    346    O    2.929    5.807    -1.701
    347    H    2.344    6.558    -1.870
    348    C    2.746    6.253    0.691
    349    H    2.224    5.880    1.605
    350    O    2.488    7.643    0.390
    351    P    1.104    8.199    0.871
    352    O    1.085    9.667    0.699
    353    O    0.791    7.666    2.211
    354    O    0.130    7.535    -0.146
    355    C    0.038    8.036    -1.492
    356    H    1.035    8.074    -1.990
    357    H    -0.398    9.064    -1.492
    358    C    -0.890    7.140    -2.293
    359    H    -0.941    7.462    -3.357
    360    O    -0.438    5.745    -2.262
    361    C    -1.593    4.913    -2.236
    362    H    -1.505    4.185    -3.073
    363    N    -1.746    4.198    -0.953
    364    C    -2.406    3.018    -0.814
    365    N    -4.164    0.490    -2.248
    366    H    -4.167    0.777    -3.204
    367    H    -4.604    -0.385    -2.021
    368    N    -2.981    2.339    -1.805
    369    C    -3.560    1.238    -1.382
    370    N    -3.563    0.811    -0.078
    371    H    -4.038    -0.045    0.136
    372    C    -2.964    1.501    0.976
    373    O    -3.000    1.075    2.132
    374    C    -2.364    2.712    0.530
    375    N    -1.705    3.709    1.239
    376    C    -1.359    4.578    0.316
    377    H    -0.815    5.508    0.495
    378    C    -2.779    5.815    -2.475
    379    H    -3.691    5.384    -2.025
    380    O    -2.962    6.046    -3.862
    381    H    -3.718    6.642    -3.971
    382    C    -2.300    7.042    -1.719
    383    H    -2.159    6.774    -0.649
    384    O    -3.048    8.266    -1.883
    385    P    -3.919    8.771    -0.641
    386    O    -4.163    10.219    -0.798
    387    O    -3.354    8.327    0.647
    388    O    -5.288    8.055    -0.831
    389    C    -5.975    8.218    -2.096
    390    H    -5.293    8.408    -2.961
    391    H    -6.686    9.071    -2.033
    392    C    -6.749    6.954    -2.424
    393    H    -7.103    6.958    -3.476
    394    O    -5.921    5.786    -2.230
    395    C    -6.732    4.718    -1.828
    396    H    -6.620    3.977    -2.654
    397    N    -6.317    4.102    -0.534
    398    C    -5.609    4.755    0.444
    399    H    -5.293    5.776    0.213
    400    C    -5.317    4.135    1.605
    401    H    -4.756    4.622    2.400
    402    C    -6.758    2.818    -0.326
    403    O    -7.431    2.309    -1.226
    404    N    -6.464    2.153    0.821
    405    C    -5.791    2.799    1.792
    406    N    -5.562    2.180    2.953
    407    H    -5.844    1.231    3.092
    408    H    -4.964    2.579    3.646
    409    C    -8.169    5.222    -1.798
    410    H    -8.777    4.750    -0.999
    411    O    -8.785    5.018    -3.057
    412    H    -9.677    5.374    -2.984
    413    C    -7.933    6.697    -1.511
    414    H    -7.534    6.819    -0.477
    415    O    -9.015    7.600    -1.838
    416    P    -9.870    8.218    -0.662
    417    O    -10.300    9.595    -1.005
    418    O    -9.207    8.018    0.643
    419    O    -11.110    7.295    -0.652
    420    C    -12.290    7.405    -1.454
    421    H    -12.076    7.799    -2.471
    422    H    -13.002    8.097    -0.955
    423    C    -12.974    6.037    -1.552
    424    H    -13.649    5.959    -2.429
    425    O    -11.983    4.963    -1.619
    426    C    -12.417    3.871    -0.832
    427    H    -12.561    3.052    -1.574
    428    N    -11.421    3.440    0.192
    429    C    -10.691    4.367    0.899
    430    H    -10.836    5.412    0.622
    431    C    -9.811    3.986    1.837
    432    H    -9.208    4.701    2.394
    433    C    -11.305    2.085    0.503
    434    O    -12.024    1.272    -0.096
    435    N    -10.436    1.683    1.462
    436    C    -9.697    2.591    2.117
    437    N    -8.872    2.166    3.071
    438    H    -8.751    1.190    3.216
    439    H    -8.325    2.801    3.621
    440    C    -13.772    4.216    -0.224
    441    H    -13.846    3.882    0.834
    442    O    -14.814    3.637    -0.987
    443    H    -15.655    4.024    -0.694
    444    C    -13.790    5.742    -0.291
    445    H    -13.235    6.168    0.574
    446    O    -15.106    6.324    -0.395
    447    H    -15.608    6.180    0.428
 $END
