!*** FMO 5.3 (Gamess) INPUT generated by Facio 22.1.1.32 ***
 $CONTRL RUNTYP=ENERGY NPRINT=-5 ISPHER=1 MAXIT=200 $END
 $SYSTEM MWORDS=63 MEMDDI=63 $END
 $GDDI NGROUP=1 $END
 $SCF DIRSCF=.TRUE. NPUNCH=0 $END
!*** NumCPU : 2  MemPerNode : 512MB
 $PCM SOLVNT=WATER IEF=-10 ICOMP=2 ICAV=1 IDISP=1 IFMO=-1 $END
 $PCMCAV RADII=SUAHF $END
 $TESCAV NTSALL=60 $END
 $FMOPRP
    NAODIR=200
    NGRFMO(1)=1, 1, 0, 0, 0,   0, 0, 0, 0, 0
    IPIEDA=1
    NPRINT=9
 $END
 $FMO
      SCFTYP(1)=RHF
      MODGRD=10
      MODMUL=0
      MAXCAO=5
      MAXBND=16
      NLAYER=1
      MPLEVL(1)=2
      NFRAG=14
      ICHARG(1)=-1, -1, -1, -1, -1, -1, -1, -1, -1, -1, -1, -1, -1, 0
      FRGNAM(1)=F1, F2, F3, F4, F5, F6, F7, F8, F9, F10, F11, F12, F13, F14
      indat(1)=0
               1   -36   0
               37   -70   0
               71   -101   0
               102   -134   0
               135   -165   0
               166   -195   0
               196   -225   0
               226   -256   0
               257   -290   0
               291   -324   0
               325   -354   0
               355   -388   0
               389   -419   0
               420   -447   0
 $END

 $FMOBND
   -37   36       6-31G*    MINI
   -71   70       6-31G*    MINI
   -102   101       6-31G*    MINI
   -135   134       6-31G*    MINI
   -166   165       6-31G*    MINI
   -196   195       6-31G*    MINI
   -226   225       6-31G*    MINI
   -257   256       6-31G*    MINI
   -291   290       6-31G*    MINI
   -325   324       6-31G*    MINI
   -355   354       6-31G*    MINI
   -389   388       6-31G*    MINI
   -420   419       6-31G*    MINI
 $END
 $FMOHYB
 6-31G*      15   5
   1 0  -0.065034   0.288264   0.000000   0.000000   0.604412
         0.290129   0.000000   0.000000   0.319045  -0.017106
        -0.017106   0.057934   0.000000   0.000000   0.000000
   0 1  -0.065040   0.288293   0.569832   0.000000  -0.201456
         0.290147   0.300783   0.000000  -0.106342   0.049598
        -0.017106  -0.008771   0.000000  -0.027223   0.000000
   0 1  -0.065039   0.288293  -0.284916  -0.493490  -0.201455
         0.290145  -0.150392  -0.260486  -0.106340  -0.000427
         0.032923  -0.008771   0.033353   0.013612   0.023576
   0 1  -0.065039   0.288293  -0.284916   0.493490  -0.201455
         0.290145  -0.150392   0.260486  -0.106340  -0.000427
         0.032923  -0.008771  -0.033353   0.013612  -0.023576
   0 1   1.010938  -0.011975   0.000000   0.000000   0.000000
        -0.054085   0.000000   0.000000  -0.000000  -0.003174
        -0.003174  -0.003174   0.000000   0.000000   0.000000
 MINI         5   5
   1 0  -0.104883   0.308874   0.000000   0.000000   0.521806
   0 1  -0.104883   0.308874   0.491961   0.000000  -0.173934
   0 1  -0.104883   0.308876  -0.245980  -0.426050  -0.173933
   0 1  -0.104883   0.308876  -0.245980   0.426050  -0.173933
   0 1   0.988209   0.063992   0.000000   0.000000   0.000000
 $END
 
 $DATA
 FMO calculation
 C1 
 H.1-1    1
      N31 6
   
 O.1-1    8
      N31 6
      d 1
      1 0.800 1.0
   
 C.1-1    6
      N31 6
      d 1
      1 0.800 1.0
   
 N.1-1    7
      N31 6
      d 1
      1 0.800 1.0
   
 P.1-1   15
      N31 6
      d 1
      1 0.550 1.0
   
 $END
 $FMOXYZ
    1    H    -15.755    -4.562    7.860
    2    O    -15.305    -4.626    6.996
    3    C    -15.573    -5.942    6.486
    4    H    -16.669    -6.129    6.553
    5    H    -15.053    -6.696    7.115
    6    C    -15.148    -6.131    5.027
    7    H    -15.554    -7.082    4.619
    8    O    -15.710    -5.036    4.227
    9    C    -14.774    -4.681    3.228
    10    H    -15.311    -4.713    2.252
    11    N    -14.225    -3.337    3.431
    12    C    -13.538    -2.608    2.501
    13    N    -12.252    -2.233    -0.701
    14    H    -12.496    -3.087    -1.152
    15    H    -11.809    -1.510    -1.228
    16    N    -13.256    -2.991    1.241
    17    C    -12.580    -2.063    0.569
    18    N    -12.182    -0.882    1.136
    19    H    -11.712    -0.213    0.548
    20    C    -12.460    -0.465    2.430
    21    O    -12.080    0.622    2.882
    22    C    -13.203    -1.429    3.140
    23    N    -13.681    -1.410    4.444
    24    C    -14.272    -2.573    4.575
    25    H    -14.781    -2.923    5.475
    26    C    -13.688    -5.723    3.255
    27    H    -12.720    -5.297    2.930
    28    O    -14.070    -6.821    2.444
    29    H    -13.290    -7.384    2.367
    30    C    -13.624    -6.102    4.732
    31    H    -13.188    -5.272    5.335
    32    O    -12.988    -7.380    5.017
    33    P    -11.413    -7.553    5.194
    34    O    -11.143    -8.942    5.618
    35    O    -10.880    -6.499    6.086
    36    O    -10.768    -7.352    3.780
    37    C    -11.023    -8.247    2.674
    38    H    -12.068    -8.633    2.695
    39    H    -10.346    -9.129    2.732
    40    C    -10.814    -7.552    1.311
    41    H    -11.345    -8.104    0.508
    42    O    -11.370    -6.219    1.349
    43    C    -10.541    -5.316    0.661
    44    H    -11.197    -4.814    -0.084
    45    N    -9.980    -4.286    1.555
    46    C    -9.386    -3.112    1.163
    47    N    -8.427    -0.897    -1.327
    48    H    -8.662    -1.389    -2.161
    49    H    -8.090    0.044    -1.390
    50    N    -9.195    -2.701    -0.107
    51    C    -8.664    -1.480    -0.168
    52    N    -8.344    -0.745    0.941
    53    H    -7.954    0.172    0.793
    54    C    -8.511    -1.150    2.257
    55    O    -8.188    -0.420    3.199
    56    C    -9.075    -2.448    2.336
    57    N    -9.446    -3.195    3.446
    58    C    -9.985    -4.277    2.935
    59    H    -10.415    -5.096    3.512
    60    C    -9.490    -6.130    -0.052
    61    H    -8.524    -5.592    -0.158
    62    O    -9.972    -6.501    -1.330
    63    H    -9.299    -7.069    -1.723
    64    C    -9.361    -7.348    0.862
    65    H    -8.775    -7.100    1.776
    66    O    -8.899    -8.544    0.207
    67    P    -7.376    -8.896    0.079
    68    O    -7.266    -10.229    -0.546
    69    O    -6.737    -8.718    1.404
    70    O    -6.795    -7.809    -0.898
    71    C    -6.720    -8.067    -2.325
    72    H    -7.724    -8.339    -2.727
    73    H    -6.029    -8.917    -2.531
    74    C    -6.213    -6.857    -3.139
    75    H    -6.501    -6.959    -4.207
    76    O    -6.807    -5.628    -2.652
    77    C    -5.865    -4.573    -2.736
    78    H    -6.334    -3.845    -3.437
    79    N    -5.645    -3.886    -1.436
    80    C    -5.868    -4.561    -0.256
    81    H    -6.178    -5.604    -0.354
    82    C    -5.721    -3.960    0.931
    83    H    -5.903    -4.471    1.875
    84    C    -5.217    -2.562    -1.402
    85    O    -4.992    -1.961    -2.468
    86    N    -5.066    -1.942    -0.212
    87    C    -5.325    -2.596    0.934
    88    N    -5.221    -1.933    2.081
    89    H    -4.779    -1.032    2.059
    90    H    -5.334    -2.379    2.972
    91    C    -4.589    -5.111    -3.377
    92    H    -3.674    -4.690    -2.908
    93    O    -4.592    -4.816    -4.761
    94    H    -3.757    -5.158    -5.135
    95    C    -4.692    -6.623    -3.106
    96    H    -4.362    -6.835    -2.066
    97    O    -4.051    -7.511    -4.057
    98    P    -2.490    -7.567    -4.237
    99    O    -2.128    -8.769    -5.018
    100    O    -1.825    -7.377    -2.931
    101    O    -2.237    -6.301    -5.103
    102    C    -1.823    -6.277    -6.482
    103    H    -2.693    -6.490    -7.143
    104    H    -1.040    -7.046    -6.701
    105    C    -1.262    -4.896    -6.871
    106    H    -1.451    -4.672    -7.943
    107    O    -1.879    -3.832    -6.064
    108    C    -0.884    -2.933    -5.634
    109    H    -1.216    -1.915    -5.942
    110    N    -0.704    -2.961    -4.175
    111    C    -0.301    -2.404    -2.092
    112    N    -0.598    -3.756    -2.077
    113    C    -0.825    -4.038    -3.330
    114    H    -1.077    -5.030    -3.691
    115    N    0.274    -0.221    -1.396
    116    C    0.204    0.122    -2.688
    117    H    0.422    1.173    -2.906
    118    N    -0.096    -0.637    -3.752
    119    C    -0.354    -1.899    -3.375
    120    C    0.031    -1.513    -1.061
    121    N    0.081    -1.940    0.209
    122    H    0.132    -2.918    0.417
    123    H    0.286    -1.311    0.966
    124    C    0.382    -3.283    -6.366
    125    H    1.259    -3.100    -5.724
    126    O    0.472    -2.557    -7.575
    127    H    1.363    -2.735    -7.910
    128    C    0.249    -4.774    -6.624
    129    H    0.471    -5.353    -5.699
    130    O    0.985    -5.267    -7.769
    131    P    2.486    -5.747    -7.712
    132    O    2.923    -6.051    -9.094
    133    O    2.599    -6.841    -6.724
    134    O    3.317    -4.517    -7.200
    135    C    3.937    -3.549    -8.088
    136    H    3.331    -3.408    -9.014
    137    H    4.950    -3.897    -8.422
    138    C    4.087    -2.152    -7.433
    139    H    4.007    -1.360    -8.209
    140    O    3.024    -1.915    -6.484
    141    C    3.501    -1.250    -5.336
    142    H    2.839    -0.358    -5.229
    143    N    3.403    -2.060    -4.084
    144    C    3.183    -3.423    -4.094
    145    H    3.087    -3.886    -5.073
    146    C    3.074    -4.124    -2.955
    147    H    2.880    -5.195    -2.940
    148    C    3.537    -1.403    -2.869
    149    O    3.739    -0.179    -2.865
    150    N    3.451    -2.096    -1.717
    151    C    3.215    -3.414    -1.728
    152    N    3.132    -4.040    -0.560
    153    H    3.299    -3.503    0.271
    154    H    2.987    -5.027    -0.486
    155    C    4.907    -0.804    -5.646
    156    H    5.566    -0.777    -4.750
    157    O    4.865    0.478    -6.245
    158    H    5.730    0.631    -6.654
    159    C    5.360    -1.873    -6.633
    160    H    5.604    -2.812    -6.082
    161    O    6.394    -1.416    -7.525
    162    P    7.735    -2.206    -7.670
    163    O    8.401    -1.756    -8.913
    164    O    7.481    -3.652    -7.526
    165    O    8.579    -1.714    -6.442
    166    C    9.002    -0.328    -6.358
    167    H    8.226    0.380    -6.735
    168    H    9.913    -0.177    -6.976
    169    C    9.336    0.076    -4.918
    170    H    9.633    1.147    -4.856
    171    O    8.159    -0.100    -4.083
    172    C    8.558    -0.522    -2.793
    173    H    8.182    0.260    -2.093
    174    N    7.976    -1.846    -2.432
    175    C    7.497    -2.706    -3.395
    176    H    7.571    -2.345    -4.423
    177    C    7.919    -2.186    -1.099
    178    O    8.328    -1.450    -0.209
    179    N    7.357    -3.406    -0.831
    180    H    7.350    -3.702    0.135
    181    C    6.866    -4.317    -1.736
    182    O    6.393    -5.382    -1.345
    183    C    6.946    -3.894    -3.101
    184    H    6.560    -4.556    -3.871
    185    C    10.083    -0.521    -2.777
    186    H    10.508    -1.303    -2.114
    187    O    10.542    0.755    -2.392
    188    H    11.496    0.684    -2.290
    189    C    10.425    -0.766    -4.238
    190    H    10.228    -1.824    -4.516
    191    O    11.739    -0.311    -4.649
    192    P    12.987    -1.256    -4.485
    193    O    13.927    -0.989    -5.596
    194    O    12.535    -2.652    -4.309
    195    O    13.631    -0.752    -3.134
    196    C    14.955    -1.246    -2.799
    197    H    15.601    -1.381    -3.703
    198    H    14.876    -2.232    -2.290
    199    C    15.718    -0.292    -1.873
    200    H    16.741    -0.699    -1.718
    201    O    15.884    1.008    -2.504
    202    C    15.367    2.012    -1.660
    203    H    16.246    2.410    -1.103
    204    N    14.674    3.053    -2.453
    205    C    13.717    2.688    -3.372
    206    H    13.578    1.613    -3.497
    207    C    14.981    4.374    -2.231
    208    O    15.819    4.739    -1.412
    209    N    14.277    5.263    -2.999
    210    H    14.524    6.234    -2.861
    211    C    13.329    4.981    -3.960
    212    O    12.801    5.893    -4.596
    213    C    13.052    3.583    -4.119
    214    H    12.326    3.278    -4.870
    215    C    14.438    1.343    -0.668
    216    H    13.423    1.209    -1.105
    217    O    14.368    2.099    0.529
    218    H    13.704    1.714    1.124
    219    C    15.087    -0.031    -0.489
    220    H    14.265    -0.772    -0.347
    221    O    16.077    -0.080    0.569
    222    P    16.219    -1.389    1.430
    223    O    17.153    -1.122    2.538
    224    O    16.558    -2.515    0.522
    225    O    14.786    -1.659    2.003
    226    C    14.393    -1.259    3.334
    227    H    14.181    -0.167    3.340
    228    H    15.196    -1.447    4.088
    229    C    13.115    -1.978    3.810
    230    H    12.663    -1.410    4.652
    231    O    12.133    -2.070    2.744
    232    C    11.803    -3.422    2.517
    233    H    10.906    -3.617    3.151
    234    N    11.530    -3.686    1.090
    235    C    12.363    -3.115    0.161
    236    H    13.138    -2.457    0.561
    237    C    12.191    -3.330    -1.146
    238    H    12.834    -2.878    -1.897
    239    C    10.494    -4.521    0.681
    240    O    9.743    -5.026    1.537
    241    N    10.329    -4.786    -0.641
    242    C    11.139    -4.201    -1.546
    243    N    10.954    -4.431    -2.842
    244    H    11.509    -3.926    -3.517
    245    H    10.266    -5.087    -3.144
    246    C    12.964    -4.235    3.039
    247    H    13.810    -4.225    2.317
    248    O    12.601    -5.560    3.378
    249    H    12.020    -5.488    4.152
    250    C    13.333    -3.428    4.277
    251    H    14.424    -3.576    4.466
    252    O    12.504    -3.760    5.414
    253    P    13.114    -3.780    6.862
    254    O    14.583    -3.960    6.812
    255    O    12.372    -4.764    7.681
    256    O    12.824    -2.352    7.433
    257    C    11.486    -1.831    7.556
    258    H    11.017    -2.190    8.502
    259    H    10.839    -2.154    6.705
    260    C    11.485    -0.296    7.577
    261    H    11.841    0.085    8.559
    262    O    12.392    0.248    6.583
    263    C    11.898    1.487    6.130
    264    H    12.631    2.244    6.495
    265    N    11.848    1.538    4.668
    266    C    11.083    0.816    3.776
    267    N    8.606    -1.502    3.063
    268    H    8.232    -1.951    2.260
    269    H    8.406    -1.869    3.969
    270    N    10.145    -0.106    4.068
    271    C    9.561    -0.594    2.978
    272    N    9.891    -0.210    1.706
    273    H    9.426    -0.661    0.936
    274    C    10.890    0.694    1.383
    275    O    11.166    1.001    0.225
    276    C    11.484    1.256    2.531
    277    N    12.457    2.236    2.632
    278    C    12.636    2.376    3.918
    279    H    13.326    3.089    4.376
    280    C    10.553    1.744    6.785
    281    H    9.808    2.139    6.065
    282    O    10.714    2.647    7.862
    283    H    9.910    2.596    8.398
    284    C    10.137    0.351    7.265
    285    H    9.711    -0.228    6.420
    286    O    9.281    0.332    8.430
    287    P    7.738    0.063    8.273
    288    O    7.078    0.497    9.522
    289    O    7.495    -1.330    7.849
    290    O    7.292    1.018    7.130
    291    C    7.164    2.440    7.317
    292    H    8.023    2.847    7.891
    293    H    6.239    2.659    7.896
    294    C    7.089    3.210    5.985
    295    H    7.612    4.189    6.067
    296    O    7.705    2.472    4.876
    297    C    6.853    2.547    3.746
    298    H    7.496    2.796    2.870
    299    N    6.140    1.278    3.510
    300    C    5.666    0.833    2.307
    301    N    5.289    1.224    -1.110
    302    H    5.719    2.105    -1.297
    303    H    4.797    0.748    -1.846
    304    N    5.774    1.469    1.130
    305    C    5.244    0.773    0.128
    306    N    4.625    -0.438    0.305
    307    H    4.230    -0.904    -0.499
    308    C    4.488    -1.114    1.508
    309    O    3.925    -2.211    1.587
    310    C    5.060    -0.381    2.575
    311    N    5.138    -0.691    3.921
    312    C    5.786    0.319    4.439
    313    H    6.034    0.413    5.488
    314    C    5.897    3.679    4.021
    315    H    4.961    3.592    3.434
    316    O    6.540    4.914    3.749
    317    H    5.942    5.625    4.006
    318    C    5.655    3.470    5.515
    319    H    5.092    2.525    5.688
    320    O    5.092    4.581    6.244
    321    P    3.538    4.658    6.515
    322    O    3.259    5.772    7.447
    323    O    3.025    3.318    6.890
    324    O    2.971    5.016    5.101
    325    C    3.439    6.205    4.427
    326    H    4.547    6.287    4.429
    327    H    3.052    7.112    4.943
    328    C    2.958    6.245    2.980
    329    H    3.324    7.162    2.468
    330    O    3.459    5.103    2.228
    331    C    2.455    4.671    1.326
    332    H    2.911    4.722    0.309
    333    N    2.012    3.280    1.617
    334    C    2.157    2.729    2.872
    335    H    2.628    3.366    3.615
    336    C    1.470    2.552    0.589
    337    O    1.344    3.006    -0.550
    338    N    1.087    1.278    0.916
    339    H    0.725    0.732    0.140
    340    C    1.192    0.672    2.152
    341    O    0.783    -0.476    2.327
    342    C    1.784    1.476    3.165
    343    H    1.907    1.051    4.159
    344    C    1.306    5.669    1.418
    345    H    0.319    5.182    1.268
    346    O    1.463    6.713    0.479
    347    H    0.620    7.187    0.504
    348    C    1.442    6.191    2.848
    349    H    1.070    5.428    3.570
    350    O    0.914    7.512    3.118
    351    P    -0.605    7.720    3.428
    352    O    -0.864    9.142    3.756
    353    O    -1.045    6.725    4.427
    354    O    -1.294    7.380    2.075
    355    C    -1.401    8.343    1.012
    356    H    -0.416    8.818    0.792
    357    H    -2.113    9.152    1.299
    358    C    -1.935    7.674    -0.256
    359    H    -1.723    8.297    -1.152
    360    O    -1.312    6.363    -0.461
    361    C    -2.300    5.451    -0.911
    362    H    -1.900    5.032    -1.856
    363    N    -2.547    4.348    0.033
    364    C    -2.987    3.084    -0.286
    365    N    -4.048    0.755    -2.631
    366    H    -3.989    1.270    -3.489
    367    H    -4.410    -0.177    -2.641
    368    N    -3.263    2.615    -1.521
    369    C    -3.715    1.366    -1.504
    370    N    -3.839    0.632    -0.349
    371    H    -4.224    -0.295    -0.413
    372    C    -3.542    1.080    0.931
    373    O    -3.671    0.357    1.926
    374    C    -3.092    2.421    0.924
    375    N    -2.734    3.248    1.978
    376    C    -2.418    4.382    1.403
    377    H    -2.076    5.270    1.931
    378    C    -3.557    6.240    -1.194
    379    H    -4.472    5.645    -1.006
    380    O    -3.533    6.688    -2.534
    381    H    -4.371    7.143    -2.692
    382    C    -3.441    7.398    -0.204
    383    H    -3.656    7.044    0.834
    384    O    -4.171    8.600    -0.551
    385    P    -5.582    8.916    0.072
    386    O    -5.969    10.306    -0.267
    387    O    -5.608    8.549    1.502
    388    O    -6.540    7.937    -0.689
    389    C    -6.787    8.137    -2.100
    390    H    -5.877    8.473    -2.650
    391    H    -7.574    8.914    -2.240
    392    C    -7.278    6.850    -2.757
    393    H    -7.261    6.936    -3.866
    394    O    -6.438    5.728    -2.392
    395    C    -7.225    4.561    -2.289
    396    H    -6.826    3.882    -3.076
    397    N    -7.079    3.873    -0.964
    398    C    -6.691    4.579    0.158
    399    H    -6.514    5.647    0.014
    400    C    -6.531    3.973    1.344
    401    H    -6.213    4.509    2.239
    402    C    -7.317    2.504    -0.859
    403    O    -7.661    1.869    -1.872
    404    N    -7.161    1.877    0.330
    405    C    -6.785    2.573    1.418
    406    N    -6.658    1.931    2.579
    407    H    -6.991    0.992    2.673
    408    H    -6.362    2.397    3.413
    409    C    -8.668    4.946    -2.644
    410    H    -9.403    4.400    -2.023
    411    O    -8.923    4.685    -4.009
    412    H    -9.851    4.915    -4.173
    413    C    -8.688    6.456    -2.330
    414    H    -8.745    6.609    -1.229
    415    O    -9.623    7.304    -3.038
    416    P    -11.116    7.533    -2.609
    417    O    -11.647    8.784    -3.192
    418    O    -11.282    7.345    -1.154
    419    O    -11.756    6.328    -3.304
    420    C    -12.948    6.277    -4.093
    421    H    -12.755    6.702    -5.102
    422    H    -13.765    6.875    -3.625
    423    C    -13.426    4.817    -4.253
    424    H    -13.792    4.628    -5.284
    425    O    -12.339    3.865    -3.979
    426    C    -12.820    2.806    -3.178
    427    H    -12.611    1.909    -3.810
    428    N    -12.089    2.671    -1.888
    429    C    -11.811    3.780    -1.116
    430    H    -12.098    4.749    -1.532
    431    C    -11.167    3.666    0.056
    432    H    -10.921    4.523    0.682
    433    C    -11.758    1.403    -1.415
    434    O    -12.101    0.398    -2.063
    435    N    -11.075    1.279    -0.260
    436    C    -10.792    2.362    0.482
    437    N    -10.182    2.187    1.650
    438    H    -10.270    1.277    2.048
    439    H    -10.112    2.940    2.309
    440    C    -14.324    2.948    -3.018
    441    H    -14.655    2.681    -1.992
    442    O    -14.986    2.132    -3.970
    443    H    -15.934    2.352    -3.970
    444    C    -14.544    4.439    -3.273
    445    H    -14.366    5.009    -2.333
    446    O    -15.837    4.762    -3.825
    447    H    -16.543    4.535    -3.187
 $END
