!*** FMO 5.3 (Gamess) INPUT generated by Facio 22.1.1.32 ***
 $CONTRL RUNTYP=ENERGY NPRINT=-5 ISPHER=1 MAXIT=200 $END
 $SYSTEM MWORDS=63 MEMDDI=63 $END
 $GDDI NGROUP=1 $END
 $SCF DIRSCF=.TRUE. NPUNCH=0 $END
!*** NumCPU : 2  MemPerNode : 512MB
 $PCM SOLVNT=WATER IEF=-10 ICOMP=2 ICAV=1 IDISP=1 IFMO=-1 $END
 $PCMCAV RADII=SUAHF $END
 $TESCAV NTSALL=60 $END
 $FMOPRP
    NAODIR=200
    NGRFMO(1)=1, 1, 0, 0, 0,   0, 0, 0, 0, 0
    IPIEDA=1
    NPRINT=9
 $END
 $FMO
      SCFTYP(1)=RHF
      MODGRD=10
      MODMUL=0
      MAXCAO=5
      MAXBND=16
      NLAYER=1
      MPLEVL(1)=2
      NFRAG=14
      ICHARG(1)=-1, -1, -1, -1, -1, -1, -1, -1, -1, -1, -1, -1, -1, 0
      FRGNAM(1)=F1, F2, F3, F4, F5, F6, F7, F8, F9, F10, F11, F12, F13, F14
      indat(1)=0
               1   -36   0
               37   -70   0
               71   -101   0
               102   -134   0
               135   -165   0
               166   -195   0
               196   -225   0
               226   -256   0
               257   -290   0
               291   -324   0
               325   -354   0
               355   -388   0
               389   -419   0
               420   -447   0
 $END

 $FMOBND
   -37   36       6-31G*    MINI
   -71   70       6-31G*    MINI
   -102   101       6-31G*    MINI
   -135   134       6-31G*    MINI
   -166   165       6-31G*    MINI
   -196   195       6-31G*    MINI
   -226   225       6-31G*    MINI
   -257   256       6-31G*    MINI
   -291   290       6-31G*    MINI
   -325   324       6-31G*    MINI
   -355   354       6-31G*    MINI
   -389   388       6-31G*    MINI
   -420   419       6-31G*    MINI
 $END
 $FMOHYB
 6-31G*      15   5
   1 0  -0.065034   0.288264   0.000000   0.000000   0.604412
         0.290129   0.000000   0.000000   0.319045  -0.017106
        -0.017106   0.057934   0.000000   0.000000   0.000000
   0 1  -0.065040   0.288293   0.569832   0.000000  -0.201456
         0.290147   0.300783   0.000000  -0.106342   0.049598
        -0.017106  -0.008771   0.000000  -0.027223   0.000000
   0 1  -0.065039   0.288293  -0.284916  -0.493490  -0.201455
         0.290145  -0.150392  -0.260486  -0.106340  -0.000427
         0.032923  -0.008771   0.033353   0.013612   0.023576
   0 1  -0.065039   0.288293  -0.284916   0.493490  -0.201455
         0.290145  -0.150392   0.260486  -0.106340  -0.000427
         0.032923  -0.008771  -0.033353   0.013612  -0.023576
   0 1   1.010938  -0.011975   0.000000   0.000000   0.000000
        -0.054085   0.000000   0.000000  -0.000000  -0.003174
        -0.003174  -0.003174   0.000000   0.000000   0.000000
 MINI         5   5
   1 0  -0.104883   0.308874   0.000000   0.000000   0.521806
   0 1  -0.104883   0.308874   0.491961   0.000000  -0.173934
   0 1  -0.104883   0.308876  -0.245980  -0.426050  -0.173933
   0 1  -0.104883   0.308876  -0.245980   0.426050  -0.173933
   0 1   0.988209   0.063992   0.000000   0.000000   0.000000
 $END
 
 $DATA
 FMO calculation
 C1 
 H.1-1    1
      N31 6
   
 O.1-1    8
      N31 6
      d 1
      1 0.800 1.0
   
 C.1-1    6
      N31 6
      d 1
      1 0.800 1.0
   
 N.1-1    7
      N31 6
      d 1
      1 0.800 1.0
   
 P.1-1   15
      N31 6
      d 1
      1 0.550 1.0
   
 $END
 $FMOXYZ
    1    H    -9.491    -7.553    8.884
    2    O    -9.937    -7.048    8.179
    3    C    -11.102    -7.799    7.805
    4    H    -11.719    -7.988    8.712
    5    H    -10.783    -8.783    7.397
    6    C    -11.975    -7.099    6.750
    7    H    -12.973    -7.584    6.665
    8    O    -12.187    -5.694    7.090
    9    C    -12.103    -4.913    5.904
    10    H    -13.047    -4.325    5.839
    11    N    -10.962    -3.987    5.932
    12    C    -10.805    -2.927    5.085
    13    N    -11.960    -1.038    2.448
    14    H    -12.824    -1.486    2.225
    15    H    -11.676    -0.256    1.887
    16    N    -11.655    -2.576    4.106
    17    C    -11.252    -1.498    3.453
    18    N    -10.111    -0.806    3.762
    19    H    -9.930    0.033    3.242
    20    C    -9.227    -1.129    4.788
    21    O    -8.230    -0.434    5.005
    22    C    -9.631    -2.311    5.470
    23    N    -9.042    -2.990    6.531
    24    C    -9.865    -3.989    6.769
    25    H    -9.739    -4.748    7.546
    26    C    -12.022    -5.857    4.730
    27    H    -11.424    -5.446    3.889
    28    O    -13.311    -6.201    4.261
    29    H    -13.183    -6.914    3.621
    30    C    -11.337    -7.049    5.360
    31    H    -10.261    -6.820    5.554
    32    O    -11.567    -8.288    4.647
    33    P    -10.460    -8.709    3.613
    34    O    -10.739    -10.090    3.163
    35    O    -9.154    -8.443    4.248
    36    O    -10.646    -7.697    2.432
    37    C    -11.534    -7.939    1.331
    38    H    -12.590    -7.945    1.683
    39    H    -11.324    -8.924    0.853
    40    C    -11.391    -6.850    0.263
    41    H    -12.117    -7.051    -0.559
    42    O    -11.699    -5.532    0.842
    43    C    -10.841    -4.553    0.241
    44    H    -11.477    -3.690    -0.067
    45    N    -9.792    -4.087    1.163
    46    C    -9.031    -2.972    0.981
    47    N    -8.186    -0.239    -0.921
    48    H    -8.829    -0.305    -1.683
    49    H    -7.665    0.614    -0.829
    50    N    -9.130    -2.122    -0.047
    51    C    -8.270    -1.121    0.041
    52    N    -7.413    -0.949    1.095
    53    H    -6.783    -0.170    1.057
    54    C    -7.265    -1.836    2.158
    55    O    -6.437    -1.639    3.050
    56    C    -8.166    -2.927    2.054
    57    N    -8.367    -4.012    2.893
    58    C    -9.342    -4.678    2.323
    59    H    -9.784    -5.599    2.699
    60    C    -10.241    -5.226    -0.973
    61    H    -9.291    -4.760    -1.311
    62    O    -11.200    -5.201    -2.025
    63    H    -12.070    -5.425    -1.658
    64    C    -10.001    -6.609    -0.359
    65    H    -9.314    -6.513    0.511
    66    O    -9.563    -7.657    -1.249
    67    P    -8.071    -8.215    -1.162
    68    O    -8.031    -9.556    -1.787
    69    O    -7.535    -8.110    0.210
    70    O    -7.232    -7.236    -2.047
    71    C    -7.053    -7.493    -3.460
    72    H    -8.003    -7.827    -3.940
    73    H    -6.297    -8.299    -3.609
    74    C    -6.571    -6.243    -4.209
    75    H    -6.903    -6.273    -5.266
    76    O    -7.104    -5.024    -3.623
    77    C    -6.131    -4.011    -3.731
    78    H    -6.640    -3.217    -4.323
    79    N    -5.710    -3.461    -2.414
    80    C    -5.725    -4.209    -1.256
    81    H    -6.104    -5.233    -1.349
    82    C    -5.316    -3.678    -0.089
    83    H    -5.325    -4.238    0.845
    84    C    -5.254    -2.154    -2.386
    85    O    -5.239    -1.512    -3.443
    86    N    -4.832    -1.605    -1.229
    87    C    -4.831    -2.331    -0.105
    88    N    -4.383    -1.742    1.002
    89    H    -3.948    -0.844    0.932
    90    H    -4.423    -2.189    1.900
    91    C    -4.960    -4.553    -4.551
    92    H    -3.984    -4.132    -4.230
    93    O    -5.164    -4.288    -5.929
    94    H    -4.427    -4.683    -6.417
    95    C    -5.050    -6.046    -4.234
    96    H    -4.699    -6.236    -3.194
    97    O    -4.458    -6.950    -5.200
    98    P    -2.938    -7.345    -5.090
    99    O    -2.731    -8.682    -5.694
    100    O    -2.453    -7.143    -3.709
    101    O    -2.269    -6.265    -5.973
    102    C    -1.897    -6.388    -7.351
    103    H    -2.804    -6.489    -7.993
    104    H    -1.247    -7.277    -7.518
    105    C    -1.128    -5.140    -7.807
    106    H    -1.185    -5.021    -8.910
    107    O    -1.712    -3.939    -7.196
    108    C    -0.679    -3.082    -6.772
    109    H    -0.892    -2.084    -7.222
    110    N    -0.629    -2.964    -5.305
    111    C    -0.333    -2.194    -3.268
    112    N    -0.751    -3.506    -3.125
    113    C    -0.909    -3.919    -4.353
    114    H    -1.218    -4.925    -4.610
    115    N    0.383    0.005    -2.802
    116    C    0.438    0.190    -4.124
    117    H    0.762    1.186    -4.449
    118    N    0.132    -0.665    -5.105
    119    C    -0.252    -1.848    -4.604
    120    C    0.002    -1.207    -2.326
    121    N    -0.052    -1.450    -1.004
    122    H    -0.262    -2.366    -0.656
    123    H    0.239    -0.756    -0.336
    124    C    0.614    -3.622    -7.337
    125    H    1.454    -3.411    -6.654
    126    O    0.858    -3.074    -8.621
    127    H    1.686    -3.469    -8.928
    128    C    0.362    -5.124    -7.404
    129    H    0.432    -5.588    -6.395
    130    O    1.156    -5.828    -8.383
    131    P    2.575    -6.465    -8.121
    132    O    3.103    -6.964    -9.410
    133    O    2.475    -7.464    -7.035
    134    O    3.494    -5.313    -7.589
    135    C    4.422    -4.561    -8.407
    136    H    4.025    -4.437    -9.442
    137    H    5.398    -5.102    -8.486
    138    C    4.697    -3.136    -7.853
    139    H    4.843    -2.428    -8.697
    140    O    3.552    -2.657    -7.096
    141    C    3.964    -1.937    -5.951
    142    H    3.431    -0.959    -6.011
    143    N    3.592    -2.601    -4.664
    144    C    3.126    -3.899    -4.605
    145    H    3.057    -4.428    -5.555
    146    C    2.777    -4.466    -3.439
    147    H    2.403    -5.486    -3.369
    148    C    3.717    -1.870    -3.488
    149    O    4.128    -0.700    -3.544
    150    N    3.388    -2.430    -2.311
    151    C    2.917    -3.682    -2.257
    152    N    2.589    -4.170    -1.067
    153    H    2.692    -3.560    -0.277
    154    H    2.258    -5.106    -0.927
    155    C    5.453    -1.718    -6.088
    156    H    5.982    -1.676    -5.111
    157    O    5.682    -0.519    -6.805
    158    H    6.608    -0.532    -7.092
    159    C    5.880    -2.941    -6.889
    160    H    5.900    -3.837    -6.229
    161    O    7.101    -2.729    -7.628
    162    P    8.399    -3.545    -7.304
    163    O    9.383    -3.298    -8.381
    164    O    8.030    -4.952    -7.046
    165    O    8.937    -2.912    -5.963
    166    C    9.565    -1.607    -5.951
    167    H    8.997    -0.880    -6.580
    168    H    10.597    -1.676    -6.368
    169    C    9.653    -1.000    -4.533
    170    H    9.957    0.068    -4.586
    171    O    8.352    -1.042    -3.886
    172    C    8.509    -1.325    -2.507
    173    H    8.060    -0.453    -1.977
    174    N    7.787    -2.573    -2.107
    175    C    7.413    -3.510    -3.047
    176    H    7.687    -3.279    -4.076
    177    C    7.459    -2.745    -0.779
    178    O    7.754    -1.932    0.090
    179    N    6.761    -3.891    -0.496
    180    H    6.528    -4.058    0.472
    181    C    6.365    -4.868    -1.377
    182    O    5.748    -5.851    -0.971
    183    C    6.724    -4.618    -2.739
    184    H    6.430    -5.342    -3.495
    185    C    10.007    -1.364    -2.209
    186    H    10.258    -2.128    -1.447
    187    O    10.449    -0.095    -1.770
    188    H    11.395    -0.170    -1.584
    189    C    10.616    -1.703    -3.567
    190    H    10.531    -2.792    -3.778
    191    O    11.956    -1.199    -3.779
    192    P    13.208    -1.923    -3.176
    193    O    14.343    -1.661    -4.086
    194    O    12.862    -3.336    -2.907
    195    O    13.475    -1.187    -1.791
    196    C    14.708    -1.526    -1.093
    197    H    15.561    -1.683    -1.802
    198    H    14.579    -2.471    -0.518
    199    C    15.191    -0.438    -0.116
    200    H    16.184    -0.740    0.290
    201    O    15.384    0.820    -0.826
    202    C    14.656    1.846    -0.195
    203    H    15.398    2.362    0.457
    204    N    14.054    2.771    -1.187
    205    C    13.297    2.264    -2.217
    206    H    13.264    1.174    -2.271
    207    C    14.194    4.131    -1.011
    208    O    14.798    4.623    -0.061
    209    N    13.603    4.900    -1.982
    210    H    13.717    5.896    -1.885
    211    C    12.877    4.465    -3.072
    212    O    12.425    5.276    -3.880
    213    C    12.725    3.041    -3.148
    214    H    12.179    2.616    -3.987
    215    C    13.606    1.197    0.673
    216    H    12.685    0.997    0.083
    217    O    13.340    2.038    1.778
    218    H    12.676    1.616    2.352
    219    C    14.244    -0.143    1.070
    220    H    13.437    -0.913    1.059
    221    O    14.946    -0.116    2.337
    222    P    14.982    -1.386    3.274
    223    O    15.677    -1.038    4.531
    224    O    15.554    -2.507    2.494
    225    O    13.499    -1.756    3.618
    226    C    12.887    -1.428    4.889
    227    H    12.670    -0.337    4.915
    228    H    13.559    -1.658    5.748
    229    C    11.541    -2.160    5.123
    230    H    10.915    -1.560    5.817
    231    O    10.812    -2.322    3.877
    232    C    10.585    -3.687    3.634
    233    H    9.579    -3.884    4.052
    234    N    10.611    -4.005    2.193
    235    C    11.587    -3.433    1.422
    236    H    12.247    -2.733    1.938
    237    C    11.689    -3.705    0.117
    238    H    12.459    -3.261    -0.508
    239    C    9.674    -4.865    1.621
    240    O    8.781    -5.357    2.332
    241    N    9.761    -5.151    0.297
    242    C    10.738    -4.604    -0.449
    243    N    10.821    -4.902    -1.745
    244    H    11.554    -4.490    -2.304
    245    H    10.222    -5.597    -2.141
    246    C    11.620    -4.440    4.446
    247    H    12.617    -4.412    3.942
    248    O    11.235    -5.771    4.739
    249    H    10.467    -5.705    5.329
    250    C    11.638    -3.583    5.710
    251    H    12.630    -3.683    6.204
    252    O    10.530    -3.880    6.602
    253    P    10.698    -3.928    8.162
    254    O    12.106    -4.215    8.520
    255    O    9.679    -4.847    8.719
    256    O    10.348    -2.480    8.658
    257    C    9.042    -1.896    8.432
    258    H    8.335    -2.199    9.237
    259    H    8.612    -2.227    7.457
    260    C    9.096    -0.359    8.395
    261    H    9.231    0.051    9.422
    262    O    10.241    0.072    7.610
    263    C    9.952    1.298    6.990
    264    H    10.635    2.028    7.479
    265    N    10.236    1.266    5.552
    266    C    9.639    0.552    4.528
    267    N    7.313    -1.750    3.380
    268    H    7.105    -2.223    2.533
    269    H    6.862    -2.025    4.226
    270    N    8.600    -0.300    4.629
    271    C    8.288    -0.862    3.467
    272    N    8.931    -0.576    2.291
    273    H    8.656    -1.071    1.460
    274    C    10.017    0.275    2.167
    275    O    10.575    0.460    1.086
    276    C    10.345    0.902    3.394
    277    N    11.339    1.824    3.690
    278    C    11.238    2.008    4.978
    279    H    11.875    2.675    5.566
    280    C    8.517    1.669    7.306
    281    H    7.997    2.069    6.417
    282    O    8.486    2.621    8.350
    283    H    7.575    2.650    8.676
    284    C    7.896    0.338    7.733
    285    H    7.636    -0.263    6.839
    286    O    6.785    0.449    8.651
    287    P    5.287    0.477    8.139
    288    O    4.484    1.151    9.185
    289    O    4.843    -0.885    7.760
    290    O    5.285    1.383    6.869
    291    C    5.273    2.824    6.855
    292    H    5.928    3.234    7.654
    293    H    4.246    3.195    7.050
    294    C    5.725    3.454    5.509
    295    H    6.415    4.301    5.709
    296    O    6.461    2.502    4.683
    297    C    5.998    2.551    3.357
    298    H    6.900    2.580    2.702
    299    N    5.187    1.372    3.023
    300    C    4.978    0.848    1.779
    301    N    5.487    0.896    -1.642
    302    H    6.059    1.700    -1.779
    303    H    5.170    0.366    -2.432
    304    N    5.475    1.326    0.626
    305    C    5.111    0.582    -0.419
    306    N    4.326    -0.538    -0.310
    307    H    4.087    -1.048    -1.147
    308    C    3.804    -1.053    0.869
    309    O    3.109    -2.074    0.912
    310    C    4.165    -0.254    1.977
    311    N    3.847    -0.405    3.312
    312    C    4.486    0.573    3.893
    313    H    4.472    0.761    4.959
    314    C    5.227    3.830    3.215
    315    H    4.460    3.766    2.417
    316    O    6.104    4.907    2.941
    317    H    5.551    5.698    2.985
    318    C    4.598    3.987    4.598
    319    H    3.720    3.312    4.723
    320    O    4.295    5.352    4.966
    321    P    3.066    6.112    4.350
    322    O    3.099    7.519    4.808
    323    O    1.863    5.321    4.687
    324    O    3.283    6.040    2.796
    325    C    3.841    7.072    1.965
    326    H    4.943    7.138    2.108
    327    H    3.401    8.064    2.219
    328    C    3.567    6.825    0.465
    329    H    4.110    7.559    -0.165
    330    O    3.991    5.496    0.036
    331    C    3.056    4.980    -0.911
    332    H    3.646    4.763    -1.834
    333    N    2.397    3.743    -0.412
    334    C    2.265    3.516    0.938
    335    H    2.714    4.271    1.574
    336    C    1.861    2.868    -1.325
    337    O    1.890    3.075    -2.533
    338    N    1.287    1.749    -0.779
    339    H    0.907    1.094    -1.457
    340    C    1.159    1.436    0.559
    341    O    0.632    0.385    0.910
    342    C    1.695    2.417    1.445
    343    H    1.651    2.239    2.516
    344    C    2.048    6.081    -1.209
    345    H    1.022    5.687    -1.383
    346    O    2.455    6.847    -2.328
    347    H    1.832    7.584    -2.406
    348    C    2.096    6.884    0.083
    349    H    1.571    6.319    0.889
    350    O    1.681    8.263    -0.037
    351    P    0.236    8.617    0.466
    352    O    0.090    10.092    0.501
    353    O    -0.038    7.869    1.710
    354    O    -0.658    8.013    -0.657
    355    C    -1.091    8.827    -1.757
    356    H    -0.228    9.149    -2.381
    357    H    -1.631    9.735    -1.399
    358    C    -2.037    8.034    -2.637
    359    H    -2.246    8.606    -3.572
    360    O    -1.456    6.726    -2.989
    361    C    -2.504    5.762    -3.046
    362    H    -2.419    5.238    -4.025
    363    N    -2.444    4.782    -1.945
    364    C    -2.924    3.504    -2.008
    365    N    -4.426    0.984    -3.806
    366    H    -4.524    1.388    -4.716
    367    H    -4.726    0.036    -3.655
    368    N    -3.478    2.933    -3.087
    369    C    -3.874    1.691    -2.847
    370    N    -3.728    1.068    -1.632
    371    H    -4.078    0.127    -1.531
    372    C    -3.151    1.631    -0.500
    373    O    -3.054    1.003    0.561
    374    C    -2.722    2.964    -0.752
    375    N    -2.115    3.886    0.087
    376    C    -1.966    4.953    -0.664
    377    H    -1.509    5.890    -0.349
    378    C    -3.788    6.559    -2.990
    379    H    -4.624    5.951    -2.606
    380    O    -4.078    7.036    -4.296
    381    H    -3.259    7.360    -4.704
    382    C    -3.365    7.643    -1.986
    383    H    -3.095    7.163    -1.023
    384    O    -4.248    8.766    -1.764
    385    P    -4.880    9.047    -0.317
    386    O    -5.220    10.485    -0.195
    387    O    -4.083    8.449    0.775
    388    O    -6.236    8.278    -0.362
    389    C    -7.182    8.603    -1.406
    390    H    -6.744    9.187    -2.252
    391    H    -7.991    9.231    -0.975
    392    C    -7.808    7.331    -1.967
    393    H    -8.244    7.499    -2.977
    394    O    -6.847    6.245    -2.066
    395    C    -7.494    5.018    -1.815
    396    H    -7.406    4.464    -2.777
    397    N    -6.854    4.219    -0.723
    398    C    -6.098    4.808    0.265
    399    H    -5.972    5.893    0.192
    400    C    -5.540    4.073    1.242
    401    H    -4.931    4.515    2.028
    402    C    -7.019    2.839    -0.728
    403    O    -7.662    2.329    -1.654
    404    N    -6.483    2.076    0.258
    405    C    -5.766    2.662    1.233
    406    N    -5.268    1.903    2.212
    407    H    -5.312    0.912    2.150
    408    H    -4.646    2.284    2.895
    409    C    -8.966    5.327    -1.553
    410    H    -9.408    4.666    -0.780
    411    O    -9.708    5.226    -2.755
    412    H    -10.614    5.505    -2.559
    413    C    -8.875    6.770    -1.052
    414    H    -8.410    6.771    -0.038
    415    O    -10.072    7.579    -1.155
    416    P    -10.801    8.064    0.154
    417    O    -11.398    9.408    -0.034
    418    O    -9.944    7.855    1.336
    419    O    -11.926    7.023    0.272
    420    C    -13.227    7.045    -0.305
    421    H    -13.237    7.491    -1.324
    422    H    -13.904    7.651    0.342
    423    C    -13.763    5.611    -0.353
    424    H    -14.592    5.503    -1.083
    425    O    -12.705    4.651    -0.693
    426    C    -12.835    3.501    0.124
    427    H    -13.042    2.691    -0.612
    428    N    -11.606    3.166    0.902
    429    C    -10.853    4.143    1.508
    430    H    -11.170    5.172    1.339
    431    C    -9.766    3.835    2.235
    432    H    -9.153    4.597    2.718
    433    C    -11.256    1.829    1.065
    434    O    -11.957    0.958    0.530
    435    N    -10.179    1.491    1.818
    436    C    -9.444    2.454    2.401
    437    N    -8.414    2.099    3.173
    438    H    -8.209    1.142    3.363
    439    H    -7.876    2.789    3.664
    440    C    -14.068    3.661    1.008
    441    H    -13.889    3.288    2.040
    442    O    -15.175    2.985    0.437
    443    H    -15.983    3.254    0.907
    444    C    -14.267    5.174    1.023
    445    H    -13.600    5.643    1.778
    446    O    -15.629    5.601    1.214
    447    H    -15.946    5.327    2.094
 $END
