!*** FMO 5.3 (Gamess) INPUT generated by Facio 22.1.1.32 ***
 $CONTRL RUNTYP=ENERGY NPRINT=-5 ISPHER=1 MAXIT=200 $END
 $SYSTEM MWORDS=63 MEMDDI=63 $END
 $GDDI NGROUP=1 $END
 $SCF DIRSCF=.TRUE. NPUNCH=0 $END
!*** NumCPU : 2  MemPerNode : 512MB
 $PCM SOLVNT=WATER IEF=-10 ICOMP=2 ICAV=1 IDISP=1 IFMO=-1 $END
 $PCMCAV RADII=SUAHF $END
 $TESCAV NTSALL=60 $END
 $FMOPRP
    NAODIR=200
    NGRFMO(1)=1, 1, 0, 0, 0,   0, 0, 0, 0, 0
    IPIEDA=1
    NPRINT=9
 $END
 $FMO
      SCFTYP(1)=RHF
      MODGRD=10
      MODMUL=0
      MAXCAO=5
      MAXBND=16
      NLAYER=1
      MPLEVL(1)=2
      NFRAG=14
      ICHARG(1)=-1, -1, -1, -1, -1, -1, -1, -1, -1, -1, -1, -1, -1, 0
      FRGNAM(1)=F1, F2, F3, F4, F5, F6, F7, F8, F9, F10, F11, F12, F13, F14
      indat(1)=0
               1   -36   0
               37   -70   0
               71   -101   0
               102   -134   0
               135   -165   0
               166   -195   0
               196   -225   0
               226   -256   0
               257   -290   0
               291   -324   0
               325   -354   0
               355   -388   0
               389   -419   0
               420   -447   0
 $END

 $FMOBND
   -37   36       6-31G*    MINI
   -71   70       6-31G*    MINI
   -102   101       6-31G*    MINI
   -135   134       6-31G*    MINI
   -166   165       6-31G*    MINI
   -196   195       6-31G*    MINI
   -226   225       6-31G*    MINI
   -257   256       6-31G*    MINI
   -291   290       6-31G*    MINI
   -325   324       6-31G*    MINI
   -355   354       6-31G*    MINI
   -389   388       6-31G*    MINI
   -420   419       6-31G*    MINI
 $END
 $FMOHYB
 6-31G*      15   5
   1 0  -0.065034   0.288264   0.000000   0.000000   0.604412
         0.290129   0.000000   0.000000   0.319045  -0.017106
        -0.017106   0.057934   0.000000   0.000000   0.000000
   0 1  -0.065040   0.288293   0.569832   0.000000  -0.201456
         0.290147   0.300783   0.000000  -0.106342   0.049598
        -0.017106  -0.008771   0.000000  -0.027223   0.000000
   0 1  -0.065039   0.288293  -0.284916  -0.493490  -0.201455
         0.290145  -0.150392  -0.260486  -0.106340  -0.000427
         0.032923  -0.008771   0.033353   0.013612   0.023576
   0 1  -0.065039   0.288293  -0.284916   0.493490  -0.201455
         0.290145  -0.150392   0.260486  -0.106340  -0.000427
         0.032923  -0.008771  -0.033353   0.013612  -0.023576
   0 1   1.010938  -0.011975   0.000000   0.000000   0.000000
        -0.054085   0.000000   0.000000  -0.000000  -0.003174
        -0.003174  -0.003174   0.000000   0.000000   0.000000
 MINI         5   5
   1 0  -0.104883   0.308874   0.000000   0.000000   0.521806
   0 1  -0.104883   0.308874   0.491961   0.000000  -0.173934
   0 1  -0.104883   0.308876  -0.245980  -0.426050  -0.173933
   0 1  -0.104883   0.308876  -0.245980   0.426050  -0.173933
   0 1   0.988209   0.063992   0.000000   0.000000   0.000000
 $END
 
 $DATA
 FMO calculation
 C1 
 H.1-1    1
      N31 6
   
 O.1-1    8
      N31 6
      d 1
      1 0.800 1.0
   
 C.1-1    6
      N31 6
      d 1
      1 0.800 1.0
   
 N.1-1    7
      N31 6
      d 1
      1 0.800 1.0
   
 P.1-1   15
      N31 6
      d 1
      1 0.550 1.0
   
 $END
 $FMOXYZ
    1    H    -11.080    -1.784    9.667
    2    O    -11.517    -1.790    8.796
    3    C    -12.521    -2.816    8.839
    4    H    -13.202    -2.629    9.700
    5    H    -12.029    -3.799    9.011
    6    C    -13.365    -2.923    7.562
    7    H    -14.291    -3.505    7.753
    8    O    -13.759    -1.607    7.074
    9    C    -13.664    -1.585    5.655
    10    H    -14.669    -1.266    5.284
    11    N    -12.652    -0.623    5.192
    12    C    -12.537    -0.135    3.917
    13    N    -13.641    0.001    0.641
    14    H    -14.413    -0.635    0.649
    15    H    -13.387    0.449    -0.214
    16    N    -13.320    -0.465    2.873
    17    C    -12.967    0.174    1.760
    18    N    -11.937    1.073    1.698
    19    H    -11.707    1.442    0.795
    20    C    -11.122    1.443    2.763
    21    O    -10.223    2.276    2.612
    22    C    -11.482    0.759    3.957
    23    N    -10.935    0.825    5.233
    24    C    -11.656    -0.022    5.934
    25    H    -11.520    -0.239    6.996
    26    C    -13.380    -3.000    5.185
    27    H    -12.747    -3.027    4.271
    28    O    -14.592    -3.694    4.943
    29    H    -14.371    -4.631    4.818
    30    C    -12.637    -3.573    6.381
    31    H    -11.601    -3.154    6.404
    32    O    -12.701    -5.018    6.487
    33    P    -11.366    -5.842    6.347
    34    O    -11.637    -7.237    6.754
    35    O    -10.291    -5.123    7.061
    36    O    -11.068    -5.791    4.818
    37    C    -11.696    -6.687    3.887
    38    H    -12.812    -6.632    3.948
    39    H    -11.392    -7.736    4.091
    40    C    -11.251    -6.336    2.470
    41    H    -11.670    -7.082    1.757
    42    O    -11.784    -5.012    2.111
    43    C    -10.823    -4.336    1.294
    44    H    -11.355    -3.938    0.398
    45    N    -10.173    -3.234    2.009
    46    C    -9.457    -2.214    1.446
    47    N    -8.155    -0.595    -1.344
    48    H    -8.515    -1.139    -2.097
    49    H    -7.626    0.232    -1.541
    50    N    -9.234    -2.027    0.131
    51    C    -8.502    -0.937    -0.112
    52    N    -8.024    -0.130    0.884
    53    H    -7.477    0.672    0.614
    54    C    -8.221    -0.324    2.249
    55    O    -7.744    0.420    3.107
    56    C    -9.005    -1.465    2.510
    57    N    -9.429    -1.997    3.720
    58    C    -10.122    -3.046    3.371
    59    H    -10.627    -3.720    4.061
    60    C    -9.816    -5.386    0.888
    61    H    -8.827    -4.972    0.597
    62    O    -10.371    -6.134    -0.182
    63    H    -11.298    -6.328    0.028
    64    C    -9.736    -6.176    2.190
    65    H    -9.328    -5.535    3.002
    66    O    -9.035    -7.434    2.096
    67    P    -7.684    -7.704    2.887
    68    O    -7.584    -9.159    3.138
    69    O    -7.572    -6.831    4.076
    70    O    -6.520    -7.313    1.918
    71    C    -5.923    -8.212    0.953
    72    H    -6.630    -9.030    0.662
    73    H    -5.039    -8.709    1.408
    74    C    -5.459    -7.482    -0.338
    75    H    -5.655    -8.138    -1.217
    76    O    -6.257    -6.276    -0.542
    77    C    -5.444    -5.242    -1.051
    78    H    -5.968    -4.913    -1.975
    79    N    -5.338    -4.060    -0.143
    80    C    -5.564    -4.201    1.207
    81    H    -5.771    -5.210    1.561
    82    C    -5.517    -3.156    2.035
    83    H    -5.692    -3.242    3.105
    84    C    -5.107    -2.789    -0.673
    85    O    -5.011    -2.663    -1.903
    86    N    -4.992    -1.724    0.162
    87    C    -5.246    -1.888    1.473
    88    N    -5.261    -0.842    2.268
    89    H    -4.983    0.020    1.847
    90    H    -4.995    -0.941    3.228
    91    C    -4.107    -5.859    -1.443
    92    H    -3.264    -5.142    -1.361
    93    O    -4.203    -6.346    -2.769
    94    H    -3.359    -6.773    -2.995
    95    C    -3.976    -7.011    -0.441
    96    H    -3.683    -6.623    0.560
    97    O    -3.133    -8.115    -0.847
    98    P    -1.569    -8.132    -1.050
    99    O    -1.135    -9.545    -1.077
    100    O    -0.939    -7.268    -0.029
    101    O    -1.346    -7.510    -2.474
    102    C    -0.397    -7.932    -3.505
    103    H    -0.720    -8.923    -3.900
    104    H    0.623    -8.069    -3.083
    105    C    -0.299    -6.959    -4.748
    106    H    -0.588    -7.509    -5.672
    107    O    -1.321    -5.929    -4.548
    108    C    -0.759    -4.651    -4.616
    109    H    -1.500    -4.036    -5.175
    110    N    -0.546    -4.023    -3.309
    111    C    -0.321    -2.472    -1.790
    112    N    -0.154    -3.681    -1.127
    113    C    -0.296    -4.573    -2.070
    114    H    -0.208    -5.645    -1.906
    115    N    -0.492    -0.147    -2.237
    116    C    -0.678    -0.489    -3.513
    117    H    -0.821    0.341    -4.213
    118    N    -0.741    -1.713    -4.056
    119    C    -0.557    -2.665    -3.125
    120    C    -0.297    -1.147    -1.349
    121    N    -0.110    -0.902    -0.070
    122    H    0.182    -1.625    0.561
    123    H    -0.180    0.001    0.318
    124    C    0.492    -4.754    -5.415
    125    H    1.209    -3.956    -5.165
    126    O    0.162    -4.654    -6.784
    127    H    0.996    -4.726    -7.264
    128    C    1.032    -6.137    -5.056
    129    H    1.606    -6.109    -4.104
    130    O    1.835    -6.722    -6.111
    131    P    3.176    -6.207    -6.825
    132    O    3.169    -6.761    -8.196
    133    O    4.325    -6.601    -5.982
    134    O    3.146    -4.626    -6.982
    135    C    4.138    -3.678    -7.535
    136    H    4.326    -3.931    -8.604
    137    H    5.109    -3.790    -7.007
    138    C    3.747    -2.116    -7.500
    139    H    3.491    -1.786    -8.526
    140    O    2.503    -2.062    -6.740
    141    C    2.586    -1.132    -5.679
    142    H    1.573    -0.665    -5.639
    143    N    2.870    -1.739    -4.348
    144    C    3.194    -3.065    -4.228
    145    H    3.266    -3.623    -5.140
    146    C    3.359    -3.654    -3.052
    147    H    3.534    -4.722    -2.947
    148    C    2.804    -0.953    -3.202
    149    O    2.540    0.253    -3.315
    150    N    3.030    -1.523    -1.995
    151    C    3.255    -2.850    -1.909
    152    N    3.362    -3.465    -0.751
    153    H    4.218    -3.304    -0.268
    154    H    2.606    -3.281    -0.122
    155    C    3.597    -0.102    -6.076
    156    H    4.070    0.411    -5.209
    157    O    2.984    0.850    -6.932
    158    H    3.680    1.376    -7.360
    159    C    4.622    -0.948    -6.802
    160    H    5.235    -1.494    -6.082
    161    O    5.458    -0.159    -7.677
    162    P    6.245    1.239    -7.522
    163    O    5.358    2.302    -8.052
    164    O    7.538    1.045    -8.210
    165    O    6.580    1.617    -6.015
    166    C    7.216    2.881    -5.600
    167    H    6.495    3.707    -5.794
    168    H    8.112    3.103    -6.220
    169    C    7.631    3.052    -4.068
    170    H    7.555    4.126    -3.786
    171    O    6.683    2.317    -3.236
    172    C    7.364    1.466    -2.328
    173    H    6.925    1.678    -1.335
    174    N    7.173    0.022    -2.634
    175    C    6.883    -0.422    -3.883
    176    H    6.355    0.316    -4.449
    177    C    7.363    -0.871    -1.631
    178    O    7.671    -0.493    -0.516
    179    N    7.157    -2.192    -1.938
    180    H    7.364    -2.871    -1.229
    181    C    6.878    -2.701    -3.186
    182    O    6.666    -3.900    -3.349
    183    C    6.822    -1.719    -4.209
    184    H    6.640    -2.075    -5.212
    185    C    8.812    1.883    -2.244
    186    H    9.498    1.016    -2.120
    187    O    8.994    2.781    -1.156
    188    H    9.903    3.100    -1.198
    189    C    9.049    2.554    -3.589
    190    H    9.327    1.798    -4.353
    191    O    10.037    3.618    -3.485
    192    P    11.591    3.272    -3.484
    193    O    12.306    4.531    -3.782
    194    O    11.779    2.151    -4.431
    195    O    12.089    2.772    -2.031
    196    C    13.498    2.302    -2.065
    197    H    14.136    2.964    -2.708
    198    H    13.564    1.291    -2.513
    199    C    14.296    2.226    -0.729
    200    H    15.355    2.000    -0.994
    201    O    14.301    3.529    -0.074
    202    C    13.847    3.409    1.254
    203    H    14.755    3.397    1.898
    204    N    12.903    4.523    1.594
    205    C    11.859    4.829    0.747
    206    H    11.849    4.268    -0.190
    207    C    13.025    5.152    2.811
    208    O    13.888    4.846    3.626
    209    N    12.111    6.149    3.048
    210    H    12.193    6.626    3.932
    211    C    11.062    6.532    2.239
    212    O    10.316    7.448    2.589
    213    C    10.958    5.788    1.017
    214    H    10.162    6.045    0.321
    215    C    13.153    2.075    1.346
    216    H    12.123    2.246    0.970
    217    O    13.166    1.555    2.663
    218    H    12.769    0.665    2.639
    219    C    13.869    1.178    0.334
    220    H    13.115    0.510    -0.141
    221    O    14.970    0.413    0.889
    222    P    15.204    -1.155    0.739
    223    O    16.141    -1.580    1.802
    224    O    15.645    -1.408    -0.650
    225    O    13.828    -1.885    0.968
    226    C    13.668    -3.155    1.685
    227    H    13.912    -2.980    2.762
    228    H    14.382    -3.926    1.323
    229    C    12.203    -3.752    1.651
    230    H    11.797    -3.805    2.661
    231    O    11.362    -2.896    0.768
    232    C    11.110    -3.634    -0.447
    233    H    10.091    -4.060    -0.325
    234    N    11.068    -2.819    -1.642
    235    C    11.833    -1.695    -1.726
    236    H    12.512    -1.518    -0.890
    237    C    11.723    -0.883    -2.781
    238    H    12.291    0.029    -2.883
    239    C    10.171    -3.155    -2.650
    240    O    9.468    -4.168    -2.520
    241    N    10.061    -2.352    -3.729
    242    C    10.787    -1.226    -3.796
    243    N    10.614    -0.402    -4.820
    244    H    11.082    0.491    -4.844
    245    H    9.973    -0.647    -5.545
    246    C    12.110    -4.763    -0.414
    247    H    13.154    -4.404    -0.539
    248    O    11.847    -5.829    -1.303
    249    H    11.053    -6.283    -0.986
    250    C    11.765    -5.089    1.012
    251    H    10.672    -4.933    1.193
    252    O    12.016    -6.380    1.635
    253    P    10.722    -7.378    1.700
    254    O    11.213    -8.758    1.490
    255    O    9.698    -6.946    0.716
    256    O    10.098    -7.297    3.170
    257    C    8.972    -6.502    3.674
    258    H    8.150    -7.195    3.958
    259    H    8.570    -5.818    2.891
    260    C    9.322    -5.656    4.957
    261    H    9.540    -6.352    5.796
    262    O    10.584    -5.014    4.624
    263    C    10.762    -3.838    5.374
    264    H    11.665    -4.038    5.994
    265    N    10.987    -2.664    4.547
    266    C    10.190    -2.119    3.568
    267    N    7.296    -2.106    1.669
    268    H    6.948    -1.515    0.948
    269    H    6.786    -2.900    1.994
    270    N    8.999    -2.583    3.134
    271    C    8.471    -1.834    2.198
    272    N    9.065    -0.716    1.719
    273    H    8.657    -0.279    0.911
    274    C    10.298    -0.262    2.077
    275    O    10.699    0.738    1.508
    276    C    10.877    -1.013    3.124
    277    N    12.087    -0.866    3.792
    278    C    12.107    -1.878    4.625
    279    H    12.916    -2.108    5.321
    280    C    9.573    -3.633    6.253
    281    H    9.288    -2.560    6.331
    282    O    9.849    -4.154    7.542
    283    H    9.002    -4.229    8.008
    284    C    8.481    -4.427    5.552
    285    H    8.033    -3.913    4.693
    286    O    7.426    -4.738    6.473
    287    P    6.459    -3.624    7.133
    288    O    6.499    -3.842    8.596
    289    O    5.145    -3.799    6.487
    290    O    6.917    -2.103    6.884
    291    C    6.215    -0.947    7.522
    292    H    6.513    -0.889    8.595
    293    H    5.113    -1.105    7.515
    294    C    6.467    0.523    6.924
    295    H    7.088    1.104    7.633
    296    O    7.285    0.336    5.723
    297    C    6.661    0.934    4.606
    298    H    7.464    1.304    3.931
    299    N    5.787    0.019    3.880
    300    C    5.290    0.224    2.622
    301    N    4.927    2.184    -0.209
    302    H    4.574    2.110    -1.139
    303    H    5.536    2.944    0.004
    304    N    5.535    1.277    1.823
    305    C    4.875    1.200    0.665
    306    N    4.011    0.179    0.363
    307    H    3.600    0.121    -0.553
    308    C    3.670    -0.846    1.237
    309    O    2.807    -1.685    1.015
    310    C    4.436    -0.827    2.406
    311    N    4.432    -1.706    3.470
    312    C    5.240    -1.158    4.327
    313    H    5.456    -1.576    5.301
    314    C    5.866    2.069    5.121
    315    H    5.060    2.375    4.414
    316    O    6.717    3.171    5.384
    317    H    6.161    3.863    5.770
    318    C    5.281    1.497    6.404
    319    H    4.402    0.844    6.196
    320    O    4.918    2.575    7.310
    321    P    3.809    3.705    6.980
    322    O    4.038    4.826    7.918
    323    O    2.490    3.046    7.069
    324    O    3.963    4.281    5.488
    325    C    3.739    5.697    5.165
    326    H    4.712    6.222    5.280
    327    H    3.034    6.184    5.876
    328    C    3.249    6.083    3.712
    329    H    3.680    7.071    3.442
    330    O    3.745    5.153    2.702
    331    C    2.737    4.912    1.725
    332    H    3.213    5.059    0.726
    333    N    2.189    3.539    1.838
    334    C    2.360    2.824    3.000
    335    H    2.888    3.336    3.797
    336    C    1.503    3.008    0.773
    337    O    1.335    3.609    -0.281
    338    N    1.004    1.750    0.986
    339    H    0.530    1.384    0.184
    340    C    1.076    1.016    2.172
    341    O    0.476    -0.040    2.319
    342    C    1.861    1.606    3.188
    343    H    1.962    1.083    4.136
    344    C    1.651    5.947    1.922
    345    H    0.645    5.562    1.643
    346    O    1.926    7.110    1.162
    347    H    1.141    7.670    1.246
    348    C    1.719    6.206    3.431
    349    H    1.224    5.381    3.992
    350    O    1.222    7.506    3.833
    351    P    -0.327    7.834    3.882
    352    O    -0.505    9.263    4.221
    353    O    -0.963    6.862    4.795
    354    O    -0.895    7.583    2.439
    355    C    -1.362    8.617    1.535
    356    H    -0.552    9.366    1.377
    357    H    -2.231    9.165    1.968
    358    C    -1.778    8.085    0.124
    359    H    -1.421    8.788    -0.659
    360    O    -1.107    6.813    -0.126
    361    C    -2.012    5.897    -0.698
    362    H    -1.492    5.475    -1.588
    363    N    -2.339    4.791    0.205
    364    C    -2.739    3.541    -0.186
    365    N    -3.490    1.262    -2.687
    366    H    -3.889    0.354    -2.786
    367    H    -3.368    1.822    -3.505
    368    N    -2.900    3.115    -1.451
    369    C    -3.288    1.839    -1.519
    370    N    -3.433    1.044    -0.407
    371    H    -3.765    0.102    -0.517
    372    C    -3.195    1.468    0.897
    373    O    -3.268    0.742    1.880
    374    C    -2.876    2.830    0.978
    375    N    -2.613    3.617    2.090
    376    C    -2.294    4.778    1.583
    377    H    -2.009    5.653    2.163
    378    C    -3.226    6.663    -1.148
    379    H    -4.146    6.047    -1.103
    380    O    -3.025    7.124    -2.470
    381    H    -3.856    7.545    -2.736
    382    C    -3.294    7.826    -0.160
    383    H    -3.739    7.490    0.801
    384    O    -3.954    9.019    -0.677
    385    P    -5.527    9.185    -0.852
    386    O    -5.756    10.484    -1.520
    387    O    -6.133    9.026    0.488
    388    O    -6.061    8.022    -1.774
    389    C    -6.674    8.001    -3.103
    390    H    -6.279    8.842    -3.715
    391    H    -7.769    8.164    -3.003
    392    C    -6.451    6.654    -3.936
    393    H    -5.844    6.916    -4.832
    394    O    -5.609    5.810    -3.108
    395    C    -6.181    4.555    -2.854
    396    H    -5.351    3.908    -3.215
    397    N    -6.367    4.130    -1.452
    398    C    -6.433    5.040    -0.432
    399    H    -6.329    6.086    -0.709
    400    C    -6.586    4.642    0.837
    401    H    -6.618    5.339    1.669
    402    C    -6.553    2.761    -1.179
    403    O    -6.578    1.926    -2.097
    404    N    -6.691    2.353    0.095
    405    C    -6.695    3.248    1.089
    406    N    -6.801    2.812    2.332
    407    H    -7.034    1.848    2.498
    408    H    -6.948    3.440    3.091
    409    C    -7.411    4.366    -3.660
    410    H    -8.302    4.131    -3.047
    411    O    -7.081    3.286    -4.490
    412    H    -6.501    3.622    -5.188
    413    C    -7.634    5.677    -4.428
    414    H    -8.578    6.156    -4.084
    415    O    -7.694    5.447    -5.871
    416    P    -8.767    4.564    -6.721
    417    O    -8.352    4.736    -8.127
    418    O    -10.131    5.014    -6.368
    419    O    -8.758    2.975    -6.474
    420    C    -9.392    2.059    -7.429
    421    H    -8.635    1.780    -8.191
    422    H    -10.209    2.565    -7.996
    423    C    -10.003    0.690    -6.920
    424    H    -9.718    -0.115    -7.631
    425    O    -9.490    0.283    -5.620
    426    C    -10.551    -0.081    -4.740
    427    H    -10.284    -1.102    -4.376
    428    N    -10.652    0.836    -3.581
    429    C    -10.456    2.174    -3.802
    430    H    -10.165    2.459    -4.811
    431    C    -10.549    3.065    -2.813
    432    H    -10.368    4.125    -2.974
    433    C    -11.042    0.392    -2.316
    434    O    -11.311    -0.808    -2.155
    435    N    -11.115    1.281    -1.288
    436    C    -10.857    2.584    -1.514
    437    N    -10.870    3.449    -0.501
    438    H    -11.028    3.151    0.436
    439    H    -10.766    4.431    -0.657
    440    C    -11.850    -0.170    -5.525
    441    H    -12.689    0.317    -4.973
    442    O    -12.213    -1.518    -5.784
    443    H    -11.546    -1.933    -6.356
    444    C    -11.543    0.648    -6.789
    445    H    -11.862    1.698    -6.628
    446    O    -12.146    0.132    -7.991
    447    H    -13.098    -0.024    -7.837
 $END
