!*** FMO 5.3 (Gamess) INPUT generated by Facio 22.1.1.32 ***
 $CONTRL RUNTYP=ENERGY NPRINT=-5 ISPHER=1 MAXIT=200 $END
 $SYSTEM MWORDS=63 MEMDDI=63 $END
 $GDDI NGROUP=1 $END
 $SCF DIRSCF=.TRUE. NPUNCH=0 $END
!*** NumCPU : 2  MemPerNode : 512MB
 $PCM SOLVNT=WATER IEF=-10 ICOMP=2 ICAV=1 IDISP=1 IFMO=-1 $END
 $PCMCAV RADII=SUAHF $END
 $TESCAV NTSALL=60 $END
 $FMOPRP
    NAODIR=200
    NGRFMO(1)=1, 1, 0, 0, 0,   0, 0, 0, 0, 0
    IPIEDA=1
    NPRINT=9
 $END
 $FMO
      SCFTYP(1)=RHF
      MODGRD=10
      MODMUL=0
      MAXCAO=5
      MAXBND=16
      NLAYER=1
      MPLEVL(1)=2
      NFRAG=14
      ICHARG(1)=-1, -1, -1, -1, -1, -1, -1, -1, -1, -1, -1, -1, -1, 0
      FRGNAM(1)=F1, F2, F3, F4, F5, F6, F7, F8, F9, F10, F11, F12, F13, F14
      indat(1)=0
               1   -36   0
               37   -70   0
               71   -101   0
               102   -134   0
               135   -165   0
               166   -195   0
               196   -225   0
               226   -256   0
               257   -290   0
               291   -324   0
               325   -354   0
               355   -388   0
               389   -419   0
               420   -447   0
 $END

 $FMOBND
   -37   36       6-31G*    MINI
   -71   70       6-31G*    MINI
   -102   101       6-31G*    MINI
   -135   134       6-31G*    MINI
   -166   165       6-31G*    MINI
   -196   195       6-31G*    MINI
   -226   225       6-31G*    MINI
   -257   256       6-31G*    MINI
   -291   290       6-31G*    MINI
   -325   324       6-31G*    MINI
   -355   354       6-31G*    MINI
   -389   388       6-31G*    MINI
   -420   419       6-31G*    MINI
 $END
 $FMOHYB
 6-31G*      15   5
   1 0  -0.065034   0.288264   0.000000   0.000000   0.604412
         0.290129   0.000000   0.000000   0.319045  -0.017106
        -0.017106   0.057934   0.000000   0.000000   0.000000
   0 1  -0.065040   0.288293   0.569832   0.000000  -0.201456
         0.290147   0.300783   0.000000  -0.106342   0.049598
        -0.017106  -0.008771   0.000000  -0.027223   0.000000
   0 1  -0.065039   0.288293  -0.284916  -0.493490  -0.201455
         0.290145  -0.150392  -0.260486  -0.106340  -0.000427
         0.032923  -0.008771   0.033353   0.013612   0.023576
   0 1  -0.065039   0.288293  -0.284916   0.493490  -0.201455
         0.290145  -0.150392   0.260486  -0.106340  -0.000427
         0.032923  -0.008771  -0.033353   0.013612  -0.023576
   0 1   1.010938  -0.011975   0.000000   0.000000   0.000000
        -0.054085   0.000000   0.000000  -0.000000  -0.003174
        -0.003174  -0.003174   0.000000   0.000000   0.000000
 MINI         5   5
   1 0  -0.104883   0.308874   0.000000   0.000000   0.521806
   0 1  -0.104883   0.308874   0.491961   0.000000  -0.173934
   0 1  -0.104883   0.308876  -0.245980  -0.426050  -0.173933
   0 1  -0.104883   0.308876  -0.245980   0.426050  -0.173933
   0 1   0.988209   0.063992   0.000000   0.000000   0.000000
 $END
 
 $DATA
 FMO calculation
 C1 
 H.1-1    1
      N31 6
   
 O.1-1    8
      N31 6
      d 1
      1 0.800 1.0
   
 C.1-1    6
      N31 6
      d 1
      1 0.800 1.0
   
 N.1-1    7
      N31 6
      d 1
      1 0.800 1.0
   
 P.1-1   15
      N31 6
      d 1
      1 0.550 1.0
   
 $END
 $FMOXYZ
    1    H    -10.162    -4.966    10.013
    2    O    -10.387    -4.974    9.062
    3    C    -10.754    -6.323    8.734
    4    H    -11.549    -6.652    9.440
    5    H    -9.870    -6.985    8.877
    6    C    -11.282    -6.497    7.305
    7    H    -11.809    -7.473    7.197
    8    O    -12.248    -5.449    6.984
    9    C    -12.065    -5.042    5.639
    10    H    -13.049    -5.154    5.131
    11    N    -11.642    -3.636    5.539
    12    C    -11.675    -2.849    4.413
    13    N    -12.366    -2.415    1.035
    14    H    -12.775    -3.287    0.773
    15    H    -12.351    -1.668    0.370
    16    N    -12.101    -3.224    3.191
    17    C    -12.001    -2.238    2.293
    18    N    -11.544    -0.985    2.607
    19    H    -11.519    -0.288    1.879
    20    C    -11.108    -0.571    3.861
    21    O    -10.702    0.577    4.070
    22    C    -11.198    -1.615    4.815
    23    N    -10.864    -1.625    6.164
    24    C    -11.141    -2.847    6.552
    25    H    -11.012    -3.234    7.566
    26    C    -11.063    -5.985    5.017
    27    H    -10.447    -5.480    4.250
    28    O    -11.738    -7.093    4.453
    29    H    -11.059    -7.618    4.012
    30    C    -10.209    -6.408    6.209
    31    H    -9.506    -5.597    6.507
    32    O    -9.552    -7.689    6.068
    33    P    -8.157    -7.854    5.355
    34    O    -7.740    -9.270    5.455
    35    O    -7.236    -6.850    5.929
    36    O    -8.395    -7.491    3.845
    37    C    -9.080    -8.351    2.909
    38    H    -9.981    -8.815    3.373
    39    H    -8.415    -9.183    2.587
    40    C    -9.534    -7.579    1.649
    41    H    -10.316    -8.159    1.109
    42    O    -10.137    -6.312    2.018
    43    C    -9.721    -5.293    1.133
    44    H    -10.657    -4.830    0.745
    45    N    -8.949    -4.244    1.831
    46    C    -8.675    -2.986    1.359
    47    N    -8.896    -0.615    -1.152
    48    H    -9.393    -1.101    -1.868
    49    H    -8.587    0.326    -1.318
    50    N    -9.033    -2.500    0.161
    51    C    -8.660    -1.235    -0.011
    52    N    -8.005    -0.509    0.951
    53    H    -7.765    0.448    0.742
    54    C    -7.635    -0.978    2.206
    55    O    -7.051    -0.250    3.015
    56    C    -7.997    -2.343    2.377
    57    N    -7.818    -3.189    3.462
    58    C    -8.403    -4.303    3.096
    59    H    -8.473    -5.201    3.709
    60    C    -8.971    -5.951    -0.008
    61    H    -8.145    -5.317    -0.392
    62    O    -9.866    -6.250    -1.062
    63    H    -9.369    -6.771    -1.709
    64    C    -8.435    -7.230    0.639
    65    H    -7.513    -7.020    1.226
    66    O    -8.276    -8.344    -0.258
    67    P    -7.037    -8.529    -1.190
    68    O    -7.276    -9.738    -2.007
    69    O    -5.855    -8.536    -0.307
    70    O    -6.977    -7.256    -2.112
    71    C    -7.019    -7.376    -3.558
    72    H    -8.050    -7.658    -3.875
    73    H    -6.326    -8.168    -3.927
    74    C    -6.649    -6.062    -4.287
    75    H    -7.103    -6.046    -5.300
    76    O    -7.177    -4.917    -3.564
    77    C    -6.267    -3.841    -3.652
    78    H    -6.847    -3.036    -4.162
    79    N    -5.823    -3.349    -2.324
    80    C    -5.800    -4.171    -1.222
    81    H    -6.127    -5.200    -1.389
    82    C    -5.425    -3.709    -0.019
    83    H    -5.413    -4.337    0.872
    84    C    -5.405    -2.033    -2.211
    85    O    -5.410    -1.317    -3.223
    86    N    -5.018    -1.549    -1.010
    87    C    -5.030    -2.342    0.074
    88    N    -4.687    -1.820    1.252
    89    H    -4.398    -0.862    1.312
    90    H    -4.677    -2.363    2.094
    91    C    -5.111    -4.249    -4.553
    92    H    -4.133    -3.866    -4.186
    93    O    -5.330    -3.790    -5.877
    94    H    -4.557    -4.086    -6.390
    95    C    -5.146    -5.781    -4.461
    96    H    -4.658    -6.122    -3.520
    97    O    -4.641    -6.502    -5.613
    98    P    -3.114    -6.460    -5.991
    99    O    -2.842    -7.506    -7.003
    100    O    -2.326    -6.498    -4.742
    101    O    -2.936    -5.045    -6.641
    102    C    -2.343    -4.824    -7.941
    103    H    -3.156    -4.776    -8.701
    104    H    -1.651    -5.648    -8.241
    105    C    -1.547    -3.504    -8.022
    106    H    -1.581    -3.077    -9.043
    107    O    -2.083    -2.503    -7.096
    108    C    -1.022    -1.802    -6.492
    109    H    -1.205    -0.716    -6.672
    110    N    -0.949    -2.061    -5.046
    111    C    -0.603    -1.891    -2.878
    112    N    -1.086    -3.169    -3.095
    113    C    -1.272    -3.223    -4.389
    114    H    -1.639    -4.097    -4.927
    115    N    0.216    0.060    -1.840
    116    C    0.276    0.599    -3.062
    117    H    0.652    1.630    -3.103
    118    N    -0.069    0.062    -4.237
    119    C    -0.511    -1.194    -4.073
    120    C    -0.210    -1.219    -1.705
    121    N    -0.225    -1.778    -0.479
    122    H    -0.506    -2.735    -0.330
    123    H    0.073    -1.251    0.319
    124    C    0.241    -2.225    -7.195
    125    H    1.081    -2.251    -6.482
    126    O    0.512    -1.372    -8.293
    127    H    1.380    -1.634    -8.632
    128    C    -0.066    -3.647    -7.640
    129    H    -0.029    -4.348    -6.775
    130    O    0.714    -4.120    -8.766
    131    P    2.100    -4.855    -8.560
    132    O    2.698    -5.090    -9.892
    133    O    1.891    -6.040    -7.704
    134    O    2.999    -3.846    -7.766
    135    C    3.906    -2.942    -8.439
    136    H    3.500    -2.612    -9.425
    137    H    4.875    -3.463    -8.646
    138    C    4.186    -1.661    -7.619
    139    H    4.345    -0.796    -8.300
    140    O    3.075    -1.315    -6.750
    141    C    3.546    -0.895    -5.483
    142    H    3.028    0.075    -5.298
    143    N    3.228    -1.833    -4.356
    144    C    2.794    -3.127    -4.545
    145    H    2.692    -3.452    -5.579
    146    C    2.509    -3.925    -3.502
    147    H    2.156    -4.948    -3.628
    148    C    3.364    -1.343    -3.064
    149    O    3.702    -0.163    -2.914
    150    N    3.132    -2.143    -2.001
    151    C    2.692    -3.395    -2.188
    152    N    2.426    -4.136    -1.115
    153    H    2.548    -3.727    -0.212
    154    H    2.107    -5.086    -1.187
    155    C    5.027    -0.654    -5.641
    156    H    5.592    -0.807    -4.697
    157    O    5.254    0.656    -6.135
    158    H    6.189    0.717    -6.381
    159    C    5.375    -1.720    -6.671
    160    H    5.343    -2.727    -6.190
    161    O    6.576    -1.449    -7.409
    162    P    7.753    -2.478    -7.379
    163    O    8.671    -2.182    -8.499
    164    O    7.236    -3.861    -7.291
    165    O    8.473    -2.129    -6.029
    166    C    9.033    -0.804    -5.859
    167    H    8.404    -0.005    -6.321
    168    H    10.040    -0.758    -6.334
    169    C    9.186    -0.457    -4.379
    170    H    9.533    0.591    -4.259
    171    O    7.919    -0.568    -3.684
    172    C    8.147    -1.026    -2.365
    173    H    7.758    -0.224    -1.698
    174    N    7.427    -2.304    -2.088
    175    C    6.979    -3.104    -3.119
    176    H    7.199    -2.742    -4.125
    177    C    7.200    -2.655    -0.774
    178    O    7.576    -1.973    0.173
    179    N    6.506    -3.825    -0.601
    180    H    6.369    -4.135    0.353
    181    C    6.039    -4.676    -1.580
    182    O    5.445    -5.707    -1.270
    183    C    6.296    -4.240    -2.918
    184    H    5.934    -4.848    -3.747
    185    C    9.656    -1.141    -2.182
    186    H    9.934    -1.995    -1.531
    187    O    10.190    0.054    -1.651
    188    H    11.109    -0.177    -1.451
    189    C    10.145    -1.355    -3.610
    190    H    9.963    -2.403    -3.940
    191    O    11.482    -0.906    -3.884
    192    P    12.742    -1.776    -3.622
    193    O    13.762    -1.391    -4.622
    194    O    12.363    -3.208    -3.556
    195    O    13.213    -1.284    -2.196
    196    C    14.529    -1.705    -1.753
    197    H    15.265    -1.790    -2.593
    198    H    14.447    -2.699    -1.267
    199    C    15.149    -0.736    -0.741
    200    H    16.173    -1.086    -0.485
    201    O    15.279    0.588    -1.332
    202    C    14.675    1.548    -0.502
    203    H    15.510    1.959    0.113
    204    N    14.000    2.595    -1.308
    205    C    13.127    2.234    -2.307
    206    H    13.011    1.158    -2.457
    207    C    14.248    3.919    -1.030
    208    O    15.017    4.281    -0.144
    209    N    13.584    4.815    -1.826
    210    H    13.758    5.786    -1.617
    211    C    12.713    4.535    -2.857
    212    O    12.194    5.450    -3.496
    213    C    12.497    3.135    -3.077
    214    H    11.826    2.833    -3.878
    215    C    13.716    0.824    0.418
    216    H    12.717    0.720    -0.059
    217    O    13.622    1.522    1.645
    218    H    12.945    1.102    2.207
    219    C    14.352    -0.568    0.564
    220    H    13.526    -1.318    0.551
    221    O    15.211    -0.720    1.716
    222    P    15.270    -2.079    2.506
    223    O    16.147    -1.891    3.683
    224    O    15.643    -3.176    1.583
    225    O    13.804    -2.359    2.985
    226    C    13.346    -2.059    4.320
    227    H    13.180    -0.961    4.409
    228    H    14.094    -2.350    5.094
    229    C    12.014    -2.757    4.662
    230    H    11.511    -2.192    5.477
    231    O    11.120    -2.788    3.516
    232    C    10.769    -4.117    3.224
    233    H    9.816    -4.290    3.775
    234    N    10.602    -4.325    1.771
    235    C    11.527    -3.770    0.922
    236    H    12.299    -3.158    1.396
    237    C    11.447    -3.947    -0.401
    238    H    12.162    -3.506    -1.092
    239    C    9.562    -5.103    1.267
    240    O    8.751    -5.611    2.058
    241    N    9.456    -5.281    -0.074
    242    C    10.363    -4.726    -0.901
    243    N    10.243    -4.898    -2.215
    244    H    10.935    -4.515    -2.836
    245    H    9.577    -5.555    -2.566
    246    C    11.854    -4.984    3.825
    247    H    12.761    -4.982    3.181
    248    O    11.422    -6.303    4.095
    249    H    10.764    -6.227    4.805
    250    C    12.129    -4.225    5.116
    251    H    13.183    -4.422    5.425
    252    O    11.164    -4.536    6.147
    253    P    11.580    -4.654    7.651
    254    O    13.023    -4.973    7.759
    255    O    10.659    -5.600    8.321
    256    O    11.347    -3.228    8.256
    257    C    10.032    -2.629    8.290
    258    H    9.460    -3.001    9.171
    259    H    9.446    -2.880    7.372
    260    C    10.110    -1.096    8.375
    261    H    10.392    -0.767    9.398
    262    O    11.128    -0.594    7.465
    263    C    10.743    0.669    6.976
    264    H    11.484    1.382    7.402
    265    N    10.809    0.728    5.522
    266    C    10.069    0.087    4.545
    267    N    7.591    -2.131    3.553
    268    H    7.265    -2.546    2.712
    269    H    7.278    -2.484    4.432
    270    N    9.046    -0.776    4.722
    271    C    8.568    -1.240    3.571
    272    N    9.038    -0.849    2.343
    273    H    8.644    -1.272    1.521
    274    C    10.123    -0.005    2.147
    275    O    10.557    0.288    1.033
    276    C    10.621    0.514    3.359
    277    N    11.647    1.419    3.578
    278    C    11.723    1.515    4.875
    279    H    12.440    2.136    5.421
    280    C    9.370    1.001    7.512
    281    H    8.712    1.446    6.738
    282    O    9.488    1.882    8.611
    283    H    8.641    1.861    9.079
    284    C    8.834    -0.363    7.938
    285    H    8.455    -0.914    7.052
    286    O    7.867    -0.320    9.008
    287    P    6.326    -0.261    8.664
    288    O    5.621    0.346    9.818
    289    O    5.871    -1.614    8.264
    290    O    6.160    0.696    7.438
    291    C    6.018    2.129    7.579
    292    H    6.764    2.528    8.306
    293    H    5.002    2.353    7.987
    294    C    6.226    2.918    6.253
    295    H    6.883    3.799    6.426
    296    O    6.875    2.090    5.234
    297    C    6.193    2.224    4.005
    298    H    6.968    2.359    3.215
    299    N    5.378    1.032    3.707
    300    C    4.996    0.611    2.467
    301    N    5.051    1.009    -0.947
    302    H    5.558    1.860    -1.064
    303    H    4.625    0.574    -1.746
    304    N    5.297    1.215    1.314
    305    C    4.826    0.555    0.264
    306    N    4.089    -0.601    0.360
    307    H    3.768    -1.044    -0.488
    308    C    3.755    -1.247    1.546
    309    O    3.100    -2.295    1.560
    310    C    4.258    -0.541    2.671
    311    N    4.154    -0.823    4.023
    312    C    4.837    0.135    4.598
    313    H    4.977    0.237    5.668
    314    C    5.352    3.466    4.113
    315    H    4.475    3.448    3.431
    316    O    6.139    4.610    3.848
    317    H    5.593    5.370    4.082
    318    C    4.936    3.424    5.577
    319    H    4.159    2.645    5.750
    320    O    4.573    4.706    6.130
    321    P    3.110    5.259    5.987
    322    O    3.037    6.551    6.706
    323    O    2.200    4.184    6.429
    324    O    2.914    5.488    4.442
    325    C    3.490    6.597    3.714
    326    H    4.599    6.610    3.796
    327    H    3.118    7.565    4.113
    328    C    3.103    6.568    2.226
    329    H    3.603    7.383    1.662
    330    O    3.503    5.311    1.617
    331    C    2.518    4.908    0.680
    332    H    3.055    4.844    -0.298
    333    N    1.929    3.585    1.034
    334    C    1.918    3.126    2.334
    335    H    2.391    3.782    3.062
    336    C    1.380    2.834    0.022
    337    O    1.358    3.205    -1.145
    338    N    0.871    1.628    0.412
    339    H    0.546    1.043    -0.352
    340    C    0.862    1.080    1.673
    341    O    0.401    -0.047    1.853
    342    C    1.422    1.928    2.682
    343    H    1.462    1.564    3.707
    344    C    1.469    6.006    0.603
    345    H    0.446    5.597    0.454
    346    O    1.761    6.918    -0.439
    347    H    1.015    7.533    -0.462
    348    C    1.593    6.664    1.974
    349    H    1.099    6.036    2.748
    350    O    1.177    8.043    2.056
    351    P    -0.345    8.423    2.132
    352    O    -0.470    9.897    2.193
    353    O    -0.990    7.654    3.217
    354    O    -0.933    7.920    0.773
    355    C    -1.252    8.791    -0.330
    356    H    -0.338    9.318    -0.691
    357    H    -1.986    9.569    -0.016
    358    C    -1.870    8.018    -1.513
    359    H    -1.690    8.551    -2.475
    360    O    -1.291    6.680    -1.613
    361    C    -2.311    5.748    -1.913
    362    H    -1.975    5.206    -2.828
    363    N    -2.520    4.780    -0.825
    364    C    -3.003    3.518    -0.998
    365    N    -4.195    1.071    -3.104
    366    H    -4.177    1.535    -3.989
    367    H    -4.626    0.165    -3.040
    368    N    -3.355    2.977    -2.172
    369    C    -3.809    1.742    -2.043
    370    N    -3.895    1.093    -0.840
    371    H    -4.277    0.160    -0.838
    372    C    -3.532    1.618    0.393
    373    O    -3.651    0.941    1.419
    374    C    -3.050    2.953    0.263
    375    N    -2.604    3.858    1.222
    376    C    -2.305    4.933    0.526
    377    H    -1.915    5.862    0.943
    378    C    -3.568    6.522    -2.228
    379    H    -4.490    5.973    -1.942
    380    O    -3.610    6.842    -3.603
    381    H    -4.405    7.377    -3.730
    382    C    -3.386    7.773    -1.381
    383    H    -3.572    7.550    -0.304
    384    O    -4.120    8.926    -1.854
    385    P    -5.569    9.209    -1.309
    386    O    -6.081    10.467    -1.897
    387    O    -5.551    9.138    0.171
    388    O    -6.455    8.017    -1.834
    389    C    -6.973    8.023    -3.186
    390    H    -6.181    8.286    -3.925
    391    H    -7.784    8.782    -3.284
    392    C    -7.561    6.657    -3.584
    393    H    -7.673    6.586    -4.688
    394    O    -6.692    5.571    -3.164
    395    C    -7.471    4.469    -2.745
    396    H    -7.196    3.656    -3.454
    397    N    -7.159    4.011    -1.358
    398    C    -6.608    4.871    -0.432
    399    H    -6.416    5.889    -0.780
    400    C    -6.318    4.461    0.813
    401    H    -5.870    5.119    1.557
    402    C    -7.445    2.696    -0.993
    403    O    -7.951    1.930    -1.829
    404    N    -7.164    2.269    0.259
    405    C    -6.617    3.107    1.155
    406    N    -6.355    2.643    2.376
    407    H    -6.544    1.682    2.583
    408    H    -5.900    3.196    3.080
    409    C    -8.943    4.817    -2.950
    410    H    -9.578    4.436    -2.124
    411    O    -9.421    4.304    -4.179
    412    H    -10.354    4.574    -4.234
    413    C    -8.924    6.351    -2.952
    414    H    -8.865    6.729    -1.906
    415    O    -9.974    7.018    -3.703
    416    P    -11.441    7.053    -3.126
    417    O    -12.209    8.095    -3.841
    418    O    -11.403    7.136    -1.648
    419    O    -11.997    5.652    -3.524
    420    C    -13.360    5.437    -3.965
    421    H    -13.415    5.576    -5.068
    422    H    -14.071    6.171    -3.512
    423    C    -13.888    4.018    -3.631
    424    H    -14.423    3.585    -4.502
    425    O    -12.793    3.112    -3.295
    426    C    -13.172    2.264    -2.232
    427    H    -13.114    1.244    -2.674
    428    N    -12.253    2.349    -1.069
    429    C    -11.765    3.572    -0.661
    430    H    -12.034    4.433    -1.281
    431    C    -10.958    3.671    0.406
    432    H    -10.554    4.622    0.748
    433    C    -11.972    1.203    -0.324
    434    O    -12.494    0.121    -0.642
    435    N    -11.149    1.286    0.743
    436    C    -10.649    2.475    1.120
    437    N    -9.879    2.521    2.203
    438    H    -9.897    1.725    2.811
    439    H    -9.543    3.384    2.578
    440    C    -14.620    2.549    -1.860
    441    H    -14.769    2.551    -0.756
    442    O    -15.471    1.584    -2.456
    443    H    -16.397    1.867    -2.365
    444    C    -14.836    3.957    -2.423
    445    H    -14.484    4.720    -1.695
    446    O    -16.193    4.231    -2.827
    447    H    -16.788    4.173    -2.061
 $END
