!*** FMO 5.3 (Gamess) INPUT generated by Facio 22.1.1.32 ***
 $CONTRL RUNTYP=ENERGY NPRINT=-5 ISPHER=1 MAXIT=200 $END
 $SYSTEM MWORDS=63 MEMDDI=63 $END
 $GDDI NGROUP=1 $END
 $SCF DIRSCF=.TRUE. NPUNCH=0 $END
!*** NumCPU : 2  MemPerNode : 512MB
 $PCM SOLVNT=WATER IEF=-10 ICOMP=2 ICAV=1 IDISP=1 IFMO=-1 $END
 $PCMCAV RADII=SUAHF $END
 $TESCAV NTSALL=60 $END
 $FMOPRP
    NAODIR=200
    NGRFMO(1)=1, 1, 0, 0, 0,   0, 0, 0, 0, 0
    IPIEDA=1
    NPRINT=9
 $END
 $FMO
      SCFTYP(1)=RHF
      MODGRD=10
      MODMUL=0
      MAXCAO=5
      MAXBND=16
      NLAYER=1
      MPLEVL(1)=2
      NFRAG=14
      ICHARG(1)=-1, -1, -1, -1, -1, -1, -1, -1, -1, -1, -1, -1, -1, 0
      FRGNAM(1)=F1, F2, F3, F4, F5, F6, F7, F8, F9, F10, F11, F12, F13, F14
      indat(1)=0
               1   -36   0
               37   -70   0
               71   -101   0
               102   -134   0
               135   -165   0
               166   -195   0
               196   -225   0
               226   -256   0
               257   -290   0
               291   -324   0
               325   -354   0
               355   -388   0
               389   -419   0
               420   -447   0
 $END

 $FMOBND
   -37   36       6-31G*    MINI
   -71   70       6-31G*    MINI
   -102   101       6-31G*    MINI
   -135   134       6-31G*    MINI
   -166   165       6-31G*    MINI
   -196   195       6-31G*    MINI
   -226   225       6-31G*    MINI
   -257   256       6-31G*    MINI
   -291   290       6-31G*    MINI
   -325   324       6-31G*    MINI
   -355   354       6-31G*    MINI
   -389   388       6-31G*    MINI
   -420   419       6-31G*    MINI
 $END
 $FMOHYB
 6-31G*      15   5
   1 0  -0.065034   0.288264   0.000000   0.000000   0.604412
         0.290129   0.000000   0.000000   0.319045  -0.017106
        -0.017106   0.057934   0.000000   0.000000   0.000000
   0 1  -0.065040   0.288293   0.569832   0.000000  -0.201456
         0.290147   0.300783   0.000000  -0.106342   0.049598
        -0.017106  -0.008771   0.000000  -0.027223   0.000000
   0 1  -0.065039   0.288293  -0.284916  -0.493490  -0.201455
         0.290145  -0.150392  -0.260486  -0.106340  -0.000427
         0.032923  -0.008771   0.033353   0.013612   0.023576
   0 1  -0.065039   0.288293  -0.284916   0.493490  -0.201455
         0.290145  -0.150392   0.260486  -0.106340  -0.000427
         0.032923  -0.008771  -0.033353   0.013612  -0.023576
   0 1   1.010938  -0.011975   0.000000   0.000000   0.000000
        -0.054085   0.000000   0.000000  -0.000000  -0.003174
        -0.003174  -0.003174   0.000000   0.000000   0.000000
 MINI         5   5
   1 0  -0.104883   0.308874   0.000000   0.000000   0.521806
   0 1  -0.104883   0.308874   0.491961   0.000000  -0.173934
   0 1  -0.104883   0.308876  -0.245980  -0.426050  -0.173933
   0 1  -0.104883   0.308876  -0.245980   0.426050  -0.173933
   0 1   0.988209   0.063992   0.000000   0.000000   0.000000
 $END
 
 $DATA
 FMO calculation
 C1 
 H.1-1    1
      N31 6
   
 O.1-1    8
      N31 6
      d 1
      1 0.800 1.0
   
 C.1-1    6
      N31 6
      d 1
      1 0.800 1.0
   
 N.1-1    7
      N31 6
      d 1
      1 0.800 1.0
   
 P.1-1   15
      N31 6
      d 1
      1 0.550 1.0
   
 $END
 $FMOXYZ
    1    H    -13.962    -4.129    9.308
    2    O    -13.732    -4.098    8.360
    3    C    -14.288    -5.279    7.770
    4    H    -15.340    -5.401    8.114
    5    H    -13.720    -6.165    8.112
    6    C    -14.294    -5.240    6.244
    7    H    -14.906    -6.083    5.854
    8    O    -14.908    -3.988    5.784
    9    C    -14.264    -3.571    4.596
    10    H    -15.049    -3.399    3.823
    11    N    -13.477    -2.331    4.777
    12    C    -12.971    -1.531    3.779
    13    N    -12.625    -0.805    0.420
    14    H    -13.156    -1.539    0.006
    15    H    -12.423    -0.001    -0.143
    16    N    -13.117    -1.732    2.459
    17    C    -12.545    -0.775    1.733
    18    N    -11.851    0.278    2.276
    19    H    -11.479    0.975    1.659
    20    C    -11.662    0.492    3.637
    21    O    -11.020    1.465    4.045
    22    C    -12.302    -0.508    4.423
    23    N    -12.380    -0.659    5.806
    24    C    -13.083    -1.759    5.965
    25    H    -13.355    -2.206    6.925
    26    C    -13.380    -4.715    4.182
    27    H    -12.524    -4.299    3.629
    28    O    -14.113    -5.656    3.407
    29    H    -13.477    -6.328    3.134
    30    C    -12.934    -5.287    5.529
    31    H    -12.269    -4.563    6.054
    32    O    -12.392    -6.638    5.499
    33    P    -10.840    -6.928    5.689
    34    O    -10.645    -8.333    6.112
    35    O    -10.233    -5.898    6.559
    36    O    -10.231    -6.792    4.246
    37    C    -10.799    -7.569    3.159
    38    H    -11.803    -7.991    3.398
    39    H    -10.138    -8.437    2.949
    40    C    -10.960    -6.755    1.868
    41    H    -11.744    -7.191    1.212
    42    O    -11.373    -5.424    2.154
    43    C    -10.711    -4.485    1.357
    44    H    -11.509    -3.917    0.827
    45    N    -9.939    -3.533    2.181
    46    C    -9.413    -2.344    1.755
    47    N    -9.087    -0.023    -0.742
    48    H    -9.424    -0.561    -1.508
    49    H    -8.504    0.768    -0.959
    50    N    -9.490    -1.862    0.512
    51    C    -8.993    -0.642    0.409
    52    N    -8.412    0.040    1.453
    53    H    -8.019    0.946    1.270
    54    C    -8.296    -0.450    2.756
    55    O    -7.772    0.196    3.668
    56    C    -8.854    -1.755    2.873
    57    N    -9.006    -2.571    3.986
    58    C    -9.665    -3.611    3.531
    59    H    -9.986    -4.463    4.132
    60    C    -9.889    -5.260    0.360
    61    H    -8.919    -4.767    0.153
    62    O    -10.592    -5.424    -0.855
    63    H    -9.985    -5.925    -1.423
    64    C    -9.690    -6.608    1.062
    65    H    -8.841    -6.560    1.778
    66    O    -9.624    -7.759    0.223
    67    P    -8.476    -8.145    -0.738
    68    O    -9.015    -9.198    -1.628
    69    O    -7.288    -8.484    0.077
    70    O    -8.205    -6.838    -1.562
    71    C    -7.982    -6.909    -2.988
    72    H    -8.959    -6.880    -3.521
    73    H    -7.457    -7.846    -3.292
    74    C    -7.138    -5.739    -3.501
    75    H    -7.281    -5.606    -4.595
    76    O    -7.525    -4.501    -2.860
    77    C    -6.383    -3.690    -2.730
    78    H    -6.639    -2.774    -3.312
    79    N    -6.104    -3.328    -1.316
    80    C    -6.467    -4.133    -0.265
    81    H    -6.985    -5.056    -0.537
    82    C    -6.230    -3.765    1.006
    83    H    -6.552    -4.362    1.856
    84    C    -5.423    -2.153    -1.075
    85    O    -5.070    -1.485    -2.050
    86    N    -5.163    -1.758    0.191
    87    C    -5.559    -2.522    1.224
    88    N    -5.326    -2.086    2.462
    89    H    -4.872    -1.205    2.599
    90    H    -5.587    -2.617    3.267
    91    C    -5.218    -4.392    -3.415
    92    H    -4.242    -4.181    -2.931
    93    O    -5.171    -4.011    -4.779
    94    H    -4.307    -4.291    -5.131
    95    C    -5.630    -5.855    -3.245
    96    H    -5.502    -6.178    -2.185
    97    O    -5.070    -6.806    -4.172
    98    P    -3.594    -7.322    -4.044
    99    O    -3.439    -8.560    -4.834
    100    O    -3.194    -7.382    -2.623
    101    O    -2.760    -6.214    -4.716
    102    C    -2.682    -5.974    -6.125
    103    H    -3.691    -5.892    -6.592
    104    H    -2.121    -6.797    -6.625
    105    C    -1.928    -4.677    -6.338
    106    H    -2.017    -4.287    -7.373
    107    O    -2.425    -3.657    -5.392
    108    C    -1.338    -2.935    -4.877
    109    H    -1.524    -1.859    -5.105
    110    N    -1.150    -3.091    -3.416
    111    C    -0.630    -2.766    -1.299
    112    N    -1.084    -4.069    -1.389
    113    C    -1.373    -4.214    -2.655
    114    H    -1.761    -5.133    -3.081
    115    N    0.194    -0.729    -0.429
    116    C    0.150    -0.273    -1.686
    117    H    0.498    0.755    -1.816
    118    N    -0.259    -0.895    -2.804
    119    C    -0.653    -2.149    -2.536
    120    C    -0.173    -2.013    -0.203
    121    N    -0.100    -2.545    1.029
    122    H    -0.399    -3.487    1.217
    123    H    0.183    -1.984    1.813
    124    C    -0.147    -3.412    -5.645
    125    H    0.731    -3.439    -4.980
    126    O    0.008    -2.624    -6.814
    127    H    0.903    -2.819    -7.123
    128    C    -0.445    -4.847    -6.005
    129    H    -0.355    -5.509    -5.113
    130    O    0.288    -5.364    -7.143
    131    P    1.767    -5.926    -7.101
    132    O    2.191    -6.233    -8.486
    133    O    1.843    -7.037    -6.129
    134    O    2.693    -4.762    -6.571
    135    C    3.187    -3.698    -7.428
    136    H    2.555    -3.581    -8.340
    137    H    4.210    -3.956    -7.784
    138    C    3.260    -2.301    -6.746
    139    H    2.906    -1.522    -7.457
    140    O    2.381    -2.239    -5.640
    141    C    2.887    -1.569    -4.541
    142    H    2.131    -0.775    -4.334
    143    N    2.981    -2.437    -3.332
    144    C    2.782    -3.805    -3.404
    145    H    2.618    -4.222    -4.395
    146    C    2.801    -4.576    -2.311
    147    H    2.646    -5.653    -2.347
    148    C    3.176    -1.840    -2.094
    149    O    3.302    -0.607    -2.024
    150    N    3.221    -2.612    -0.988
    151    C    3.023    -3.937    -1.065
    152    N    3.045    -4.653    0.051
    153    H    3.281    -4.186    0.910
    154    H    2.965    -5.650    0.054
    155    C    4.170    -0.944    -4.993
    156    H    4.938    -0.930    -4.195
    157    O    3.907    0.376    -5.431
    158    H    4.675    0.638    -5.954
    159    C    4.579    -1.845    -6.168
    160    H    5.115    -2.752    -5.810
    161    O    5.254    -1.156    -7.213
    162    P    6.775    -1.128    -7.431
    163    O    7.030    -0.124    -8.486
    164    O    7.255    -2.506    -7.665
    165    O    7.323    -0.619    -6.055
    166    C    7.486    0.792    -5.789
    167    H    6.558    1.363    -6.026
    168    H    8.306    1.202    -6.425
    169    C    7.861    1.052    -4.318
    170    H    7.834    2.140    -4.086
    171    O    6.946    0.386    -3.410
    172    C    7.660    -0.161    -2.316
    173    H    7.234    0.340    -1.420
    174    N    7.451    -1.633    -2.192
    175    C    7.026    -2.376    -3.266
    176    H    6.878    -1.815    -4.186
    177    C    7.650    -2.227    -0.968
    178    O    8.012    -1.601    0.018
    179    N    7.388    -3.572    -0.919
    180    H    7.568    -4.039    -0.047
    181    C    6.949    -4.372    -1.950
    182    O    6.733    -5.567    -1.756
    183    C    6.764    -3.688    -3.193
    184    H    6.402    -4.250    -4.051
    185    C    9.126    0.239    -2.463
    186    H    9.808    -0.584    -2.165
    187    O    9.420    1.393    -1.700
    188    H    10.344    1.593    -1.901
    189    C    9.246    0.528    -3.958
    190    H    9.374    -0.425    -4.521
    191    O    10.215    1.531    -4.324
    192    P    11.698    1.173    -4.637
    193    O    12.182    2.116    -5.676
    194    O    11.807    -0.274    -4.931
    195    O    12.393    1.463    -3.249
    196    C    13.843    1.407    -3.209
    197    H    14.305    1.826    -4.137
    198    H    14.181    0.348    -3.113
    199    C    14.423    2.217    -2.042
    200    H    15.533    2.231    -2.122
    201    O    13.962    3.598    -2.125
    202    C    13.424    4.005    -0.893
    203    H    14.265    4.512    -0.363
    204    N    12.253    4.908    -1.097
    205    C    11.235    4.535    -1.947
    206    H    11.388    3.586    -2.465
    207    C    12.187    6.091    -0.394
    208    O    13.056    6.442    0.397
    209    N    11.078    6.858    -0.651
    210    H    11.036    7.738    -0.154
    211    C    10.030    6.563    -1.497
    212    O    9.086    7.346    -1.616
    213    C    10.162    5.309    -2.179
    214    H    9.378    5.013    -2.872
    215    C    13.043    2.757    -0.134
    216    H    12.014    2.439    -0.409
    217    O    13.146    3.012    1.251
    218    H    12.849    2.232    1.756
    219    C    14.039    1.697    -0.639
    220    H    13.463    0.751    -0.782
    221    O    15.204    1.499    0.202
    222    P    15.820    0.058    0.403
    223    O    16.983    0.143    1.321
    224    O    16.092    -0.516    -0.932
    225    O    14.689    -0.802    1.073
    226    C    14.695    -1.150    2.480
    227    H    14.489    -0.234    3.082
    228    H    15.691    -1.534    2.799
    229    C    13.633    -2.222    2.862
    230    H    13.275    -2.038    3.894
    231    O    12.488    -2.192    1.957
    232    C    12.387    -3.440    1.310
    233    H    11.686    -4.035    1.939
    234    N    11.893    -3.320    -0.068
    235    C    12.392    -2.315    -0.854
    236    H    13.091    -1.632    -0.366
    237    C    11.987    -2.165    -2.119
    238    H    12.348    -1.359    -2.755
    239    C    10.984    -4.241    -0.584
    240    O    10.558    -5.153    0.146
    241    N    10.582    -4.121    -1.873
    242    C    11.055    -3.115    -2.633
    243    N    10.632    -2.994    -3.888
    244    H    10.989    -2.268    -4.481
    245    H    10.046    -3.705    -4.274
    246    C    13.762    -4.044    1.381
    247    H    14.464    -3.540    0.680
    248    O    13.758    -5.443    1.187
    249    H    13.304    -5.816    1.960
    250    C    14.102    -3.693    2.810
    251    H    15.204    -3.724    2.967
    252    O    13.375    -4.525    3.740
    253    P    14.014    -5.314    4.923
    254    O    15.485    -5.371    4.762
    255    O    13.312    -6.609    5.049
    256    O    13.680    -4.449    6.196
    257    C    12.319    -4.118    6.578
    258    H    11.958    -4.854    7.328
    259    H    11.623    -4.153    5.708
    260    C    12.201    -2.705    7.191
    261    H    12.671    -2.676    8.194
    262    O    12.945    -1.770    6.360
    263    C    12.329    -0.502    6.411
    264    H    13.089    0.148    6.902
    265    N    12.035    0.045    5.088
    266    C    11.162    -0.376    4.103
    267    N    8.772    -2.565    2.883
    268    H    8.260    -2.691    2.042
    269    H    8.690    -3.220    3.631
    270    N    10.331    -1.440    4.145
    271    C    9.642    -1.584    3.024
    272    N    9.734    -0.726    1.963
    273    H    9.177    -0.915    1.147
    274    C    10.576    0.367    1.891
    275    O    10.601    1.124    0.919
    276    C    11.318    0.538    3.081
    277    N    12.240    1.515    3.419
    278    C    12.636    1.183    4.618
    279    H    13.379    1.728    5.206
    280    C    11.106    -0.580    7.283
    281    H    10.248    -0.004    6.867
    282    O    11.425    -0.115    8.581
    283    H    10.704    -0.390    9.164
    284    C    10.785    -2.071    7.287
    285    H    10.261    -2.372    6.360
    286    O    10.059    -2.500    8.458
    287    P    8.487    -2.281    8.573
    288    O    8.160    -2.030    9.989
    289    O    7.825    -3.447    7.948
    290    O    8.114    -0.996    7.747
    291    C    7.468    0.189    8.294
    292    H    8.100    0.626    9.104
    293    H    6.496    -0.085    8.760
    294    C    7.196    1.328    7.246
    295    H    7.722    2.252    7.569
    296    O    7.783    0.963    5.949
    297    C    6.843    1.174    4.918
    298    H    7.397    1.611    4.054
    299    N    6.192    -0.085    4.515
    300    C    5.593    -0.343    3.312
    301    N    4.707    0.618    0.093
    302    H    5.057    1.550    0.011
    303    H    4.230    0.203    -0.686
    304    N    5.500    0.505    2.271
    305    C    4.882    -0.044    1.224
    306    N    4.371    -1.313    1.247
    307    H    3.931    -1.665    0.410
    308    C    4.430    -2.199    2.313
    309    O    3.946    -3.333    2.269
    310    C    5.107    -1.632    3.413
    311    N    5.390    -2.179    4.651
    312    C    6.046    -1.232    5.270
    313    H    6.441    -1.311    6.280
    314    C    5.848    2.170    5.446
    315    H    4.876    2.124    4.907
    316    O    6.376    3.482    5.364
    317    H    5.711    4.061    5.760
    318    C    5.713    1.732    6.904
    319    H    5.087    0.817    6.983
    320    O    5.239    2.770    7.790
    321    P    3.774    3.371    7.799
    322    O    3.773    4.529    8.720
    323    O    2.834    2.276    8.122
    324    O    3.443    3.869    6.337
    325    C    3.602    5.225    5.846
    326    H    4.678    5.508    5.903
    327    H    3.044    5.941    6.484
    328    C    3.197    5.445    4.348
    329    H    3.765    6.311    3.938
    330    O    3.593    4.266    3.581
    331    C    2.611    3.947    2.614
    332    H    3.173    3.912    1.652
    333    N    1.980    2.619    2.828
    334    C    2.105    1.953    4.024
    335    H    2.601    2.504    4.817
    336    C    1.376    2.022    1.742
    337    O    1.306    2.560    0.644
    338    N    0.875    0.767    1.983
    339    H    0.522    0.291    1.160
    340    C    0.966    0.044    3.157
    341    O    0.479    -1.079    3.238
    342    C    1.628    0.720    4.223
    343    H    1.718    0.214    5.181
    344    C    1.615    5.077    2.568
    345    H    0.578    4.732    2.372
    346    O    2.018    5.974    1.551
    347    H    1.384    5.873    0.821
    348    C    1.708    5.690    3.965
    349    H    1.100    5.100    4.688
    350    O    1.376    7.097    4.033
    351    P    0.007    7.757    3.584
    352    O    0.209    9.221    3.566
    353    O    -1.040    7.259    4.501
    354    O    -0.399    7.285    2.137
    355    C    -0.603    8.111    0.961
    356    H    0.293    8.757    0.811
    357    H    -1.475    8.782    1.103
    358    C    -0.812    7.319    -0.384
    359    H    -0.153    7.754    -1.167
    360    O    -0.362    5.943    -0.185
    361    C    -1.345    5.031    -0.613
    362    H    -0.789    4.282    -1.225
    363    N    -1.989    4.290    0.477
    364    C    -2.636    3.110    0.276
    365    N    -3.628    0.671    -1.902
    366    H    -3.461    1.109    -2.780
    367    H    -4.141    -0.194    -1.879
    368    N    -2.785    2.510    -0.906
    369    C    -3.417    1.363    -0.812
    370    N    -3.846    0.823    0.374
    371    H    -4.326    -0.062    0.347
    372    C    -3.695    1.415    1.624
    373    O    -4.098    0.849    2.646
    374    C    -3.048    2.682    1.521
    375    N    -2.696    3.610    2.496
    376    C    -2.070    4.553    1.825
    377    H    -1.644    5.451    2.264
    378    C    -2.323    5.746    -1.490
    379    H    -3.351    5.344    -1.412
    380    O    -1.868    5.633    -2.822
    381    H    -1.289    6.388    -2.992
    382    C    -2.260    7.191    -1.005
    383    H    -2.975    7.370    -0.169
    384    O    -2.472    8.147    -2.065
    385    P    -3.694    8.268    -3.091
    386    O    -3.149    8.880    -4.325
    387    O    -4.741    9.037    -2.391
    388    O    -4.333    6.858    -3.447
    389    C    -4.732    6.443    -4.795
    390    H    -3.834    6.452    -5.452
    391    H    -5.459    7.162    -5.230
    392    C    -5.338    4.989    -4.941
    393    H    -4.903    4.513    -5.844
    394    O    -4.918    4.197    -3.807
    395    C    -5.977    3.442    -3.271
    396    H    -5.599    2.395    -3.351
    397    N    -6.237    3.674    -1.841
    398    C    -5.799    4.804    -1.219
    399    H    -5.271    5.513    -1.857
    400    C    -5.976    4.980    0.096
    401    H    -5.583    5.847    0.624
    402    C    -6.965    2.727    -1.136
    403    O    -7.413    1.753    -1.747
    404    N    -7.168    2.876    0.192
    405    C    -6.678    3.964    0.813
    406    N    -6.858    4.091    2.122
    407    H    -7.377    3.398    2.614
    408    H    -6.490    4.869    2.629
    409    C    -7.201    3.594    -4.119
    410    H    -8.116    3.812    -3.537
    411    O    -7.376    2.388    -4.823
    412    H    -6.905    2.472    -5.665
    413    C    -6.888    4.779    -5.033
    414    H    -7.333    5.709    -4.615
    415    O    -7.332    4.564    -6.393
    416    P    -8.868    4.445    -6.812
    417    O    -8.886    4.529    -8.290
    418    O    -9.651    5.459    -6.074
    419    O    -9.483    3.027    -6.448
    420    C    -10.711    2.601    -7.126
    421    H    -10.440    1.807    -7.859
    422    H    -11.187    3.418    -7.728
    423    C    -11.851    2.025    -6.229
    424    H    -12.369    1.205    -6.772
    425    O    -11.344    1.453    -4.994
    426    C    -12.258    1.697    -3.936
    427    H    -12.598    0.684    -3.615
    428    N    -11.616    2.391    -2.796
    429    C    -10.697    3.381    -3.038
    430    H    -10.423    3.533    -4.088
    431    C    -10.130    4.055    -2.028
    432    H    -9.385    4.832    -2.192
    433    C    -12.017    2.118    -1.492
    434    O    -12.910    1.279    -1.306
    435    N    -11.447    2.774    -0.454
    436    C    -10.525    3.725    -0.698
    437    N    -9.990    4.384    0.325
    438    H    -10.305    4.181    1.255
    439    H    -9.332    5.122    0.192
    440    C    -13.463    2.462    -4.473
    441    H    -13.753    3.298    -3.798
    442    O    -14.568    1.587    -4.636
    443    H    -15.299    2.063    -5.065
    444    C    -12.939    3.023    -5.798
    445    H    -12.424    3.991    -5.623
    446    O    -13.945    3.162    -6.820
    447    H    -14.636    3.783    -6.529
 $END
