!*** FMO 5.3 (Gamess) INPUT generated by Facio 22.1.1.32 ***
 $CONTRL RUNTYP=ENERGY NPRINT=-5 ISPHER=1 MAXIT=200 $END
 $SYSTEM MWORDS=63 MEMDDI=63 $END
 $GDDI NGROUP=1 $END
 $SCF DIRSCF=.TRUE. NPUNCH=0 $END
!*** NumCPU : 2  MemPerNode : 512MB
 $PCM SOLVNT=WATER IEF=-10 ICOMP=2 ICAV=1 IDISP=1 IFMO=-1 $END
 $PCMCAV RADII=SUAHF $END
 $TESCAV NTSALL=60 $END
 $FMOPRP
    NAODIR=200
    NGRFMO(1)=1, 1, 0, 0, 0,   0, 0, 0, 0, 0
    IPIEDA=1
    NPRINT=9
 $END
 $FMO
      SCFTYP(1)=RHF
      MODGRD=10
      MODMUL=0
      MAXCAO=5
      MAXBND=16
      NLAYER=1
      MPLEVL(1)=2
      NFRAG=14
      ICHARG(1)=-1, -1, -1, -1, -1, -1, -1, -1, -1, -1, -1, -1, -1, 0
      FRGNAM(1)=F1, F2, F3, F4, F5, F6, F7, F8, F9, F10, F11, F12, F13, F14
      indat(1)=0
               1   -36   0
               37   -70   0
               71   -101   0
               102   -134   0
               135   -165   0
               166   -195   0
               196   -225   0
               226   -256   0
               257   -290   0
               291   -324   0
               325   -354   0
               355   -388   0
               389   -419   0
               420   -447   0
 $END

 $FMOBND
   -37   36       6-31G*    MINI
   -71   70       6-31G*    MINI
   -102   101       6-31G*    MINI
   -135   134       6-31G*    MINI
   -166   165       6-31G*    MINI
   -196   195       6-31G*    MINI
   -226   225       6-31G*    MINI
   -257   256       6-31G*    MINI
   -291   290       6-31G*    MINI
   -325   324       6-31G*    MINI
   -355   354       6-31G*    MINI
   -389   388       6-31G*    MINI
   -420   419       6-31G*    MINI
 $END
 $FMOHYB
 6-31G*      15   5
   1 0  -0.065034   0.288264   0.000000   0.000000   0.604412
         0.290129   0.000000   0.000000   0.319045  -0.017106
        -0.017106   0.057934   0.000000   0.000000   0.000000
   0 1  -0.065040   0.288293   0.569832   0.000000  -0.201456
         0.290147   0.300783   0.000000  -0.106342   0.049598
        -0.017106  -0.008771   0.000000  -0.027223   0.000000
   0 1  -0.065039   0.288293  -0.284916  -0.493490  -0.201455
         0.290145  -0.150392  -0.260486  -0.106340  -0.000427
         0.032923  -0.008771   0.033353   0.013612   0.023576
   0 1  -0.065039   0.288293  -0.284916   0.493490  -0.201455
         0.290145  -0.150392   0.260486  -0.106340  -0.000427
         0.032923  -0.008771  -0.033353   0.013612  -0.023576
   0 1   1.010938  -0.011975   0.000000   0.000000   0.000000
        -0.054085   0.000000   0.000000  -0.000000  -0.003174
        -0.003174  -0.003174   0.000000   0.000000   0.000000
 MINI         5   5
   1 0  -0.104883   0.308874   0.000000   0.000000   0.521806
   0 1  -0.104883   0.308874   0.491961   0.000000  -0.173934
   0 1  -0.104883   0.308876  -0.245980  -0.426050  -0.173933
   0 1  -0.104883   0.308876  -0.245980   0.426050  -0.173933
   0 1   0.988209   0.063992   0.000000   0.000000   0.000000
 $END
 
 $DATA
 FMO calculation
 C1 
 H.1-1    1
      N31 6
   
 O.1-1    8
      N31 6
      d 1
      1 0.800 1.0
   
 C.1-1    6
      N31 6
      d 1
      1 0.800 1.0
   
 N.1-1    7
      N31 6
      d 1
      1 0.800 1.0
   
 P.1-1   15
      N31 6
      d 1
      1 0.550 1.0
   
 $END
 $FMOXYZ
    1    H    -4.024    1.009    2.707
    2    O    -4.124    0.284    3.342
    3    C    -4.393    -0.951    2.625
    4    H    -3.625    -1.051    1.827
    5    H    -5.383    -0.841    2.137
    6    C    -4.409    -2.271    3.490
    7    H    -3.449    -2.813    3.355
    8    O    -4.447    -1.806    4.901
    9    C    -5.563    -2.353    5.564
    10    H    -5.254    -2.526    6.620
    11    N    -6.785    -1.515    5.592
    12    C    -8.043    -1.967    5.940
    13    N    -10.100    -4.692    6.317
    14    H    -11.050    -4.932    6.499
    15    H    -9.411    -5.415    6.283
    16    N    -8.371    -3.221    6.297
    17    C    -9.660    -3.447    6.295
    18    N    -10.575    -2.430    6.303
    19    H    -11.538    -2.659    6.468
    20    C    -10.258    -1.074    6.160
    21    O    -11.130    -0.202    6.226
    22    C    -8.869    -0.875    5.885
    23    N    -8.151    0.268    5.529
    24    C    -6.912    -0.163    5.374
    25    H    -6.059    0.449    5.071
    26    C    -5.792    -3.639    4.897
    27    H    -6.802    -4.041    4.990
    28    O    -4.861    -4.587    5.392
    29    H    -5.388    -5.319    5.752
    30    C    -5.630    -3.318    3.433
    31    H    -6.499    -2.739    3.052
    32    O    -5.476    -4.545    2.646
    33    P    -6.324    -5.931    2.907
    34    O    -5.468    -7.047    2.491
    35    O    -6.872    -6.098    4.294
    36    O    -7.557    -5.910    1.909
    37    C    -8.008    -7.070    1.141
    38    H    -7.708    -8.012    1.661
    39    H    -7.490    -7.069    0.157
    40    C    -9.551    -7.259    0.823
    41    H    -9.740    -8.345    0.684
    42    O    -10.374    -6.845    1.967
    43    C    -11.218    -5.774    1.557
    44    H    -12.116    -5.756    2.210
    45    N    -10.489    -4.505    1.657
    46    C    -10.630    -3.352    0.931
    47    N    -12.264    -1.469    -1.471
    48    H    -13.094    -2.016    -1.582
    49    H    -12.308    -0.502    -1.708
    50    N    -11.550    -3.093    -0.018
    51    C    -11.387    -1.912    -0.591
    52    N    -10.340    -1.082    -0.293
    53    H    -10.268    -0.206    -0.776
    54    C    -9.409    -1.323    0.714
    55    O    -8.526    -0.539    1.020
    56    C    -9.623    -2.535    1.371
    57    N    -8.942    -3.088    2.432
    58    C    -9.519    -4.243    2.596
    59    H    -9.232    -4.984    3.346
    60    C    -11.577    -6.128    0.138
    61    H    -12.012    -5.316    -0.462
    62    O    -12.533    -7.177    0.159
    63    H    -12.158    -7.906    0.675
    64    C    -10.196    -6.531    -0.428
    65    H    -9.592    -5.629    -0.664
    66    O    -10.340    -7.379    -1.558
    67    P    -9.884    -7.805    -2.992
    68    O    -11.057    -8.491    -3.575
    69    O    -8.668    -8.629    -2.839
    70    O    -9.498    -6.618    -3.999
    71    C    -8.896    -7.017    -5.312
    72    H    -9.687    -7.359    -6.020
    73    H    -8.170    -7.858    -5.189
    74    C    -8.055    -5.862    -5.963
    75    H    -7.366    -5.613    -5.127
    76    O    -8.895    -4.722    -6.279
    77    C    -7.989    -3.658    -6.420
    78    H    -8.475    -2.850    -7.011
    79    N    -7.579    -3.162    -5.051
    80    C    -8.109    -3.750    -3.904
    81    H    -8.889    -4.490    -4.045
    82    C    -7.674    -3.471    -2.683
    83    H    -8.013    -4.018    -1.805
    84    C    -6.738    -2.074    -4.891
    85    O    -6.387    -1.433    -5.892
    86    N    -6.305    -1.750    -3.649
    87    C    -6.725    -2.438    -2.569
    88    N    -6.253    -2.151    -1.361
    89    H    -5.520    -1.465    -1.277
    90    H    -6.454    -2.731    -0.575
    91    C    -6.806    -4.261    -7.232
    92    H    -5.831    -3.956    -6.798
    93    O    -6.887    -3.876    -8.591
    94    H    -6.172    -4.309    -9.089
    95    C    -7.015    -5.786    -7.126
    96    H    -7.526    -6.178    -8.035
    97    O    -5.830    -6.513    -6.844
    98    P    -4.345    -6.858    -7.244
    99    O    -4.372    -7.977    -8.211
    100    O    -3.687    -7.129    -5.949
    101    O    -3.494    -5.674    -7.922
    102    C    -2.106    -6.058    -8.334
    103    H    -2.156    -6.739    -9.216
    104    H    -1.601    -6.632    -7.521
    105    C    -1.080    -4.911    -8.713
    106    H    -1.043    -4.797    -9.817
    107    O    -1.622    -3.664    -8.189
    108    C    -0.684    -3.013    -7.378
    109    H    -0.760    -1.929    -7.626
    110    N    -0.962    -3.218    -5.959
    111    C    -1.101    -2.899    -3.794
    112    N    -1.554    -4.186    -4.019
    113    C    -1.466    -4.327    -5.318
    114    H    -1.761    -5.224    -5.866
    115    N    -0.531    -0.872    -2.772
    116    C    -0.190    -0.426    -3.980
    117    H    0.175    0.605    -4.022
    118    N    -0.273    -1.044    -5.156
    119    C    -0.737    -2.291    -4.987
    120    C    -0.977    -2.134    -2.623
    121    N    -1.259    -2.578    -1.383
    122    H    -1.594    -3.511    -1.210
    123    H    -1.118    -1.973    -0.596
    124    C    0.678    -3.509    -7.750
    125    H    1.379    -3.478    -6.892
    126    O    1.204    -2.741    -8.816
    127    H    2.132    -3.002    -8.897
    128    C    0.416    -4.960    -8.153
    129    H    0.395    -5.603    -7.245
    130    O    1.380    -5.469    -9.116
    131    P    2.917    -5.807    -8.821
    132    O    3.644    -5.846    -10.109
    133    O    2.956    -7.040    -8.007
    134    O    3.525    -4.645    -7.962
    135    C    4.638    -3.787    -8.344
    136    H    4.598    -3.545    -9.434
    137    H    5.604    -4.310    -8.158
    138    C    4.686    -2.423    -7.583
    139    H    4.771    -1.589    -8.311
    140    O    3.426    -2.225    -6.887
    141    C    3.626    -1.788    -5.574
    142    H    2.966    -0.891    -5.497
    143    N    3.206    -2.775    -4.535
    144    C    2.925    -4.098    -4.797
    145    H    3.076    -4.428    -5.821
    146    C    2.502    -4.928    -3.829
    147    H    2.267    -5.975    -4.014
    148    C    2.967    -2.279    -3.268
    149    O    3.070    -1.063    -3.088
    150    N    2.633    -3.109    -2.262
    151    C    2.379    -4.398    -2.511
    152    N    2.007    -5.169    -1.495
    153    H    1.923    -4.751    -0.592
    154    H    1.717    -6.122    -1.623
    155    C    5.072    -1.352    -5.442
    156    H    5.488    -1.550    -4.431
    157    O    5.175    0.031    -5.720
    158    H    6.115    0.230    -5.834
    159    C    5.780    -2.201    -6.501
    160    H    6.026    -3.202    -6.080
    161    O    6.926    -1.542    -7.076
    162    P    8.428    -1.907    -6.848
    163    O    9.240    -1.111    -7.797
    164    O    8.568    -3.377    -6.918
    165    O    8.732    -1.469    -5.376
    166    C    9.386    -0.242    -4.989
    167    H    8.878    0.630    -5.462
    168    H    10.450    -0.236    -5.322
    169    C    9.337    -0.013    -3.459
    170    H    9.518    1.059    -3.225
    171    O    8.003    -0.339    -2.959
    172    C    8.101    -0.984    -1.703
    173    H    7.490    -0.356    -1.013
    174    N    7.542    -2.373    -1.718
    175    C    7.299    -3.033    -2.901
    176    H    7.539    -2.475    -3.801
    177    C    7.166    -2.938    -0.519
    178    O    7.285    -2.357    0.554
    179    N    6.614    -4.192    -0.605
    180    H    6.399    -4.647    0.266
    181    C    6.394    -4.929    -1.748
    182    O    5.914    -6.058    -1.674
    183    C    6.757    -4.259    -2.960
    184    H    6.599    -4.774    -3.906
    185    C    9.559    -0.907    -1.270
    186    H    9.871    -1.776    -0.655
    187    O    9.761    0.297    -0.565
    188    H    10.607    0.231    -0.101
    189    C    10.313    -0.845    -2.592
    190    H    10.385    -1.851    -3.062
    191    O    11.599    -0.179    -2.511
    192    P    12.870    -0.859    -1.878
    193    O    14.051    -0.287    -2.564
    194    O    12.711    -2.329    -1.937
    195    O    12.934    -0.431    -0.340
    196    C    14.134    -0.880    0.379
    197    H    15.048    -0.822    -0.264
    198    H    14.029    -1.946    0.684
    199    C    14.503    -0.072    1.643
    200    H    15.479    -0.455    2.032
    201    O    14.700    1.323    1.302
    202    C    13.888    2.134    2.115
    203    H    14.552    2.480    2.945
    204    N    13.317    3.252    1.334
    205    C    12.708    2.992    0.131
    206    H    12.748    1.950    -0.194
    207    C    13.316    4.516    1.879
    208    O    13.779    4.765    2.981
    209    N    12.757    5.481    1.077
    210    H    12.778    6.417    1.452
    211    C    12.180    5.311    -0.163
    212    O    11.732    6.281    -0.775
    213    C    12.157    3.954    -0.624
    214    H    11.720    3.739    -1.595
    215    C    12.803    1.262    2.683
    216    H    11.941    1.174    1.984
    217    O    12.406    1.797    3.927
    218    H    11.551    1.397    4.172
    219    C    13.492    -0.094    2.809
    220    H    12.743    -0.889    2.584
    221    O    14.142    -0.281    4.088
    222    P    14.030    -1.638    4.865
    223    O    14.532    -1.456    6.242
    224    O    14.724    -2.661    4.055
    225    O    12.505    -1.961    4.903
    226    C    11.662    -1.728    6.053
    227    H    11.359    -0.658    6.068
    228    H    12.183    -1.950    7.016
    229    C    10.356    -2.547    6.017
    230    H    9.593    -2.051    6.657
    231    O    9.827    -2.634    4.669
    232    C    9.732    -3.980    4.276
    233    H    8.688    -4.271    4.526
    234    N    10.006    -4.153    2.828
    235    C    11.041    -3.448    2.268
    236    H    11.576    -2.778    2.944
    237    C    11.337    -3.562    0.967
    238    H    12.146    -3.004    0.500
    239    C    9.224    -4.992    2.035
    240    O    8.261    -5.583    2.550
    241    N    9.526    -5.143    0.721
    242    C    10.543    -4.446    0.179
    243    N    10.817    -4.584    -1.120
    244    H    11.554    -4.052    -1.546
    245    H    10.321    -5.265    -1.661
    246    C    10.682    -4.748    5.170
    247    H    11.738    -4.629    4.824
    248    O    10.331    -6.115    5.281
    249    H    9.484    -6.143    5.755
    250    C    10.495    -4.001    6.493
    251    H    11.437    -4.088    7.080
    252    O    9.338    -4.438    7.243
    253    P    9.327    -4.492    8.819
    254    O    10.695    -4.719    9.339
    255    O    8.297    -5.472    9.231
    256    O    8.855    -3.069    9.294
    257    C    7.543    -2.559    8.967
    258    H    6.770    -2.934    9.681
    259    H    7.239    -2.851    7.933
    260    C    7.521    -1.028    9.040
    261    H    7.539    -0.682    10.095
    262    O    8.697    -0.461    8.394
    263    C    8.349    0.761    7.790
    264    H    8.935    1.533    8.340
    265    N    8.701    0.802    6.376
    266    C    8.249    0.076    5.285
    267    N    6.292    -2.425    3.886
    268    H    6.206    -2.905    3.020
    269    H    5.774    -2.735    4.678
    270    N    7.318    -0.901    5.272
    271    C    7.171    -1.450    4.071
    272    N    7.910    -1.079    2.977
    273    H    7.786    -1.583    2.116
    274    C    8.928    -0.135    3.003
    275    O    9.630    0.149    2.037
    276    C    8.990    0.546    4.229
    277    N    9.809    1.586    4.619
    278    C    9.606    1.704    5.898
    279    H    10.104    2.423    6.551
    280    C    6.883    1.004    7.997
    281    H    6.413    1.376    7.068
    282    O    6.672    1.929    9.046
    283    H    5.749    1.826    9.318
    284    C    6.345    -0.382    8.327
    285    H    6.201    -0.970    7.397
    286    O    5.171    -0.390    9.165
    287    P    3.761    -0.397    8.460
    288    O    2.779    0.237    9.367
    289    O    3.458    -1.776    8.027
    290    O    3.931    0.496    7.196
    291    C    3.865    1.933    7.163
    292    H    4.457    2.386    7.986
    293    H    2.814    2.250    7.316
    294    C    4.366    2.555    5.832
    295    H    5.010    3.439    6.026
    296    O    5.161    1.616    5.045
    297    C    4.718    1.613    3.711
    298    H    5.625    1.680    3.063
    299    N    3.972    0.390    3.395
    300    C    3.806    -0.133    2.153
    301    N    4.524    -0.035    -1.190
    302    H    4.869    0.897    -1.291
    303    H    4.168    -0.498    -2.006
    304    N    4.293    0.387    1.025
    305    C    4.055    -0.383    -0.018
    306    N    3.349    -1.562    0.050
    307    H    3.165    -2.065    -0.805
    308    C    2.804    -2.114    1.202
    309    O    2.185    -3.185    1.199
    310    C    3.067    -1.290    2.326
    311    N    2.737    -1.466    3.655
    312    C    3.298    -0.446    4.251
    313    H    3.256    -0.263    5.315
    314    C    3.875    2.840    3.528
    315    H    3.111    2.701    2.735
    316    O    4.672    3.966    3.213
    317    H    4.036    4.691    3.182
    318    C    3.228    2.992    4.907
    319    H    2.403    2.254    5.043
    320    O    2.828    4.335    5.269
    321    P    1.525    4.950    4.644
    322    O    1.432    6.363    5.067
    323    O    0.383    4.074    4.988
    324    O    1.782    4.882    3.104
    325    C    2.339    5.950    2.318
    326    H    3.439    6.022    2.450
    327    H    1.907    6.937    2.609
    328    C    2.029    5.740    0.834
    329    H    2.465    6.550    0.212
    330    O    2.538    4.469    0.332
    331    C    1.609    3.951    -0.616
    332    H    2.177    3.812    -1.569
    333    N    1.016    2.673    -0.145
    334    C    0.916    2.350    1.196
    335    H    1.317    3.090    1.880
    336    C    0.480    1.859    -1.097
    337    O    0.492    2.137    -2.292
    338    N    -0.076    0.715    -0.614
    339    H    -0.382    0.078    -1.342
    340    C    -0.157    0.275    0.682
    341    O    -0.647    -0.826    0.936
    342    C    0.360    1.207    1.634
    343    H    0.298    0.966    2.693
    344    C    0.530    5.006    -0.816
    345    H    -0.467    4.567    -1.035
    346    O    0.877    5.923    -1.836
    347    H    0.172    6.585    -1.854
    348    C    0.540    5.645    0.555
    349    H    0.154    4.905    1.294
    350    O    -0.067    6.948    0.648
    351    P    -1.481    7.021    1.344
    352    O    -1.657    8.365    1.942
    353    O    -1.695    5.853    2.223
    354    O    -2.426    6.884    0.119
    355    C    -2.426    7.866    -0.930
    356    H    -1.403    8.200    -1.220
    357    H    -3.009    8.756    -0.614
    358    C    -3.132    7.292    -2.138
    359    H    -3.193    8.042    -2.956
    360    O    -2.454    6.107    -2.644
    361    C    -3.456    5.214    -3.124
    362    H    -3.199    4.978    -4.180
    363    N    -3.501    3.977    -2.336
    364    C    -3.836    2.756    -2.835
    365    N    -4.802    0.783    -5.501
    366    H    -4.847    1.448    -6.246
    367    H    -5.260    -0.102    -5.625
    368    N    -4.160    2.497    -4.114
    369    C    -4.464    1.220    -4.303
    370    N    -4.401    0.281    -3.310
    371    H    -4.842    -0.606    -3.494
    372    C    -4.085    0.518    -1.978
    373    O    -4.090    -0.400    -1.151
    374    C    -3.773    1.887    -1.763
    375    N    -3.410    2.558    -0.601
    376    C    -3.256    3.802    -0.990
    377    H    -2.938    4.630    -0.353
    378    C    -4.784    5.952    -3.070
    379    H    -5.654    5.272    -2.946
    380    O    -4.949    6.749    -4.230
    381    H    -5.738    7.298    -4.101
    382    C    -4.534    6.783    -1.827
    383    H    -4.450    6.093    -0.957
    384    O    -5.419    7.887    -1.588
    385    P    -6.214    7.949    -0.221
    386    O    -6.433    9.354    0.186
    387    O    -5.687    7.043    0.825
    388    O    -7.597    7.405    -0.659
    389    C    -8.282    8.088    -1.732
    390    H    -7.608    8.626    -2.446
    391    H    -8.973    8.847    -1.295
    392    C    -9.053    7.057    -2.529
    393    H    -9.514    7.504    -3.435
    394    O    -8.180    5.969    -2.961
    395    C    -8.945    4.776    -3.015
    396    H    -8.942    4.497    -4.094
    397    N    -8.361    3.659    -2.227
    398    C    -7.619    3.922    -1.097
    399    H    -7.476    4.976    -0.843
    400    C    -7.067    2.930    -0.391
    401    H    -6.434    3.106    0.475
    402    C    -8.578    2.340    -2.631
    403    O    -9.253    2.129    -3.652
    404    N    -8.031    1.328    -1.922
    405    C    -7.254    1.606    -0.863
    406    N    -6.613    0.629    -0.267
    407    H    -6.949    -0.273    -0.530
    408    H    -6.351    0.728    0.687
    409    C    -10.369    5.132    -2.594
    410    H    -10.866    4.314    -2.031
    411    O    -11.136    5.479    -3.731
    412    H    -11.939    5.906    -3.395
    413    C    -10.130    6.353    -1.712
    414    H    -9.660    6.015    -0.760
    415    O    -11.270    7.231    -1.532
    416    P    -11.628    7.784    -0.087
    417    O    -11.534    9.261    -0.087
    418    O    -10.888    7.073    0.977
    419    O    -13.131    7.424    0.129
    420    C    -14.210    7.865    -0.710
    421    H    -13.867    8.514    -1.549
    422    H    -14.919    8.473    -0.099
    423    C    -14.959    6.660    -1.277
    424    H    -15.640    6.948    -2.107
    425    O    -13.996    5.686    -1.784
    426    C    -14.423    4.379    -1.461
    427    H    -14.590    3.903    -2.454
    428    N    -13.405    3.595    -0.707
    429    C    -12.677    4.178    0.301
    430    H    -12.849    5.235    0.478
    431    C    -11.776    3.481    1.002
    432    H    -11.170    3.924    1.784
    433    C    -13.250    2.233    -0.966
    434    O    -13.957    1.702    -1.835
    435    N    -12.344    1.512    -0.265
    436    C    -11.633    2.103    0.711
    437    N    -10.797    1.378    1.438
    438    H    -10.256    1.779    2.178
    439    H    -10.784    0.391    1.330
    440    C    -15.761    4.468    -0.737
    441    H    -15.820    3.758    0.120
    442    O    -16.818    4.223    -1.649
    443    H    -17.670    4.375    -1.202
    444    C    -15.760    5.906    -0.214
    445    H    -15.186    5.968    0.736
    446    O    -17.066    6.491    -0.055
    447    H    -17.580    5.971    0.588
 $END
