!*** FMO 5.3 (Gamess) INPUT generated by Facio 22.1.1.32 ***
 $CONTRL RUNTYP=ENERGY NPRINT=-5 ISPHER=1 MAXIT=200 $END
 $SYSTEM MWORDS=63 MEMDDI=63 $END
 $GDDI NGROUP=1 $END
 $SCF DIRSCF=.TRUE. NPUNCH=0 $END
!*** NumCPU : 2  MemPerNode : 512MB
 $PCM SOLVNT=WATER IEF=-10 ICOMP=2 ICAV=1 IDISP=1 IFMO=-1 $END
 $PCMCAV RADII=SUAHF $END
 $TESCAV NTSALL=60 $END
 $FMOPRP
    NAODIR=200
    NGRFMO(1)=1, 1, 0, 0, 0,   0, 0, 0, 0, 0
    IPIEDA=1
    NPRINT=9
 $END
 $FMO
      SCFTYP(1)=RHF
      MODGRD=10
      MODMUL=0
      MAXCAO=5
      MAXBND=16
      NLAYER=1
      MPLEVL(1)=2
      NFRAG=14
      ICHARG(1)=-1, -1, -1, -1, -1, -1, -1, -1, -1, -1, -1, -1, -1, 0
      FRGNAM(1)=F1, F2, F3, F4, F5, F6, F7, F8, F9, F10, F11, F12, F13, F14
      indat(1)=0
               1   -36   0
               37   -70   0
               71   -101   0
               102   -134   0
               135   -165   0
               166   -195   0
               196   -225   0
               226   -256   0
               257   -290   0
               291   -324   0
               325   -354   0
               355   -388   0
               389   -419   0
               420   -447   0
 $END

 $FMOBND
   -37   36       6-31G*    MINI
   -71   70       6-31G*    MINI
   -102   101       6-31G*    MINI
   -135   134       6-31G*    MINI
   -166   165       6-31G*    MINI
   -196   195       6-31G*    MINI
   -226   225       6-31G*    MINI
   -257   256       6-31G*    MINI
   -291   290       6-31G*    MINI
   -325   324       6-31G*    MINI
   -355   354       6-31G*    MINI
   -389   388       6-31G*    MINI
   -420   419       6-31G*    MINI
 $END
 $FMOHYB
 6-31G*      15   5
   1 0  -0.065034   0.288264   0.000000   0.000000   0.604412
         0.290129   0.000000   0.000000   0.319045  -0.017106
        -0.017106   0.057934   0.000000   0.000000   0.000000
   0 1  -0.065040   0.288293   0.569832   0.000000  -0.201456
         0.290147   0.300783   0.000000  -0.106342   0.049598
        -0.017106  -0.008771   0.000000  -0.027223   0.000000
   0 1  -0.065039   0.288293  -0.284916  -0.493490  -0.201455
         0.290145  -0.150392  -0.260486  -0.106340  -0.000427
         0.032923  -0.008771   0.033353   0.013612   0.023576
   0 1  -0.065039   0.288293  -0.284916   0.493490  -0.201455
         0.290145  -0.150392   0.260486  -0.106340  -0.000427
         0.032923  -0.008771  -0.033353   0.013612  -0.023576
   0 1   1.010938  -0.011975   0.000000   0.000000   0.000000
        -0.054085   0.000000   0.000000  -0.000000  -0.003174
        -0.003174  -0.003174   0.000000   0.000000   0.000000
 MINI         5   5
   1 0  -0.104883   0.308874   0.000000   0.000000   0.521806
   0 1  -0.104883   0.308874   0.491961   0.000000  -0.173934
   0 1  -0.104883   0.308876  -0.245980  -0.426050  -0.173933
   0 1  -0.104883   0.308876  -0.245980   0.426050  -0.173933
   0 1   0.988209   0.063992   0.000000   0.000000   0.000000
 $END
 
 $DATA
 FMO calculation
 C1 
 H.1-1    1
      N31 6
   
 O.1-1    8
      N31 6
      d 1
      1 0.800 1.0
   
 C.1-1    6
      N31 6
      d 1
      1 0.800 1.0
   
 N.1-1    7
      N31 6
      d 1
      1 0.800 1.0
   
 P.1-1   15
      N31 6
      d 1
      1 0.550 1.0
   
 $END
 $FMOXYZ
    1    H    -12.367    -4.901    9.484
    2    O    -12.535    -4.831    8.526
    3    C    -12.993    -6.119    8.094
    4    H    -13.942    -6.351    8.625
    5    H    -12.243    -6.879    8.391
    6    C    -13.257    -6.222    6.585
    7    H    -13.852    -7.135    6.355
    8    O    -14.025    -5.068    6.113
    9    C    -13.529    -4.672    4.840
    10    H    -14.400    -4.645    4.147
    11    N    -12.905    -3.334    4.871
    12    C    -12.645    -2.538    3.785
    13    N    -12.746    -2.014    0.367
    14    H    -13.183    -2.846    0.033
    15    H    -12.477    -1.307    -0.293
    16    N    -12.909    -2.846    2.505
    17    C    -12.554    -1.878    1.664
    18    N    -11.990    -0.696    2.072
    19    H    -11.783    -0.005    1.368
    20    C    -11.719    -0.341    3.389
    21    O    -11.215    0.754    3.662
    22    C    -12.080    -1.382    4.293
    23    N    -11.983    -1.449    5.680
    24    C    -12.476    -2.634    5.975
    25    H    -12.579    -3.040    6.984
    26    C    -12.560    -5.736    4.385
    27    H    -11.754    -5.307    3.757
    28    O    -13.244    -6.754    3.677
    29    H    -12.562    -7.365    3.374
    30    C    -12.002    -6.251    5.705
    31    H    -11.310    -5.496    6.149
    32    O    -11.449    -7.598    5.658
    33    P    -9.891    -7.751    5.468
    34    O    -9.496    -9.155    5.712
    35    O    -9.192    -6.727    6.272
    36    O    -9.651    -7.424    3.952
    37    C    -10.213    -8.246    2.906
    38    H    -11.264    -8.543    3.128
    39    H    -9.617    -9.180    2.787
    40    C    -10.243    -7.495    1.568
    41    H    -10.836    -8.058    0.818
    42    O    -10.892    -6.200    1.740
    43    C    -10.202    -5.217    0.984
    44    H    -10.969    -4.714    0.352
    45    N    -9.556    -4.198    1.844
    46    C    -9.094    -2.973    1.430
    47    N    -8.601    -0.671    -1.100
    48    H    -8.945    -1.163    -1.895
    49    H    -8.206    0.244    -1.227
    50    N    -9.135    -2.501    0.176
    51    C    -8.647    -1.267    0.076
    52    N    -8.174    -0.554    1.147
    53    H    -7.826    0.376    0.980
    54    C    -8.120    -1.014    2.458
    55    O    -7.674    -0.301    3.361
    56    C    -8.617    -2.346    2.566
    57    N    -8.749    -3.171    3.677
    58    C    -9.308    -4.262    3.201
    59    H    -9.587    -5.134    3.792
    60    C    -9.218    -5.951    0.094
    61    H    -8.309    -5.354    -0.129
    62    O    -9.856    -6.327    -1.113
    63    H    -9.230    -6.875    -1.602
    64    C    -8.878    -7.170    0.948
    65    H    -8.217    -6.873    1.795
    66    O    -8.388    -8.313    0.209
    67    P    -6.856    -8.706    0.242
    68    O    -6.680    -10.057    -0.346
    69    O    -6.301    -8.506    1.598
    70    O    -6.204    -7.645    -0.726
    71    C    -6.361    -7.870    -2.157
    72    H    -7.382    -8.244    -2.414
    73    H    -5.628    -8.634    -2.498
    74    C    -6.134    -6.605    -2.997
    75    H    -6.596    -6.715    -4.003
    76    O    -6.757    -5.461    -2.368
    77    C    -5.953    -4.318    -2.569
    78    H    -6.611    -3.631    -3.149
    79    N    -5.592    -3.630    -1.315
    80    C    -5.591    -4.321    -0.127
    81    H    -5.843    -5.382    -0.188
    82    C    -5.331    -3.705    1.031
    83    H    -5.365    -4.223    1.988
    84    C    -5.253    -2.281    -1.343
    85    O    -5.214    -1.684    -2.432
    86    N    -4.990    -1.643    -0.179
    87    C    -5.048    -2.311    0.988
    88    N    -4.867    -1.651    2.126
    89    H    -4.593    -0.685    2.114
    90    H    -4.911    -2.109    3.018
    91    C    -4.761    -4.705    -3.426
    92    H    -3.816    -4.213    -3.115
    93    O    -5.072    -4.362    -4.762
    94    H    -4.908    -3.419    -4.902
    95    C    -4.669    -6.222    -3.217
    96    H    -4.132    -6.460    -2.269
    97    O    -4.155    -7.003    -4.316
    98    P    -2.720    -6.840    -4.922
    99    O    -2.520    -7.897    -5.936
    100    O    -1.758    -6.792    -3.802
    101    O    -2.683    -5.455    -5.627
    102    C    -2.380    -5.175    -7.002
    103    H    -3.322    -5.229    -7.590
    104    H    -1.650    -5.907    -7.433
    105    C    -1.799    -3.760    -7.185
    106    H    -2.028    -3.356    -8.194
    107    O    -2.326    -2.814    -6.196
    108    C    -1.282    -1.996    -5.720
    109    H    -1.588    -0.939    -5.888
    110    N    -1.032    -2.214    -4.288
    111    C    -0.505    -1.953    -2.169
    112    N    -0.892    -3.277    -2.311
    113    C    -1.187    -3.383    -3.582
    114    H    -1.526    -4.298    -4.063
    115    N    0.217    0.095    -1.239
    116    C    0.123    0.598    -2.474
    117    H    0.394    1.655    -2.565
    118    N    -0.263    -0.003    -3.607
    119    C    -0.578    -1.287    -3.379
    120    C    -0.077    -1.214    -1.048
    121    N    0.042    -1.754    0.181
    122    H    -0.154    -2.723    0.361
    123    H    0.353    -1.193    0.953
    124    C    -0.064    -2.301    -6.552
    125    H    0.846    -2.263    -5.931
    126    O    0.029    -1.415    -7.652
    127    H    0.886    -1.590    -8.063
    128    C    -0.285    -3.736    -7.002
    129    H    -0.059    -4.450    -6.175
    130    O    0.369    -4.091    -8.246
    131    P    1.835    -4.649    -8.217
    132    O    2.306    -4.783    -9.610
    133    O    1.849    -5.877    -7.392
    134    O    2.700    -3.556    -7.489
    135    C    3.385    -2.525    -8.242
    136    H    2.794    -2.206    -9.133
    137    H    4.359    -2.920    -8.613
    138    C    3.674    -1.254    -7.417
    139    H    3.709    -0.360    -8.072
    140    O    2.645    -1.022    -6.426
    141    C    3.221    -0.578    -5.213
    142    H    2.660    0.351    -4.967
    143    N    3.083    -1.539    -4.076
    144    C    2.736    -2.860    -4.253
    145    H    2.576    -3.181    -5.280
    146    C    2.594    -3.690    -3.208
    147    H    2.293    -4.730    -3.326
    148    C    3.301    -1.056    -2.792
    149    O    3.571    0.144    -2.645
    150    N    3.214    -1.888    -1.732
    151    C    2.844    -3.165    -1.904
    152    N    2.712    -3.934    -0.827
    153    H    2.889    -3.532    0.071
    154    H    2.448    -4.901    -0.886
    155    C    4.658    -0.237    -5.520
    156    H    5.326    -0.359    -4.642
    157    O    4.738    1.092    -6.008
    158    H    5.638    1.232    -6.336
    159    C    4.961    -1.268    -6.600
    160    H    5.019    -2.280    -6.132
    161    O    6.078    -0.943    -7.451
    162    P    7.261    -1.974    -7.572
    163    O    8.090    -1.645    -8.753
    164    O    6.756    -3.362    -7.483
    165    O    8.100    -1.658    -6.279
    166    C    8.613    -0.310    -6.103
    167    H    7.910    0.478    -6.468
    168    H    9.563    -0.193    -6.673
    169    C    8.900    -0.004    -4.632
    170    H    9.236    1.049    -4.505
    171    O    7.711    -0.180    -3.823
    172    C    8.081    -0.676    -2.550
    173    H    7.743    0.094    -1.818
    174    N    7.426    -1.980    -2.252
    175    C    6.923    -2.772    -3.263
    176    H    7.037    -2.372    -4.273
    177    C    7.328    -2.373    -0.935
    178    O    7.760    -1.700    -0.006
    179    N    6.692    -3.569    -0.734
    180    H    6.638    -3.904    0.220
    181    C    6.179    -4.416    -1.689
    182    O    5.649    -5.474    -1.355
    183    C    6.310    -3.942    -3.033
    184    H    5.909    -4.550    -3.841
    185    C    9.602    -0.760    -2.523
    186    H    9.971    -1.620    -1.927
    187    O    10.140    0.442    -2.020
    188    H    11.094    0.313    -1.959
    189    C    9.941    -0.918    -3.997
    190    H    9.723    -1.955    -4.340
    191    O    11.248    -0.463    -4.392
    192    P    12.497    -1.393    -4.298
    193    O    13.415    -1.003    -5.390
    194    O    12.075    -2.814    -4.230
    195    O    13.114    -0.955    -2.914
    196    C    14.465    -1.385    -2.611
    197    H    15.115    -1.416    -3.520
    198    H    14.450    -2.408    -2.168
    199    C    15.173    -0.445    -1.633
    200    H    16.219    -0.798    -1.488
    201    O    15.248    0.906    -2.179
    202    C    14.709    1.823    -1.251
    203    H    15.587    2.220    -0.691
    204    N    13.950    2.894    -1.950
    205    C    12.991    2.561    -2.880
    206    H    12.876    1.491    -3.066
    207    C    14.227    4.210    -1.663
    208    O    15.087    4.549    -0.856
    209    N    13.478    5.126    -2.354
    210    H    13.676    6.093    -2.141
    211    C    12.526    4.875    -3.318
    212    O    11.954    5.809    -3.882
    213    C    12.304    3.482    -3.575
    214    H    11.578    3.203    -4.336
    215    C    13.834    1.050    -0.289
    216    H    12.801    0.942    -0.688
    217    O    13.829    1.698    0.966
    218    H    13.247    1.233    1.591
    219    C    14.504    -0.333    -0.249
    220    H    13.684    -1.090    -0.212
    221    O    15.470    -0.513    0.818
    222    P    15.590    -1.925    1.516
    223    O    16.604    -1.850    2.590
    224    O    15.839    -2.945    0.472
    225    O    14.182    -2.219    2.133
    226    C    13.853    -1.967    3.512
    227    H    13.690    -0.875    3.655
    228    H    14.675    -2.280    4.194
    229    C    12.566    -2.689    3.959
    230    H    12.146    -2.166    4.844
    231    O    11.563    -2.677    2.907
    232    C    11.203    -4.000    2.582
    233    H    10.313    -4.220    3.217
    234    N    10.898    -4.154    1.144
    235    C    11.738    -3.556    0.240
    236    H    12.546    -2.958    0.667
    237    C    11.533    -3.672    -1.077
    238    H    12.179    -3.191    -1.808
    239    C    9.824    -4.924    0.703
    240    O    9.082    -5.466    1.539
    241    N    9.604    -5.057    -0.631
    242    C    10.420    -4.449    -1.513
    243    N    10.185    -4.568    -2.821
    244    H    10.802    -4.126    -3.481
    245    H    9.487    -5.208    -3.140
    246    C    12.349    -4.873    3.034
    247    H    13.193    -4.830    2.311
    248    O    11.947    -6.206    3.271
    249    H    11.368    -6.176    4.050
    250    C    12.729    -4.174    4.332
    251    H    13.806    -4.382    4.543
    252    O    11.860    -4.543    5.425
    253    P    12.390    -4.809    6.874
    254    O    13.841    -5.099    6.854
    255    O    11.526    -5.844    7.487
    256    O    12.168    -3.473    7.677
    257    C    10.866    -2.850    7.756
    258    H    10.314    -3.241    8.640
    259    H    10.247    -3.055    6.850
    260    C    10.976    -1.320    7.884
    261    H    11.379    -1.039    8.880
    262    O    11.906    -0.791    6.906
    263    C    11.526    0.521    6.561
    264    H    12.336    1.164    6.966
    265    N    11.458    0.699    5.116
    266    C    10.621    0.125    4.182
    267    N    8.033    -2.014    3.307
    268    H    7.622    -2.365    2.475
    269    H    7.782    -2.406    4.189
    270    N    9.614    -0.745    4.411
    271    C    9.028    -1.145    3.287
    272    N    9.391    -0.696    2.044
    273    H    8.908    -1.058    1.240
    274    C    10.437    0.174    1.791
    275    O    10.737    0.538    0.655
    276    C    11.050    0.630    2.974
    277    N    12.093    1.528    3.142
    278    C    12.296    1.541    4.431
    279    H    13.059    2.136    4.938
    280    C    10.223    0.853    7.256
    281    H    9.502    1.365    6.582
    282    O    10.480    1.656    8.393
    283    H    9.679    1.638    8.937
    284    C    9.687    -0.525    7.641
    285    H    9.199    -1.008    6.768
    286    O    8.841    -0.532    8.811
    287    P    7.276    -0.461    8.652
    288    O    6.722    0.052    9.928
    289    O    6.787    -1.781    8.201
    290    O    6.986    0.579    7.520
    291    C    6.842    1.995    7.746
    292    H    7.667    2.373    8.392
    293    H    5.877    2.192    8.273
    294    C    6.866    2.841    6.443
    295    H    7.489    3.750    6.585
    296    O    7.443    2.093    5.324
    297    C    6.644    2.276    4.172
    298    H    7.335    2.494    3.325
    299    N    5.846    1.072    3.877
    300    C    5.354    0.702    2.659
    301    N    5.055    1.265    -0.726
    302    H    5.543    2.125    -0.858
    303    H    4.562    0.854    -1.499
    304    N    5.516    1.375    1.514
    305    C    4.964    0.752    0.480
    306    N    4.263    -0.424    0.592
    307    H    3.881    -0.838    -0.245
    308    C    4.057    -1.133    1.768
    309    O    3.415    -2.189    1.788
    310    C    4.669    -0.482    2.873
    311    N    4.721    -0.844    4.209
    312    C    5.433    0.104    4.764
    313    H    5.693    0.154    5.813
    314    C    5.770    3.474    4.446
    315    H    4.840    3.475    3.838
    316    O    6.504    4.661    4.206
    317    H    5.965    5.391    4.531
    318    C    5.480    3.294    5.932
    319    H    4.779    2.446    6.104
    320    O    5.070    4.493    6.620
    321    P    3.559    4.928    6.709
    322    O    3.508    6.162    7.525
    323    O    2.758    3.776    7.173
    324    O    3.141    5.267    5.234
    325    C    3.624    6.443    4.549
    326    H    4.734    6.466    4.521
    327    H    3.288    7.370    5.066
    328    C    3.110    6.495    3.102
    329    H    3.532    7.371    2.563
    330    O    3.535    5.305    2.378
    331    C    2.513    4.909    1.482
    332    H    2.981    4.927    0.470
    333    N    1.998    3.544    1.785
    334    C    2.108    2.991    3.042
    335    H    2.586    3.622    3.789
    336    C    1.405    2.845    0.759
    337    O    1.289    3.300    -0.374
    338    N    0.952    1.598    1.098
    339    H    0.571    1.065    0.323
    340    C    1.047    0.969    2.319
    341    O    0.596    -0.165    2.470
    342    C    1.685    1.751    3.331
    343    H    1.789    1.326    4.327
    344    C    1.415    5.958    1.544
    345    H    0.405    5.512    1.419
    346    O    1.615    6.952    0.561
    347    H    0.801    7.481    0.565
    348    C    1.579    6.533    2.949
    349    H    1.156    5.837    3.708
    350    O    1.101    7.883    3.139
    351    P    -0.424    8.265    3.214
    352    O    -0.542    9.737    3.303
    353    O    -1.083    7.487    4.284
    354    O    -1.023    7.797    1.845
    355    C    -1.213    8.679    0.717
    356    H    -0.262    9.201    0.456
    357    H    -1.967    9.461    0.961
    358    C    -1.707    7.920    -0.537
    359    H    -1.390    8.440    -1.469
    360    O    -1.146    6.577    -0.577
    361    C    -2.135    5.656    -0.991
    362    H    -1.712    5.115    -1.866
    363    N    -2.458    4.679    0.054
    364    C    -2.956    3.425    -0.165
    365    N    -4.003    0.949    -2.347
    366    H    -4.427    0.041    -2.304
    367    H    -3.907    1.400    -3.232
    368    N    -3.235    2.884    -1.364
    369    C    -3.698    1.642    -1.265
    370    N    -3.860    0.999    -0.068
    371    H    -4.238    0.065    -0.090
    372    C    -3.584    1.534    1.184
    373    O    -3.762    0.884    2.217
    374    C    -3.100    2.861    1.087
    375    N    -2.717    3.752    2.080
    376    C    -2.344    4.821    1.419
    377    H    -1.974    5.739    1.874
    378    C    -3.346    6.437    -1.425
    379    H    -4.292    5.905    -1.197
    380    O    -3.282    6.710    -2.808
    381    H    -4.125    7.132    -3.023
    382    C    -3.231    7.717    -0.604
    383    H    -3.572    7.546    0.439
    384    O    -3.844    8.878    -1.197
    385    P    -5.389    9.148    -1.183
    386    O    -5.655    10.348    -2.010
    387    O    -5.812    9.201    0.233
    388    O    -6.054    7.890    -1.855
    389    C    -6.327    7.793    -3.274
    390    H    -5.429    8.067    -3.872
    391    H    -7.138    8.501    -3.560
    392    C    -6.759    6.375    -3.715
    393    H    -6.528    6.219    -4.791
    394    O    -6.029    5.370    -2.974
    395    C    -6.852    4.254    -2.705
    396    H    -6.377    3.419    -3.272
    397    N    -6.879    3.890    -1.259
    398    C    -6.561    4.817    -0.294
    399    H    -6.312    5.818    -0.655
    400    C    -6.544    4.490    1.006
    401    H    -6.256    5.197    1.779
    402    C    -7.241    2.600    -0.884
    403    O    -7.551    1.786    -1.765
    404    N    -7.237    2.249    0.424
    405    C    -6.885    3.150    1.359
    406    N    -6.851    2.768    2.634
    407    H    -7.086    1.829    2.877
    408    H    -6.584    3.392    3.370
    409    C    -8.234    4.516    -3.286
    410    H    -9.039    4.243    -2.573
    411    O    -8.414    3.793    -4.487
    412    H    -9.319    3.997    -4.784
    413    C    -8.238    6.036    -3.512
    414    H    -8.544    6.545    -2.569
    415    O    -8.986    6.525    -4.650
    416    P    -10.548    6.432    -4.736
    417    O    -10.992    7.320    -5.830
    418    O    -11.102    6.665    -3.388
    419    O    -10.826    4.944    -5.145
    420    C    -11.991    4.543    -5.910
    421    H    -11.698    4.445    -6.981
    422    H    -12.811    5.304    -5.880
    423    C    -12.599    3.190    -5.456
    424    H    -12.848    2.558    -6.336
    425    O    -11.668    2.435    -4.630
    426    C    -12.370    1.734    -3.623
    427    H    -12.194    0.659    -3.866
    428    N    -11.857    2.032    -2.261
    429    C    -11.468    3.311    -1.938
    430    H    -11.511    4.047    -2.748
    431    C    -11.012    3.605    -0.711
    432    H    -10.683    4.606    -0.439
    433    C    -11.832    1.033    -1.292
    434    O    -12.231    -0.103    -1.588
    435    N    -11.385    1.311    -0.045
    436    C    -10.979    2.555    0.258
    437    N    -10.549    2.799    1.496
    438    H    -10.613    2.082    2.189
    439    H    -10.305    3.724    1.791
    440    C    -13.861    2.021    -3.767
    441    H    -14.341    2.212    -2.781
    442    O    -14.511    0.936    -4.412
    443    H    -15.453    1.152    -4.549
    444    C    -13.869    3.306    -4.602
    445    H    -13.744    4.190    -3.942
    446    O    -15.024    3.464    -5.446
    447    H    -15.836    3.515    -4.908
 $END
