!*** FMO 5.3 (Gamess) INPUT generated by Facio 22.1.1.32 ***
 $CONTRL RUNTYP=ENERGY NPRINT=-5 ISPHER=1 MAXIT=200 $END
 $SYSTEM MWORDS=63 MEMDDI=63 $END
 $GDDI NGROUP=1 $END
 $SCF DIRSCF=.TRUE. NPUNCH=0 $END
!*** NumCPU : 2  MemPerNode : 512MB
 $PCM SOLVNT=WATER IEF=-10 ICOMP=2 ICAV=1 IDISP=1 IFMO=-1 $END
 $PCMCAV RADII=SUAHF $END
 $TESCAV NTSALL=60 $END
 $FMOPRP
    NAODIR=200
    NGRFMO(1)=1, 1, 0, 0, 0,   0, 0, 0, 0, 0
    IPIEDA=1
    NPRINT=9
 $END
 $FMO
      SCFTYP(1)=RHF
      MODGRD=10
      MODMUL=0
      MAXCAO=5
      MAXBND=16
      NLAYER=1
      MPLEVL(1)=2
      NFRAG=14
      ICHARG(1)=-1, -1, -1, -1, -1, -1, -1, -1, -1, -1, -1, -1, -1, 0
      FRGNAM(1)=F1, F2, F3, F4, F5, F6, F7, F8, F9, F10, F11, F12, F13, F14
      indat(1)=0
               1   -36   0
               37   -70   0
               71   -101   0
               102   -134   0
               135   -165   0
               166   -195   0
               196   -225   0
               226   -256   0
               257   -290   0
               291   -324   0
               325   -354   0
               355   -388   0
               389   -419   0
               420   -447   0
 $END

 $FMOBND
   -37   36       6-31G*    MINI
   -71   70       6-31G*    MINI
   -102   101       6-31G*    MINI
   -135   134       6-31G*    MINI
   -166   165       6-31G*    MINI
   -196   195       6-31G*    MINI
   -226   225       6-31G*    MINI
   -257   256       6-31G*    MINI
   -291   290       6-31G*    MINI
   -325   324       6-31G*    MINI
   -355   354       6-31G*    MINI
   -389   388       6-31G*    MINI
   -420   419       6-31G*    MINI
 $END
 $FMOHYB
 6-31G*      15   5
   1 0  -0.065034   0.288264   0.000000   0.000000   0.604412
         0.290129   0.000000   0.000000   0.319045  -0.017106
        -0.017106   0.057934   0.000000   0.000000   0.000000
   0 1  -0.065040   0.288293   0.569832   0.000000  -0.201456
         0.290147   0.300783   0.000000  -0.106342   0.049598
        -0.017106  -0.008771   0.000000  -0.027223   0.000000
   0 1  -0.065039   0.288293  -0.284916  -0.493490  -0.201455
         0.290145  -0.150392  -0.260486  -0.106340  -0.000427
         0.032923  -0.008771   0.033353   0.013612   0.023576
   0 1  -0.065039   0.288293  -0.284916   0.493490  -0.201455
         0.290145  -0.150392   0.260486  -0.106340  -0.000427
         0.032923  -0.008771  -0.033353   0.013612  -0.023576
   0 1   1.010938  -0.011975   0.000000   0.000000   0.000000
        -0.054085   0.000000   0.000000  -0.000000  -0.003174
        -0.003174  -0.003174   0.000000   0.000000   0.000000
 MINI         5   5
   1 0  -0.104883   0.308874   0.000000   0.000000   0.521806
   0 1  -0.104883   0.308874   0.491961   0.000000  -0.173934
   0 1  -0.104883   0.308876  -0.245980  -0.426050  -0.173933
   0 1  -0.104883   0.308876  -0.245980   0.426050  -0.173933
   0 1   0.988209   0.063992   0.000000   0.000000   0.000000
 $END
 
 $DATA
 FMO calculation
 C1 
 H.1-1    1
      N31 6
   
 O.1-1    8
      N31 6
      d 1
      1 0.800 1.0
   
 C.1-1    6
      N31 6
      d 1
      1 0.800 1.0
   
 N.1-1    7
      N31 6
      d 1
      1 0.800 1.0
   
 P.1-1   15
      N31 6
      d 1
      1 0.550 1.0
   
 $END
 $FMOXYZ
    1    H    -17.193    -1.454    5.534
    2    O    -16.489    -2.002    5.133
    3    C    -16.423    -3.230    5.888
    4    H    -17.477    -3.548    6.066
    5    H    -15.965    -3.029    6.876
    6    C    -15.718    -4.433    5.188
    7    H    -16.126    -5.374    5.616
    8    O    -16.141    -4.390    3.789
    9    C    -15.080    -4.743    2.937
    10    H    -15.476    -5.555    2.285
    11    N    -14.657    -3.634    2.056
    12    C    -13.844    -3.738    0.953
    13    N    -11.900    -5.612    -1.249
    14    H    -11.164    -5.420    -1.885
    15    H    -11.910    -6.515    -0.812
    16    N    -13.290    -4.865    0.463
    17    C    -12.531    -4.638    -0.614
    18    N    -12.370    -3.398    -1.175
    19    H    -11.789    -3.314    -1.982
    20    C    -13.009    -2.246    -0.739
    21    O    -12.891    -1.172    -1.312
    22    C    -13.773    -2.465    0.428
    23    N    -14.533    -1.573    1.172
    24    C    -15.050    -2.313    2.126
    25    H    -15.723    -1.953    2.906
    26    C    -13.964    -5.291    3.787
    27    H    -12.971    -5.060    3.359
    28    O    -14.115    -6.692    3.897
    29    H    -13.308    -6.993    4.341
    30    C    -14.146    -4.622    5.150
    31    H    -13.702    -3.602    5.160
    32    O    -13.648    -5.423    6.260
    33    P    -12.229    -6.106    6.554
    34    O    -12.477    -7.273    7.433
    35    O    -11.355    -5.056    7.117
    36    O    -11.558    -6.604    5.205
    37    C    -11.081    -7.908    4.747
    38    H    -11.958    -8.594    4.766
    39    H    -10.316    -8.332    5.426
    40    C    -10.569    -7.986    3.234
    41    H    -10.933    -8.940    2.792
    42    O    -11.306    -6.932    2.581
    43    C    -10.495    -6.197    1.720
    44    H    -11.111    -6.186    0.824
    45    N    -10.290    -4.797    2.136
    46    C    -9.790    -3.767    1.374
    47    N    -8.519    -2.551    -1.607
    48    H    -8.531    -3.353    -2.199
    49    H    -8.379    -1.653    -2.015
    50    N    -9.361    -3.847    0.104
    51    C    -8.956    -2.668    -0.371
    52    N    -9.013    -1.504    0.353
    53    H    -8.656    -0.658    -0.061
    54    C    -9.471    -1.397    1.659
    55    O    -9.527    -0.328    2.270
    56    C    -9.872    -2.647    2.177
    57    N    -10.393    -2.956    3.416
    58    C    -10.632    -4.234    3.342
    59    H    -11.073    -4.806    4.144
    60    C    -9.252    -6.968    1.425
    61    H    -8.373    -6.318    1.228
    62    O    -9.505    -7.792    0.295
    63    H    -8.688    -8.280    0.114
    64    C    -9.059    -7.799    2.692
    65    H    -8.517    -7.207    3.460
    66    O    -8.368    -9.049    2.419
    67    P    -6.927    -9.359    1.772
    68    O    -6.995    -10.724    1.195
    69    O    -5.918    -9.156    2.832
    70    O    -6.606    -8.356    0.571
    71    C    -5.920    -8.709    -0.692
    72    H    -6.540    -9.481    -1.204
    73    H    -4.931    -9.181    -0.503
    74    C    -5.736    -7.559    -1.790
    75    H    -6.207    -7.918    -2.730
    76    O    -6.553    -6.470    -1.314
    77    C    -5.887    -5.242    -1.358
    78    H    -6.651    -4.648    -1.916
    79    N    -5.756    -4.514    -0.116
    80    C    -5.868    -5.163    1.079
    81    H    -5.999    -6.242    1.024
    82    C    -5.840    -4.485    2.227
    83    H    -5.968    -4.965    3.196
    84    C    -5.505    -3.145    -0.164
    85    O    -5.319    -2.578    -1.255
    86    N    -5.483    -2.451    0.984
    87    C    -5.690    -3.075    2.156
    88    N    -5.774    -2.356    3.264
    89    H    -5.531    -1.385    3.268
    90    H    -5.888    -2.788    4.161
    91    C    -4.619    -5.353    -2.105
    92    H    -3.745    -4.841    -1.645
    93    O    -4.973    -4.747    -3.315
    94    H    -5.137    -5.461    -3.944
    95    C    -4.364    -6.859    -2.248
    96    H    -3.595    -7.190    -1.515
    97    O    -3.959    -7.210    -3.606
    98    P    -2.832    -6.595    -4.585
    99    O    -3.004    -7.277    -5.891
    100    O    -1.520    -6.750    -3.938
    101    O    -2.995    -5.056    -4.871
    102    C    -2.923    -4.308    -6.100
    103    H    -3.930    -4.274    -6.568
    104    H    -2.232    -4.794    -6.825
    105    C    -2.468    -2.819    -5.940
    106    H    -2.914    -2.194    -6.748
    107    O    -2.860    -2.215    -4.666
    108    C    -1.766    -1.514    -4.099
    109    H    -2.124    -0.489    -3.837
    110    N    -1.279    -2.185    -2.888
    111    C    -0.438    -2.636    -0.909
    112    N    -0.856    -3.845    -1.431
    113    C    -1.341    -3.523    -2.600
    114    H    -1.747    -4.234    -3.306
    115    N    0.426    -0.990    0.546
    116    C    0.195    -0.122    -0.450
    117    H    0.506    0.907    -0.283
    118    N    -0.355    -0.322    -1.650
    119    C    -0.680    -1.607    -1.803
    120    C    0.127    -2.293    0.335
    121    N    0.383    -3.208    1.288
    122    H    0.234    -4.186    1.132
    123    H    0.833    -2.933    2.136
    124    C    -0.701    -1.411    -5.149
    125    H    0.303    -1.477    -4.697
    126    O    -0.789    -0.209    -5.891
    127    H    0.077    -0.146    -6.321
    128    C    -0.953    -2.643    -6.015
    129    H    -0.510    -3.553    -5.541
    130    O    -0.574    -2.505    -7.395
    131    P    0.910    -2.616    -7.862
    132    O    0.998    -2.117    -9.252
    133    O    1.348    -3.999    -7.600
    134    O    1.709    -1.667    -6.911
    135    C    2.222    -0.386    -7.329
    136    H    1.458    0.209    -7.876
    137    H    3.080    -0.525    -8.023
    138    C    2.709    0.460    -6.142
    139    H    2.708    1.541    -6.405
    140    O    1.876    0.278    -4.963
    141    C    2.698    0.298    -3.809
    142    H    2.234    1.063    -3.144
    143    N    2.779    -1.019    -3.096
    144    C    2.432    -2.220    -3.662
    145    H    2.134    -2.182    -4.709
    146    C    2.472    -3.359    -2.955
    147    H    2.165    -4.317    -3.371
    148    C    3.132    -0.991    -1.762
    149    O    3.255    0.114    -1.238
    150    N    3.316    -2.127    -1.061
    151    C    2.948    -3.296    -1.609
    152    N    3.025    -4.397    -0.874
    153    H    3.390    -4.333    0.056
    154    H    2.766    -5.300    -1.219
    155    C    4.068    0.773    -4.261
    156    H    4.895    0.402    -3.618
    157    O    4.095    2.193    -4.323
    158    H    3.930    2.568    -3.440
    159    C    4.099    0.108    -5.636
    160    H    4.103    -0.999    -5.500
    161    O    5.095    0.574    -6.564
    162    P    6.106    -0.463    -7.199
    163    O    6.639    0.077    -8.464
    164    O    5.534    -1.826    -7.291
    165    O    7.266    -0.474    -6.154
    166    C    7.905    0.797    -5.867
    167    H    7.215    1.678    -5.924
    168    H    8.731    0.972    -6.595
    169    C    8.493    0.791    -4.469
    170    H    8.922    1.789    -4.230
    171    O    7.490    0.490    -3.459
    172    C    8.123    -0.213    -2.404
    173    H    7.990    0.417    -1.494
    174    N    7.509    -1.557    -2.183
    175    C    6.765    -2.168    -3.171
    176    H    6.657    -1.598    -4.096
    177    C    7.684    -2.165    -0.956
    178    O    8.343    -1.664    -0.052
    179    N    7.046    -3.371    -0.812
    180    H    7.256    -3.872    0.034
    181    C    6.346    -4.067    -1.773
    182    O    5.915    -5.194    -1.533
    183    C    6.181    -3.364    -3.008
    184    H    5.609    -3.838    -3.801
    185    C    9.607    -0.266    -2.756
    186    H    10.123    -1.159    -2.343
    187    O    10.238    0.929    -2.344
    188    H    11.149    0.672    -2.129
    189    C    9.565    -0.269    -4.265
    190    H    9.166    -1.231    -4.661
    191    O    10.775    0.158    -4.924
    192    P    11.895    -0.885    -5.238
    193    O    12.544    -0.484    -6.505
    194    O    11.370    -2.267    -5.161
    195    O    12.912    -0.687    -4.051
    196    C    14.213    -1.320    -4.159
    197    H    14.591    -1.338    -5.209
    198    H    14.158    -2.377    -3.815
    199    C    15.281    -0.583    -3.343
    200    H    16.274    -1.055    -3.521
    201    O    15.374    0.802    -3.781
    202    C    15.221    1.669    -2.686
    203    H    16.261    1.912    -2.364
    204    N    14.449    2.881    -3.070
    205    C    13.220    2.755    -3.682
    206    H    12.920    1.731    -3.914
    207    C    14.963    4.121    -2.763
    208    O    16.030    4.277    -2.179
    209    N    14.186    5.181    -3.152
    210    H    14.541    6.097    -2.918
    211    C    12.982    5.140    -3.818
    212    O    12.416    6.188    -4.131
    213    C    12.501    3.815    -4.086
    214    H    11.568    3.701    -4.632
    215    C    14.539    0.894    -1.584
    216    H    13.433    0.923    -1.698
    217    O    14.946    1.398    -0.327
    218    H    14.347    1.056    0.360
    219    C    15.033    -0.537    -1.824
    220    H    14.181    -1.227    -1.611
    221    O    16.232    -0.881    -1.086
    222    P    16.338    -2.259    -0.337
    223    O    17.563    -2.243    0.492
    224    O    16.253    -3.344    -1.338
    225    O    15.075    -2.336    0.584
    226    C    15.127    -1.977    1.982
    227    H    15.138    -0.867    2.083
    228    H    16.044    -2.370    2.483
    229    C    13.912    -2.506    2.769
    230    H    13.771    -1.891    3.686
    231    O    12.687    -2.440    1.985
    232    C    12.136    -3.730    1.841
    233    H    11.386    -3.814    2.660
    234    N    11.507    -3.916    0.509
    235    C    12.147    -3.421    -0.602
    236    H    13.080    -2.889    -0.410
    237    C    11.618    -3.552    -1.826
    238    H    12.093    -3.138    -2.714
    239    C    10.303    -4.601    0.372
    240    O    9.732    -5.024    1.391
    241    N    9.774    -4.783    -0.865
    242    C    10.381    -4.250    -1.942
    243    N    9.806    -4.369    -3.140
    244    H    10.248    -4.009    -3.964
    245    H    9.000    -4.951    -3.239
    246    C    13.254    -4.710    2.100
    247    H    13.889    -4.815    1.192
    248    O    12.781    -5.974    2.522
    249    H    12.336    -5.849    3.376
    250    C    14.049    -3.979    3.192
    251    H    15.113    -4.286    3.083
    252    O    13.549    -4.190    4.532
    253    P    14.519    -4.183    5.779
    254    O    15.883    -4.585    5.364
    255    O    13.877    -4.988    6.845
    256    O    14.572    -2.687    6.272
    257    C    13.435    -2.035    6.899
    258    H    13.341    -2.365    7.959
    259    H    12.494    -2.308    6.374
    260    C    13.522    -0.484    6.878
    261    H    14.157    -0.122    7.717
    262    O    14.167    -0.050    5.648
    263    C    13.657    1.207    5.264
    264    H    14.522    1.903    5.351
    265    N    13.182    1.200    3.894
    266    C    12.128    0.542    3.285
    267    N    9.431    -1.656    3.367
    268    H    8.822    -2.113    2.731
    269    H    9.443    -1.936    4.326
    270    N    11.225    -0.289    3.853
    271    C    10.360    -0.788    2.975
    272    N    10.390    -0.488    1.634
    273    H    9.733    -0.926    1.013
    274    C    11.352    0.320    1.042
    275    O    11.417    0.538    -0.159
    276    C    12.218    0.912    1.970
    277    N    13.236    1.830    1.765
    278    C    13.782    1.967    2.937
    279    H    14.638    2.608    3.158
    280    C    12.581    1.624    6.223
    281    H    11.704    2.078    5.710
    282    O    13.107    2.533    7.173
    283    H    12.461    2.600    7.892
    284    C    12.186    0.302    6.868
    285    H    11.512    -0.283    6.212
    286    O    11.627    0.465    8.186
    287    P    10.075    0.781    8.314
    288    O    9.876    1.483    9.600
    289    O    9.366    -0.505    8.138
    290    O    9.665    1.723    7.131
    291    C    9.268    3.112    7.219
    292    H    10.144    3.723    7.542
    293    H    8.462    3.243    7.978
    294    C    8.750    3.726    5.875
    295    H    9.227    4.714    5.699
    296    O    9.113    2.864    4.746
    297    C    7.995    2.732    3.886
    298    H    8.368    2.803    2.842
    299    N    7.302    1.448    4.087
    300    C    6.488    0.862    3.172
    301    N    5.398    0.766    -0.032
    302    H    5.303    1.734    -0.231
    303    H    4.825    0.159    -0.589
    304    N    6.236    1.344    1.961
    305    C    5.559    0.486    1.226
    306    N    5.023    -0.689    1.698
    307    H    4.435    -1.231    1.085
    308    C    5.198    -1.167    2.995
    309    O    4.706    -2.233    3.382
    310    C    6.025    -0.299    3.760
    311    N    6.532    -0.434    5.041
    312    C    7.295    0.625    5.190
    313    H    7.882    0.859    6.075
    314    C    7.079    3.881    4.192
    315    H    6.032    3.695    3.865
    316    O    7.568    5.072    3.594
    317    H    7.069    5.813    3.964
    318    C    7.207    3.910    5.707
    319    H    6.737    3.010    6.167
    320    O    6.728    5.137    6.303
    321    P    5.199    5.244    6.710
    322    O    4.986    6.588    7.292
    323    O    4.870    4.091    7.579
    324    O    4.354    5.119    5.389
    325    C    4.157    6.239    4.496
    326    H    5.102    6.429    3.937
    327    H    3.891    7.172    5.041
    328    C    3.072    5.956    3.440
    329    H    3.090    6.762    2.673
    330    O    3.417    4.713    2.760
    331    C    2.234    4.066    2.360
    332    H    2.340    3.904    1.266
    333    N    2.044    2.754    3.033
    334    C    2.648    2.452    4.231
    335    H    3.316    3.221    4.620
    336    C    1.187    1.871    2.433
    337    O    0.568    2.161    1.413
    338    N    1.044    0.666    3.073
    339    H    0.515    -0.024    2.564
    340    C    1.614    0.289    4.275
    341    O    1.360    -0.808    4.767
    342    C    2.468    1.281    4.860
    343    H    2.946    1.061    5.816
    344    C    1.094    5.031    2.611
    345    H    0.125    4.518    2.790
    346    O    0.994    5.906    1.499
    347    H    0.052    6.155    1.449
    348    C    1.579    5.776    3.855
    349    H    1.550    5.116    4.750
    350    O    0.936    7.053    4.105
    351    P    -0.543    7.201    4.660
    352    O    -0.808    8.622    4.995
    353    O    -0.762    6.229    5.755
    354    O    -1.521    6.819    3.502
    355    C    -1.715    7.690    2.366
    356    H    -0.788    8.265    2.124
    357    H    -2.511    8.436    2.595
    358    C    -2.125    6.908    1.103
    359    H    -1.681    7.375    0.200
    360    O    -1.618    5.551    1.161
    361    C    -2.583    4.644    0.726
    362    H    -2.072    4.031    -0.052
    363    N    -3.004    3.735    1.791
    364    C    -3.500    2.492    1.550
    365    N    -4.418    0.027    -0.686
    366    H    -4.784    -0.909    -0.665
    367    H    -4.293    0.478    -1.564
    368    N    -3.710    1.956    0.336
    369    C    -4.166    0.716    0.408
    370    N    -4.387    0.073    1.595
    371    H    -4.745    -0.867    1.534
    372    C    -4.192    0.606    2.864
    373    O    -4.428    -0.035    3.892
    374    C    -3.709    1.931    2.793
    375    N    -3.366    2.816    3.807
    376    C    -2.946    3.882    3.166
    377    H    -2.594    4.798    3.648
    378    C    -3.697    5.431    0.091
    379    H    -4.688    4.955    0.223
    380    O    -3.379    5.561    -1.287
    381    H    -3.965    4.971    -1.785
    382    C    -3.629    6.765    0.843
    383    H    -4.131    6.688    1.833
    384    O    -4.060    7.925    0.125
    385    P    -5.438    8.228    -0.549
    386    O    -5.256    9.417    -1.407
    387    O    -6.437    8.338    0.536
    388    O    -5.864    7.006    -1.450
    389    C    -5.834    7.027    -2.900
    390    H    -4.791    7.205    -3.244
    391    H    -6.468    7.846    -3.306
    392    C    -6.293    5.687    -3.536
    393    H    -5.898    5.605    -4.569
    394    O    -5.728    4.578    -2.770
    395    C    -6.652    3.506    -2.723
    396    H    -6.097    2.649    -3.170
    397    N    -7.052    3.122    -1.335
    398    C    -6.976    4.036    -0.310
    399    H    -6.611    5.026    -0.583
    400    C    -7.299    3.707    0.948
    401    H    -7.213    4.407    1.778
    402    C    -7.506    1.829    -1.072
    403    O    -7.575    1.013    -2.003
    404    N    -7.856    1.485    0.189
    405    C    -7.760    2.382    1.185
    406    N    -8.110    2.015    2.413
    407    H    -8.592    1.136    2.492
    408    H    -8.112    2.644    3.193
    409    C    -7.831    3.852    -3.628
    410    H    -8.790    3.474    -3.221
    411    O    -7.603    3.299    -4.913
    412    H    -8.386    3.472    -5.469
    413    C    -7.820    5.396    -3.626
    414    H    -8.267    5.769    -2.679
    415    O    -8.412    6.072    -4.767
    416    P    -9.920    5.958    -5.234
    417    O    -10.243    7.093    -6.130
    418    O    -10.812    5.743    -4.075
    419    O    -9.906    4.659    -6.066
    420    C    -10.591    4.393    -7.304
    421    H    -10.034    4.866    -8.146
    422    H    -11.621    4.827    -7.306
    423    C    -10.683    2.867    -7.572
    424    H    -10.363    2.623    -8.605
    425    O    -9.805    2.137    -6.658
    426    C    -10.447    0.996    -6.154
    427    H    -9.766    0.177    -6.469
    428    N    -10.564    0.992    -4.671
    429    C    -10.943    2.131    -3.991
    430    H    -11.076    3.035    -4.591
    431    C    -11.067    2.129    -2.654
    432    H    -11.340    3.017    -2.087
    433    C    -10.372    -0.202    -3.974
    434    O    -10.107    -1.237    -4.610
    435    N    -10.475    -0.210    -2.627
    436    C    -10.816    0.908    -1.968
    437    N    -10.953    0.847    -0.645
    438    H    -11.040    -0.072    -0.279
    439    H    -11.316    1.611    -0.112
    440    C    -11.776    0.828    -6.864
    441    H    -12.573    0.487    -6.167
    442    O    -11.638    -0.099    -7.930
    443    H    -12.457    -0.117    -8.458
    444    C    -12.074    2.253    -7.344
    445    H    -12.555    2.837    -6.531
    446    O    -12.856    2.321    -8.550
    447    H    -13.701    1.848    -8.430
 $END
