!*** FMO 5.3 (Gamess) INPUT generated by Facio 22.1.1.32 ***
 $CONTRL RUNTYP=ENERGY NPRINT=-5 ISPHER=1 MAXIT=200 $END
 $SYSTEM MWORDS=63 MEMDDI=63 $END
 $GDDI NGROUP=1 $END
 $SCF DIRSCF=.TRUE. NPUNCH=0 $END
!*** NumCPU : 2  MemPerNode : 512MB
 $PCM SOLVNT=WATER IEF=-10 ICOMP=2 ICAV=1 IDISP=1 IFMO=-1 $END
 $PCMCAV RADII=SUAHF $END
 $TESCAV NTSALL=60 $END
 $FMOPRP
    NAODIR=200
    NGRFMO(1)=1, 1, 0, 0, 0,   0, 0, 0, 0, 0
    IPIEDA=1
    NPRINT=9
 $END
 $FMO
      SCFTYP(1)=RHF
      MODGRD=10
      MODMUL=0
      MAXCAO=5
      MAXBND=16
      NLAYER=1
      MPLEVL(1)=2
      NFRAG=14
      ICHARG(1)=-1, -1, -1, -1, -1, -1, -1, -1, -1, -1, -1, -1, -1, 0
      FRGNAM(1)=F1, F2, F3, F4, F5, F6, F7, F8, F9, F10, F11, F12, F13, F14
      indat(1)=0
               1   -36   0
               37   -70   0
               71   -101   0
               102   -134   0
               135   -165   0
               166   -195   0
               196   -225   0
               226   -256   0
               257   -290   0
               291   -324   0
               325   -354   0
               355   -388   0
               389   -419   0
               420   -447   0
 $END

 $FMOBND
   -37   36       6-31G*    MINI
   -71   70       6-31G*    MINI
   -102   101       6-31G*    MINI
   -135   134       6-31G*    MINI
   -166   165       6-31G*    MINI
   -196   195       6-31G*    MINI
   -226   225       6-31G*    MINI
   -257   256       6-31G*    MINI
   -291   290       6-31G*    MINI
   -325   324       6-31G*    MINI
   -355   354       6-31G*    MINI
   -389   388       6-31G*    MINI
   -420   419       6-31G*    MINI
 $END
 $FMOHYB
 6-31G*      15   5
   1 0  -0.065034   0.288264   0.000000   0.000000   0.604412
         0.290129   0.000000   0.000000   0.319045  -0.017106
        -0.017106   0.057934   0.000000   0.000000   0.000000
   0 1  -0.065040   0.288293   0.569832   0.000000  -0.201456
         0.290147   0.300783   0.000000  -0.106342   0.049598
        -0.017106  -0.008771   0.000000  -0.027223   0.000000
   0 1  -0.065039   0.288293  -0.284916  -0.493490  -0.201455
         0.290145  -0.150392  -0.260486  -0.106340  -0.000427
         0.032923  -0.008771   0.033353   0.013612   0.023576
   0 1  -0.065039   0.288293  -0.284916   0.493490  -0.201455
         0.290145  -0.150392   0.260486  -0.106340  -0.000427
         0.032923  -0.008771  -0.033353   0.013612  -0.023576
   0 1   1.010938  -0.011975   0.000000   0.000000   0.000000
        -0.054085   0.000000   0.000000  -0.000000  -0.003174
        -0.003174  -0.003174   0.000000   0.000000   0.000000
 MINI         5   5
   1 0  -0.104883   0.308874   0.000000   0.000000   0.521806
   0 1  -0.104883   0.308874   0.491961   0.000000  -0.173934
   0 1  -0.104883   0.308876  -0.245980  -0.426050  -0.173933
   0 1  -0.104883   0.308876  -0.245980   0.426050  -0.173933
   0 1   0.988209   0.063992   0.000000   0.000000   0.000000
 $END
 
 $DATA
 FMO calculation
 C1 
 H.1-1    1
      N31 6
   
 O.1-1    8
      N31 6
      d 1
      1 0.800 1.0
   
 C.1-1    6
      N31 6
      d 1
      1 0.800 1.0
   
 N.1-1    7
      N31 6
      d 1
      1 0.800 1.0
   
 P.1-1   15
      N31 6
      d 1
      1 0.550 1.0
   
 $END
 $FMOXYZ
    1    H    -17.578    -6.003    6.120
    2    O    -16.906    -5.303    6.237
    3    C    -15.666    -5.920    6.652
    4    H    -15.697    -7.004    6.393
    5    H    -15.554    -5.807    7.746
    6    C    -14.508    -5.247    5.908
    7    H    -14.649    -4.146    5.993
    8    O    -14.759    -5.657    4.535
    9    C    -13.774    -5.109    3.766
    10    H    -13.733    -5.671    2.805
    11    N    -14.087    -3.679    3.487
    12    C    -13.345    -2.824    2.736
    13    N    -10.788    -2.341    0.555
    14    H    -10.345    -1.581    0.093
    15    H    -10.258    -3.167    0.726
    16    N    -12.215    -3.137    2.106
    17    C    -11.755    -2.124    1.400
    18    N    -12.237    -0.840    1.484
    19    H    -11.824    -0.127    0.905
    20    C    -13.389    -0.476    2.172
    21    O    -13.802    0.689    2.196
    22    C    -14.002    -1.606    2.779
    23    N    -15.208    -1.718    3.453
    24    C    -15.234    -2.973    3.833
    25    H    -16.053    -3.449    4.380
    26    C    -12.505    -5.384    4.582
    27    H    -11.771    -4.580    4.408
    28    O    -12.011    -6.651    4.199
    29    H    -12.729    -7.293    4.312
    30    C    -12.947    -5.476    6.065
    31    H    -12.812    -6.503    6.467
    32    O    -12.256    -4.504    6.893
    33    P    -11.109    -4.449    8.014
    34    O    -11.193    -5.600    8.940
    35    O    -11.292    -3.123    8.644
    36    O    -9.620    -4.391    7.472
    37    C    -8.676    -5.419    7.053
    38    H    -8.864    -6.375    7.589
    39    H    -7.657    -5.089    7.357
    40    C    -8.632    -5.691    5.508
    41    H    -9.064    -6.694    5.307
    42    O    -9.551    -4.740    4.949
    43    C    -9.026    -3.993    3.923
    44    H    -9.807    -4.088    3.135
    45    N    -8.962    -2.547    4.227
    46    C    -8.693    -1.578    3.301
    47    N    -8.300    -0.722    -0.033
    48    H    -8.124    -1.605    -0.458
    49    H    -8.109    0.110    -0.560
    50    N    -8.383    -1.792    2.013
    51    C    -8.412    -0.680    1.286
    52    N    -8.680    0.544    1.822
    53    H    -8.534    1.348    1.233
    54    C    -8.888    0.817    3.164
    55    O    -9.068    1.977    3.546
    56    C    -8.898    -0.372    3.945
    57    N    -9.239    -0.573    5.278
    58    C    -9.290    -1.883    5.396
    59    H    -9.550    -2.418    6.310
    60    C    -7.765    -4.662    3.447
    61    H    -6.982    -3.930    3.170
    62    O    -8.115    -5.454    2.328
    63    H    -7.324    -5.938    2.033
    64    C    -7.318    -5.530    4.636
    65    H    -6.595    -4.959    5.262
    66    O    -6.763    -6.816    4.266
    67    P    -5.618    -7.359    3.301
    68    O    -5.815    -8.822    3.267
    69    O    -4.305    -6.910    3.804
    70    O    -5.794    -6.816    1.804
    71    C    -5.196    -7.445    0.595
    72    H    -5.675    -8.446    0.469
    73    H    -4.111    -7.633    0.738
    74    C    -5.393    -6.712    -0.838
    75    H    -5.994    -7.396    -1.470
    76    O    -6.243    -5.570    -0.581
    77    C    -5.672    -4.371    -1.057
    78    H    -6.545    -3.934    -1.601
    79    N    -5.344    -3.377    -0.044
    80    C    -5.023    -3.784    1.220
    81    H    -5.014    -4.850    1.388
    82    C    -4.800    -2.905    2.195
    83    H    -4.649    -3.197    3.232
    84    C    -5.254    -2.027    -0.390
    85    O    -5.370    -1.673    -1.574
    86    N    -5.060    -1.126    0.591
    87    C    -4.919    -1.542    1.860
    88    N    -4.944    -0.667    2.834
    89    H    -4.959    0.296    2.572
    90    H    -4.426    -0.852    3.667
    91    C    -4.560    -4.638    -2.006
    92    H    -3.652    -4.017    -1.839
    93    O    -5.112    -4.355    -3.271
    94    H    -5.581    -5.151    -3.561
    95    C    -4.226    -6.127    -1.813
    96    H    -3.282    -6.226    -1.230
    97    O    -4.088    -6.808    -3.114
    98    P    -2.996    -6.462    -4.273
    99    O    -3.054    -7.554    -5.257
    100    O    -1.682    -6.258    -3.614
    101    O    -3.302    -5.114    -5.088
    102    C    -2.880    -4.884    -6.476
    103    H    -3.763    -5.035    -7.135
    104    H    -2.124    -5.630    -6.813
    105    C    -2.316    -3.468    -6.881
    106    H    -2.693    -3.188    -7.888
    107    O    -2.772    -2.420    -5.969
    108    C    -1.696    -1.556    -5.643
    109    H    -2.040    -0.506    -5.780
    110    N    -1.274    -1.762    -4.261
    111    C    -0.482    -1.562    -2.234
    112    N    -0.875    -2.883    -2.359
    113    C    -1.336    -2.949    -3.575
    114    H    -1.738    -3.848    -4.038
    115    N    0.361    0.447    -1.324
    116    C    0.105    0.999    -2.517
    117    H    0.362    2.060    -2.607
    118    N    -0.431    0.442    -3.614
    119    C    -0.709    -0.855    -3.397
    120    C    0.082    -0.870    -1.157
    121    N    0.334    -1.518    -0.010
    122    H    0.671    -1.029    0.800
    123    H    0.044    -2.472    0.130
    124    C    -0.570    -1.846    -6.599
    125    H    0.405    -1.736    -6.095
    126    O    -0.631    -1.008    -7.740
    127    H    0.173    -1.181    -8.249
    128    C    -0.770    -3.321    -6.937
    129    H    -0.369    -3.964    -6.123
    130    O    -0.244    -3.711    -8.226
    131    P    1.285    -4.045    -8.462
    132    O    1.546    -4.069    -9.919
    133    O    1.585    -5.283    -7.708
    134    O    2.102    -2.877    -7.800
    135    C    2.826    -1.853    -8.525
    136    H    2.257    -1.531    -9.426
    137    H    3.802    -2.254    -8.882
    138    C    3.116    -0.570    -7.693
    139    H    2.991    0.334    -8.327
    140    O    2.178    -0.447    -6.593
    141    C    2.830    -0.006    -5.417
    142    H    2.234    0.869    -5.071
    143    N    2.860    -1.014    -4.325
    144    C    2.532    -2.333    -4.555
    145    H    2.264    -2.591    -5.578
    146    C    2.534    -3.236    -3.567
    147    H    2.257    -4.277    -3.721
    148    C    3.228    -0.606    -3.044
    149    O    3.517    0.585    -2.836
    150    N    3.264    -1.516    -2.050
    151    C    2.907    -2.791    -2.271
    152    N    2.903    -3.643    -1.254
    153    H    3.103    -3.282    -0.337
    154    H    2.616    -4.599    -1.350
    155    C    4.205    0.446    -5.822
    156    H    4.966    0.304    -5.025
    157    O    4.160    1.807    -6.212
    158    H    4.981    1.987    -6.692
    159    C    4.487    -0.464    -7.006
    160    H    4.743    -1.490    -6.651
    161    O    5.454    0.096    -7.908
    162    P    6.832    -0.585    -8.170
    163    O    7.482    0.123    -9.297
    164    O    6.622    -2.041    -8.320
    165    O    7.637    -0.323    -6.839
    166    C    8.051    1.019    -6.473
    167    H    7.251    1.768    -6.678
    168    H    8.943    1.307    -7.074
    169    C    8.429    1.141    -4.983
    170    H    8.643    2.197    -4.714
    171    O    7.336    0.694    -4.139
    172    C    7.846    0.007    -3.009
    173    H    7.509    0.602    -2.129
    174    N    7.306    -1.384    -2.913
    175    C    6.793    -2.018    -4.024
    176    H    6.804    -1.434    -4.944
    177    C    7.300    -2.011    -1.687
    178    O    7.727    -1.476    -0.670
    179    N    6.762    -3.271    -1.671
    180    H    6.773    -3.768    -0.790
    181    C    6.228    -3.960    -2.739
    182    O    5.757    -5.084    -2.578
    183    C    6.259    -3.247    -3.979
    184    H    5.834    -3.725    -4.860
    185    C    9.372    0.058    -3.084
    186    H    9.833    -0.889    -2.738
    187    O    9.880    1.137    -2.325
    188    H    10.831    1.173    -2.494
    189    C    9.628    0.289    -4.567
    190    H    9.535    -0.667    -5.132
    191    O    10.845    1.009    -4.874
    192    P    12.209    0.249    -4.982
    193    O    13.036    0.999    -5.954
    194    O    11.937    -1.174    -5.292
    195    O    12.833    0.381    -3.538
    196    C    14.246    0.074    -3.377
    197    H    14.852    0.371    -4.271
    198    H    14.395    -1.025    -3.211
    199    C    14.862    0.825    -2.185
    200    H    15.954    0.613    -2.150
    201    O    14.715    2.264    -2.362
    202    C    14.145    2.838    -1.209
    203    H    15.009    3.186    -0.600
    204    N    13.225    3.949    -1.565
    205    C    12.228    3.744    -2.491
    206    H    12.251    2.768    -2.982
    207    C    13.355    5.158    -0.924
    208    O    14.209    5.363    -0.065
    209    N    12.459    6.123    -1.310
    210    H    12.540    7.015    -0.846
    211    C    11.472    6.011    -2.265
    212    O    10.769    6.982    -2.545
    213    C    11.383    4.715    -2.873
    214    H    10.653    4.562    -3.664
    215    C    13.438    1.737    -0.449
    216    H    12.404    1.608    -0.834
    217    O    13.429    2.048    0.935
    218    H    12.995    1.338    1.443
    219    C    14.258    0.484    -0.806
    220    H    13.526    -0.344    -0.966
    221    O    15.291    0.136    0.153
    222    P    15.581    -1.393    0.426
    223    O    16.630    -1.480    1.466
    224    O    15.865    -2.061    -0.862
    225    O    14.242    -1.983    0.978
    226    C    14.041    -2.314    2.373
    227    H    13.893    -1.372    2.947
    228    H    14.930    -2.822    2.817
    229    C    12.808    -3.223    2.622
    230    H    12.398    -3.014    3.630
    231    O    11.758    -2.989    1.638
    232    C    11.502    -4.192    0.949
    233    H    10.672    -4.675    1.514
    234    N    11.136    -3.963    -0.454
    235    C    11.877    -3.065    -1.176
    236    H    12.649    -2.530    -0.619
    237    C    11.617    -2.839    -2.468
    238    H    12.181    -2.118    -3.054
    239    C    10.121    -4.695    -1.061
    240    O    9.492    -5.533    -0.394
    241    N    9.839    -4.473    -2.370
    242    C    10.557    -3.576    -3.071
    243    N    10.275    -3.369    -4.356
    244    H    10.820    -2.713    -4.891
    245    H    9.584    -3.932    -4.810
    246    C    12.746    -5.029    1.091
    247    H    13.562    -4.655    0.432
    248    O    12.507    -6.407    0.874
    249    H    11.962    -6.697    1.622
    250    C    13.071    -4.748    2.544
    251    H    14.157    -4.934    2.736
    252    O    12.197    -5.496    3.424
    253    P    12.696    -6.269    4.689
    254    O    14.149    -6.534    4.586
    255    O    11.823    -7.457    4.849
    256    O    12.422    -5.267    5.879
    257    C    11.093    -4.755    6.158
    258    H    10.557    -5.446    6.846
    259    H    10.482    -4.663    5.227
    260    C    11.127    -3.354    6.793
    261    H    11.540    -3.396    7.821
    262    O    12.019    -2.516    6.016
    263    C    11.608    -1.176    6.097
    264    H    12.416    -0.671    6.677
    265    N    11.512    -0.566    4.773
    266    C    10.669    -0.845    3.717
    267    N    8.082    -2.633    2.262
    268    H    7.662    -2.698    1.366
    269    H    7.864    -3.297    2.972
    270    N    9.682    -1.769    3.682
    271    C    9.070    -1.795    2.504
    272    N    9.378    -0.959    1.469
    273    H    8.880    -1.072    0.603
    274    C    10.403    -0.034    1.468
    275    O    10.646    0.669    0.488
    276    C    11.061    0.022    2.716
    277    N    12.103    0.833    3.132
    278    C    12.337    0.449    4.358
    279    H    13.112    0.865    5.005
    280    C    10.310    -1.111    6.878
    281    H    9.566    -0.431    6.409
    282    O    10.584    -0.697    8.204
    283    H    9.790    -0.883    8.727
    284    C    9.804    -2.558    6.827
    285    H    9.300    -2.762    5.860
    286    O    8.975    -2.940    7.951
    287    P    7.410    -2.702    7.908
    288    O    6.912    -2.617    9.300
    289    O    6.802    -3.749    7.061
    290    O    7.183    -1.317    7.208
    291    C    6.821    -0.071    7.857
    292    H    7.547    0.147    8.671
    293    H    5.817    -0.156    8.330
    294    C    6.800    1.182    6.910
    295    H    7.408    1.992    7.363
    296    O    7.447    0.854    5.634
    297    C    6.646    1.297    4.554
    298    H    7.333    1.749    3.802
    299    N    5.897    0.183    3.938
    300    C    5.423    0.132    2.654
    301    N    5.045    1.531    -0.491
    302    H    5.511    2.409    -0.398
    303    H    4.583    1.302    -1.350
    304    N    5.561    1.084    1.715
    305    C    4.999    0.734    0.559
    306    N    4.324    -0.444    0.380
    307    H    3.948    -0.654    -0.534
    308    C    4.157    -1.436    1.334
    309    O    3.543    -2.482    1.117
    310    C    4.767    -1.082    2.554
    311    N    4.823    -1.782    3.744
    312    C    5.510    -1.000    4.534
    313    H    5.748    -1.238    5.565
    314    C    5.715    2.350    5.107
    315    H    4.790    2.449    4.502
    316    O    6.362    3.607    5.173
    317    H    5.743    4.206    5.610
    318    C    5.414    1.809    6.508
    319    H    4.675    0.977    6.452
    320    O    5.001    2.826    7.459
    321    P    3.568    3.511    7.440
    322    O    3.552    4.551    8.489
    323    O    2.550    2.446    7.548
    324    O    3.399    4.213    6.041
    325    C    3.474    5.639    5.777
    326    H    4.529    5.963    5.941
    327    H    2.836    6.219    6.479
    328    C    3.109    6.055    4.304
    329    H    3.671    6.981    4.040
    330    O    3.599    5.018    3.404
    331    C    2.685    4.784    2.351
    332    H    3.285    4.922    1.420
    333    N    2.130    3.405    2.363
    334    C    2.223    2.618    3.485
    335    H    2.683    3.086    4.343
    336    C    1.594    2.908    1.195
    337    O    1.529    3.567    0.164
    338    N    1.148    1.611    1.271
    339    H    0.788    1.238    0.399
    340    C    1.193    0.783    2.380
    341    O    0.742    -0.355    2.336
    342    C    1.788    1.358    3.536
    343    H    1.858    0.759    4.442
    344    C    1.615    5.839    2.407
    345    H    0.613    5.444    2.130
    346    O    1.954    6.897    1.532
    347    H    1.159    7.459    1.503
    348    C    1.620    6.299    3.867
    349    H    0.997    5.624    4.493
    350    O    1.227    7.686    4.036
    351    P    -0.174    8.330    3.634
    352    O    -0.012    9.798    3.657
    353    O    -1.201    7.763    4.534
    354    O    -0.512    7.892    2.148
    355    C    -0.965    8.772    1.081
    356    H    -0.137    9.474    0.829
    357    H    -1.827    9.392    1.414
    358    C    -1.364    8.067    -0.275
    359    H    -0.915    8.638    -1.114
    360    O    -0.759    6.740    -0.320
    361    C    -1.712    5.778    -0.730
    362    H    -1.200    5.143    -1.491
    363    N    -2.131    4.904    0.347
    364    C    -2.661    3.658    0.185
    365    N    -3.775    1.060    -1.846
    366    H    -4.263    0.195    -1.729
    367    H    -3.670    1.452    -2.760
    368    N    -2.904    3.030    -0.984
    369    C    -3.431    1.818    -0.813
    370    N    -3.607    1.269    0.429
    371    H    -4.068    0.373    0.475
    372    C    -3.328    1.902    1.639
    373    O    -3.464    1.426    2.763
    374    C    -2.852    3.195    1.460
    375    N    -2.499    4.136    2.410
    376    C    -2.081    5.142    1.700
    377    H    -1.728    6.078    2.117
    378    C    -2.862    6.482    -1.363
    379    H    -3.827    5.948    -1.226
    380    O    -2.578    6.621    -2.744
    381    H    -1.952    7.350    -2.850
    382    C    -2.879    7.837    -0.650
    383    H    -3.440    7.779    0.309
    384    O    -3.388    8.904    -1.485
    385    P    -4.845    8.916    -2.151
    386    O    -4.788    9.782    -3.351
    387    O    -5.775    9.341    -1.092
    388    O    -5.343    7.479    -2.595
    389    C    -5.616    7.113    -3.981
    390    H    -4.711    7.328    -4.596
    391    H    -6.448    7.730    -4.389
    392    C    -5.951    5.595    -4.225
    393    H    -5.435    5.255    -5.148
    394    O    -5.397    4.811    -3.142
    395    C    -6.288    3.818    -2.703
    396    H    -5.712    2.881    -2.888
    397    N    -6.569    3.846    -1.257
    398    C    -6.306    4.983    -0.534
    399    H    -5.932    5.834    -1.105
    400    C    -6.480    5.019    0.792
    401    H    -6.243    5.897    1.387
    402    C    -7.105    2.724    -0.624
    403    O    -7.393    1.714    -1.284
    404    N    -7.287    2.752    0.711
    405    C    -6.965    3.842    1.424
    406    N    -7.098    3.801    2.747
    407    H    -7.647    3.059    3.138
    408    H    -6.883    4.591    3.320
    409    C    -7.523    3.828    -3.553
    410    H    -8.455    3.815    -2.960
    411    O    -7.456    2.679    -4.357
    412    H    -7.116    2.942    -5.222
    413    C    -7.438    5.141    -4.348
    414    H    -8.036    5.927    -3.834
    415    O    -7.811    5.045    -5.736
    416    P    -9.149    4.536    -6.406
    417    O    -9.011    4.824    -7.852
    418    O    -10.316    5.111    -5.701
    419    O    -9.246    2.968    -6.288
    420    C    -10.130    2.162    -7.115
    421    H    -9.512    1.635    -7.876
    422    H    -10.864    2.782    -7.683
    423    C    -10.938    1.059    -6.373
    424    H    -10.997    0.144    -7.000
    425    O    -10.315    0.670    -5.119
    426    C    -11.312    0.368    -4.157
    427    H    -11.161    -0.713    -3.937
    428    N    -11.145    1.150    -2.906
    429    C    -10.759    2.465    -2.990
    430    H    -10.502    2.828    -3.992
    431    C    -10.637    3.221    -1.889
    432    H    -10.334    4.267    -1.932
    433    C    -11.472    0.601    -1.666
    434    O    -11.913    -0.558    -1.618
    435    N    -11.310    1.333    -0.537
    436    C    -10.916    2.617    -0.629
    437    N    -10.803    3.344    0.480
    438    H    -11.101    2.954    1.351
    439    H    -10.618    4.328    0.449
    440    C    -12.688    0.551    -4.793
    441    H    -13.382    1.087    -4.110
    442    O    -13.247    -0.707    -5.147
    443    H    -14.067    -0.562    -5.650
    444    C    -12.379    1.435    -6.008
    445    H    -12.370    2.508    -5.715
    446    O    -13.254    1.225    -7.134
    447    H    -14.183    1.377    -6.881
 $END
