!*** FMO 5.3 (Gamess) INPUT generated by Facio 22.1.1.32 ***
 $CONTRL RUNTYP=ENERGY NPRINT=-5 ISPHER=1 MAXIT=200 $END
 $SYSTEM MWORDS=63 MEMDDI=63 $END
 $GDDI NGROUP=1 $END
 $SCF DIRSCF=.TRUE. NPUNCH=0 $END
!*** NumCPU : 2  MemPerNode : 512MB
 $PCM SOLVNT=WATER IEF=-10 ICOMP=2 ICAV=1 IDISP=1 IFMO=-1 $END
 $PCMCAV RADII=SUAHF $END
 $TESCAV NTSALL=60 $END
 $FMOPRP
    NAODIR=200
    NGRFMO(1)=1, 1, 0, 0, 0,   0, 0, 0, 0, 0
    IPIEDA=1
    NPRINT=9
 $END
 $FMO
      SCFTYP(1)=RHF
      MODGRD=10
      MODMUL=0
      MAXCAO=5
      MAXBND=16
      NLAYER=1
      MPLEVL(1)=2
      NFRAG=14
      ICHARG(1)=-1, -1, -1, -1, -1, -1, -1, -1, -1, -1, -1, -1, -1, 0
      FRGNAM(1)=F1, F2, F3, F4, F5, F6, F7, F8, F9, F10, F11, F12, F13, F14
      indat(1)=0
               1   -36   0
               37   -70   0
               71   -101   0
               102   -134   0
               135   -165   0
               166   -195   0
               196   -225   0
               226   -256   0
               257   -290   0
               291   -324   0
               325   -354   0
               355   -388   0
               389   -419   0
               420   -447   0
 $END

 $FMOBND
   -37   36       6-31G*    MINI
   -71   70       6-31G*    MINI
   -102   101       6-31G*    MINI
   -135   134       6-31G*    MINI
   -166   165       6-31G*    MINI
   -196   195       6-31G*    MINI
   -226   225       6-31G*    MINI
   -257   256       6-31G*    MINI
   -291   290       6-31G*    MINI
   -325   324       6-31G*    MINI
   -355   354       6-31G*    MINI
   -389   388       6-31G*    MINI
   -420   419       6-31G*    MINI
 $END
 $FMOHYB
 6-31G*      15   5
   1 0  -0.065034   0.288264   0.000000   0.000000   0.604412
         0.290129   0.000000   0.000000   0.319045  -0.017106
        -0.017106   0.057934   0.000000   0.000000   0.000000
   0 1  -0.065040   0.288293   0.569832   0.000000  -0.201456
         0.290147   0.300783   0.000000  -0.106342   0.049598
        -0.017106  -0.008771   0.000000  -0.027223   0.000000
   0 1  -0.065039   0.288293  -0.284916  -0.493490  -0.201455
         0.290145  -0.150392  -0.260486  -0.106340  -0.000427
         0.032923  -0.008771   0.033353   0.013612   0.023576
   0 1  -0.065039   0.288293  -0.284916   0.493490  -0.201455
         0.290145  -0.150392   0.260486  -0.106340  -0.000427
         0.032923  -0.008771  -0.033353   0.013612  -0.023576
   0 1   1.010938  -0.011975   0.000000   0.000000   0.000000
        -0.054085   0.000000   0.000000  -0.000000  -0.003174
        -0.003174  -0.003174   0.000000   0.000000   0.000000
 MINI         5   5
   1 0  -0.104883   0.308874   0.000000   0.000000   0.521806
   0 1  -0.104883   0.308874   0.491961   0.000000  -0.173934
   0 1  -0.104883   0.308876  -0.245980  -0.426050  -0.173933
   0 1  -0.104883   0.308876  -0.245980   0.426050  -0.173933
   0 1   0.988209   0.063992   0.000000   0.000000   0.000000
 $END
 
 $DATA
 FMO calculation
 C1 
 H.1-1    1
      N31 6
   
 O.1-1    8
      N31 6
      d 1
      1 0.800 1.0
   
 C.1-1    6
      N31 6
      d 1
      1 0.800 1.0
   
 N.1-1    7
      N31 6
      d 1
      1 0.800 1.0
   
 P.1-1   15
      N31 6
      d 1
      1 0.550 1.0
   
 $END
 $FMOXYZ
    1    H    -17.370    -1.480    7.220
    2    O    -16.627    -1.959    6.808
    3    C    -15.403    -1.545    7.459
    4    H    -15.550    -1.604    8.557
    5    H    -15.234    -0.481    7.188
    6    C    -14.127    -2.354    7.087
    7    H    -13.869    -3.075    7.888
    8    O    -14.458    -3.152    5.892
    9    C    -13.602    -2.820    4.842
    10    H    -13.380    -3.762    4.284
    11    N    -14.169    -1.836    3.896
    12    C    -13.491    -1.348    2.822
    13    N    -10.923    -1.734    0.728
    14    H    -10.570    -1.319    -0.105
    15    H    -10.244    -2.098    1.365
    16    N    -12.264    -1.707    2.478
    17    C    -11.904    -1.173    1.346
    18    N    -12.554    -0.133    0.734
    19    H    -12.146    0.295    -0.080
    20    C    -13.815    0.318    1.110
    21    O    -14.382    1.240    0.510
    22    C    -14.330    -0.444    2.207
    23    N    -15.577    -0.453    2.814
    24    C    -15.442    -1.320    3.802
    25    H    -16.229    -1.628    4.494
    26    C    -12.351    -2.350    5.510
    27    H    -11.723    -1.714    4.861
    28    O    -11.636    -3.488    5.953
    29    H    -10.824    -3.110    6.336
    30    C    -12.826    -1.539    6.698
    31    H    -13.138    -0.526    6.368
    32    O    -11.813    -1.501    7.753
    33    P    -10.857    -0.320    8.229
    34    O    -10.785    -0.455    9.704
    35    O    -11.385    0.969    7.730
    36    O    -9.343    -0.412    7.734
    37    C    -8.342    -1.476    7.700
    38    H    -8.392    -2.045    8.656
    39    H    -7.331    -1.012    7.662
    40    C    -8.461    -2.498    6.497
    41    H    -8.865    -3.436    6.933
    42    O    -9.490    -1.936    5.706
    43    C    -9.066    -1.516    4.469
    44    H    -9.943    -1.831    3.858
    45    N    -9.030    -0.057    4.190
    46    C    -8.916    0.392    2.902
    47    N    -8.764    -0.384    -0.473
    48    H    -8.487    -1.338    -0.437
    49    H    -8.771    0.091    -1.348
    50    N    -8.733    -0.381    1.824
    51    C    -8.863    0.270    0.678
    52    N    -9.322    1.551    0.618
    53    H    -9.250    2.022    -0.264
    54    C    -9.448    2.399    1.715
    55    O    -9.778    3.581    1.577
    56    C    -9.163    1.741    2.943
    57    N    -9.295    2.180    4.254
    58    C    -9.238    1.072    4.966
    59    H    -9.343    1.044    6.048
    60    C    -7.893    -2.336    4.070
    61    H    -7.124    -1.708    3.591
    62    O    -8.407    -3.299    3.163
    63    H    -7.753    -3.999    3.001
    64    C    -7.375    -2.936    5.398
    65    H    -6.415    -2.455    5.683
    66    O    -7.227    -4.375    5.340
    67    P    -6.536    -5.538    4.492
    68    O    -7.246    -6.779    4.863
    69    O    -5.085    -5.513    4.780
    70    O    -6.704    -5.394    2.892
    71    C    -5.940    -6.302    1.971
    72    H    -6.183    -7.360    2.207
    73    H    -4.845    -6.173    2.147
    74    C    -6.149    -6.185    0.373
    75    H    -6.706    -7.086    0.038
    76    O    -7.029    -5.058    0.119
    77    C    -6.347    -4.051    -0.616
    78    H    -7.139    -3.636    -1.283
    79    N    -5.870    -2.934    0.188
    80    C    -5.445    -3.122    1.471
    81    H    -5.379    -4.142    1.797
    82    C    -5.140    -2.133    2.270
    83    H    -4.962    -2.273    3.339
    84    C    -5.670    -1.671    -0.393
    85    O    -5.801    -1.545    -1.607
    86    N    -5.370    -0.637    0.412
    87    C    -5.300    -0.834    1.737
    88    N    -5.477    0.162    2.545
    89    H    -4.962    0.143    3.412
    90    H    -5.602    1.061    2.137
    91    C    -5.291    -4.682    -1.444
    92    H    -4.394    -4.039    -1.589
    93    O    -5.879    -4.965    -2.700
    94    H    -6.488    -5.708    -2.589
    95    C    -4.926    -5.949    -0.650
    96    H    -4.042    -5.742    -0.007
    97    O    -4.659    -7.082    -1.536
    98    P    -3.389    -7.130    -2.527
    99    O    -3.398    -8.420    -3.254
    100    O    -2.190    -6.863    -1.703
    101    O    -3.472    -6.003    -3.634
    102    C    -2.829    -6.149    -4.947
    103    H    -3.539    -6.649    -5.640
    104    H    -1.927    -6.802    -4.898
    105    C    -2.399    -4.842    -5.681
    106    H    -2.779    -4.824    -6.724
    107    O    -2.964    -3.667    -5.003
    108    C    -1.966    -2.696    -4.809
    109    H    -2.375    -1.714    -5.146
    110    N    -1.544    -2.604    -3.401
    111    C    -0.732    -1.966    -1.464
    112    N    -1.026    -3.317    -1.338
    113    C    -1.496    -3.646    -2.510
    114    H    -1.815    -4.647    -2.790
    115    N    -0.037    0.240    -0.965
    116    C    -0.383    0.539    -2.224
    117    H    -0.224    1.584    -2.514
    118    N    -0.909    -0.252    -3.175
    119    C    -1.055    -1.507    -2.723
    120    C    -0.177    -1.042    -0.564
    121    N    0.223    -1.450    0.643
    122    H    0.056    -2.395    0.939
    123    H    0.541    -0.831    1.355
    124    C    -0.828    -3.094    -5.686
    125    H    0.109    -2.871    -5.162
    126    O    -0.942    -2.502    -6.972
    127    H    -0.141    -2.756    -7.445
    128    C    -0.877    -4.604    -5.738
    129    H    -0.449    -5.040    -4.808
    130    O    -0.268    -5.172    -6.928
    131    P    1.288    -5.457    -7.073
    132    O    1.560    -5.843    -8.475
    133    O    1.642    -6.454    -6.043
    134    O    2.080    -4.142    -6.739
    135    C    2.580    -3.119    -7.635
    136    H    2.046    -3.163    -8.609
    137    H    3.652    -3.314    -7.857
    138    C    2.465    -1.641    -7.108
    139    H    2.001    -1.021    -7.908
    140    O    1.560    -1.587    -6.017
    141    C    2.006    -0.817    -4.937
    142    H    1.131    -0.179    -4.678
    143    N    2.361    -1.624    -3.739
    144    C    2.381    -2.997    -3.812
    145    H    2.150    -3.429    -4.771
    146    C    2.633    -3.764    -2.777
    147    H    2.606    -4.855    -2.818
    148    C    2.648    -1.010    -2.514
    149    O    2.647    0.223    -2.454
    150    N    2.896    -1.788    -1.432
    151    C    2.842    -3.133    -1.547
    152    N    2.921    -3.931    -0.527
    153    H    2.587    -3.516    0.329
    154    H    3.782    -4.410    -0.357
    155    C    3.104    0.031    -5.471
    156    H    3.868    0.274    -4.701
    157    O    2.540    1.227    -5.977
    158    H    3.209    1.668    -6.526
    159    C    3.680    -0.865    -6.582
    160    H    4.363    -1.623    -6.165
    161    O    4.287    -0.189    -7.672
    162    P    5.246    1.038    -7.691
    163    O    4.424    2.226    -8.022
    164    O    6.367    0.696    -8.588
    165    O    5.813    1.211    -6.226
    166    C    5.856    2.524    -5.610
    167    H    4.831    2.963    -5.557
    168    H    6.482    3.216    -6.220
    169    C    6.454    2.529    -4.181
    170    H    6.321    3.532    -3.720
    171    O    5.764    1.591    -3.317
    172    C    6.693    0.858    -2.543
    173    H    6.407    1.060    -1.485
    174    N    6.610    -0.605    -2.836
    175    C    6.106    -1.082    -4.013
    176    H    5.779    -0.316    -4.700
    177    C    6.968    -1.470    -1.846
    178    O    7.323    -1.068    -0.758
    179    N    6.854    -2.810    -2.147
    180    H    7.196    -3.479    -1.480
    181    C    6.316    -3.350    -3.288
    182    O    6.161    -4.565    -3.389
    183    C    5.933    -2.388    -4.266
    184    H    5.484    -2.762    -5.180
    185    C    8.091    1.436    -2.777
    186    H    8.847    0.629    -2.871
    187    O    8.486    2.311    -1.734
    188    H    9.374    2.622    -1.982
    189    C    7.942    2.176    -4.106
    190    H    8.121    1.493    -4.959
    191    O    8.697    3.389    -4.228
    192    P    10.226    3.537    -4.463
    193    O    10.452    4.988    -4.693
    194    O    10.661    2.625    -5.535
    195    O    10.957    3.140    -3.106
    196    C    12.419    3.123    -3.250
    197    H    12.799    3.925    -3.936
    198    H    12.749    2.147    -3.676
    199    C    13.200    3.354    -1.949
    200    H    14.268    3.550    -2.200
    201    O    12.699    4.533    -1.252
    202    C    12.458    4.238    0.102
    203    H    13.367    4.553    0.662
    204    N    11.217    4.941    0.574
    205    C    10.058    4.881    -0.171
    206    H    10.150    4.357    -1.123
    207    C    11.232    5.579    1.799
    208    O    12.217    5.612    2.515
    209    N    10.046    6.185    2.149
    210    H    10.046    6.662    3.040
    211    C    8.865    6.193    1.445
    212    O    7.888    6.797    1.888
    213    C    8.915    5.483    0.202
    214    H    8.022    5.465    -0.419
    215    C    12.311    2.738    0.190
    216    H    11.252    2.505    -0.042
    217    O    12.712    2.247    1.457
    218    H    12.667    1.273    1.435
    219    C    13.162    2.180    -0.960
    220    H    12.561    1.371    -1.444
    221    O    14.494    1.723    -0.591
    222    P    15.079    0.372    -1.198
    223    O    16.371    0.089    -0.532
    224    O    15.112    0.493    -2.675
    225    O    14.058    -0.761    -0.820
    226    C    14.501    -2.001    -0.205
    227    H    14.868    -1.783    0.826
    228    H    15.350    -2.450    -0.769
    229    C    13.386    -3.080    -0.063
    230    H    13.264    -3.306    1.009
    231    O    12.099    -2.627    -0.605
    232    C    11.792    -3.421    -1.736
    233    H    11.098    -4.208    -1.362
    234    N    11.158    -2.643    -2.808
    235    C    11.551    -1.346    -3.020
    236    H    12.335    -0.974    -2.355
    237    C    10.977    -0.602    -3.972
    238    H    11.260    0.433    -4.154
    239    C    10.129    -3.205    -3.557
    240    O    9.749    -4.358    -3.300
    241    N    9.546    -2.472    -4.531
    242    C    9.946    -1.209    -4.751
    243    N    9.355    -0.515    -5.714
    244    H    9.677    0.396    -5.978
    245    H    8.664    -0.962    -6.277
    246    C    13.104    -4.058    -2.129
    247    H    13.793    -3.305    -2.577
    248    O    12.983    -5.184    -2.973
    249    H    12.463    -5.838    -2.485
    250    C    13.573    -4.450    -0.748
    251    H    14.640    -4.756    -0.726
    252    O    12.732    -5.393    -0.051
    253    P    12.679    -6.932    -0.079
    254    O    13.983    -7.440    -0.548
    255    O    11.500    -7.345    -0.877
    256    O    12.465    -7.325    1.449
    257    C    11.303    -6.951    2.261
    258    H    10.799    -7.881    2.594
    259    H    10.582    -6.380    1.646
    260    C    11.627    -6.096    3.544
    261    H    12.154    -6.743    4.277
    262    O    12.608    -5.109    3.104
    263    C    12.535    -3.952    3.900
    264    H    13.553    -3.877    4.347
    265    N    12.259    -2.736    3.146
    266    C    11.184    -2.398    2.348
    267    N    8.104    -3.109    0.934
    268    H    7.420    -2.574    0.445
    269    H    7.916    -4.037    1.250
    270    N    10.097    -3.154    2.065
    271    C    9.230    -2.531    1.302
    272    N    9.368    -1.237    0.931
    273    H    8.701    -0.854    0.284
    274    C    10.433    -0.436    1.211
    275    O    10.391    0.723    0.822
    276    C    11.428    -1.097    1.964
    277    N    12.640    -0.635    2.463
    278    C    13.094    -1.643    3.163
    279    H    14.039    -1.654    3.712
    280    C    11.508    -4.164    4.972
    281    H    10.956    -3.234    5.235
    282    O    12.159    -4.690    6.112
    283    H    11.476    -5.107    6.658
    284    C    10.574    -5.194    4.361
    285    H    9.885    -4.780    3.619
    286    O    9.788    -5.846    5.379
    287    P    8.618    -5.209    6.304
    288    O    8.859    -5.731    7.668
    289    O    7.342    -5.612    5.678
    290    O    8.589    -3.595    6.439
    291    C    7.569    -2.844    7.268
    292    H    7.764    -3.033    8.344
    293    H    6.545    -3.234    7.071
    294    C    7.490    -1.227    7.119
    295    H    8.115    -0.782    7.920
    296    O    8.188    -0.974    5.866
    297    C    7.325    -0.365    4.933
    298    H    7.958    0.236    4.240
    299    N    6.526    -1.323    4.167
    300    C    5.801    -0.996    3.062
    301    N    4.750    1.281    0.664
    302    H    4.152    1.318    -0.129
    303    H    5.257    2.102    0.932
    304    N    5.723    0.210    2.469
    305    C    4.908    0.209    1.413
    306    N    4.079    -0.849    1.126
    307    H    3.533    -0.840    0.281
    308    C    4.054    -2.031    1.856
    309    O    3.250    -2.933    1.714
    310    C    5.084    -2.127    2.780
    311    N    5.443    -3.191    3.582
    312    C    6.308    -2.667    4.392
    313    H    6.821    -3.247    5.139
    314    C    6.434    0.537    5.717
    315    H    5.488    0.798    5.190
    316    O    7.153    1.722    6.029
    317    H    6.648    2.194    6.707
    318    C    6.128    -0.298    6.958
    319    H    5.287    -1.002    6.771
    320    O    5.797    0.603    8.065
    321    P    4.558    1.653    8.235
    322    O    4.832    2.378    9.494
    323    O    3.322    0.842    8.227
    324    O    4.435    2.792    7.077
    325    C    3.456    3.942    7.157
    326    H    3.727    4.589    8.019
    327    H    2.438    3.557    7.369
    328    C    3.286    4.968    5.898
    329    H    3.925    5.854    6.108
    330    O    3.908    4.279    4.783
    331    C    3.004    4.104    3.711
    332    H    3.643    4.235    2.807
    333    N    2.393    2.770    3.618
    334    C    2.514    1.834    4.609
    335    H    3.047    2.152    5.495
    336    C    1.734    2.491    2.439
    337    O    1.640    3.284    1.517
    338    N    1.193    1.239    2.375
    339    H    0.689    1.075    1.522
    340    C    1.243    0.263    3.353
    341    O    0.674    -0.806    3.186
    342    C    1.984    0.611    4.518
    343    H    2.064    -0.113    5.326
    344    C    1.987    5.186    3.761
    345    H    0.987    4.903    3.363
    346    O    2.527    6.258    3.004
    347    H    3.117    6.758    3.584
    348    C    1.873    5.513    5.247
    349    H    1.068    4.910    5.725
    350    O    1.577    6.941    5.391
    351    P    0.299    7.755    4.750
    352    O    0.555    9.183    5.011
    353    O    -0.910    7.203    5.409
    354    O    0.078    7.599    3.159
    355    C    -0.880    8.307    2.262
    356    H    -0.699    9.403    2.347
    357    H    -1.921    8.106    2.589
    358    C    -0.818    7.950    0.678
    359    H    -0.129    8.676    0.200
    360    O    -0.156    6.677    0.627
    361    C    -1.080    5.673    0.286
    362    H    -0.413    4.935    -0.220
    363    N    -1.686    4.908    1.319
    364    C    -2.305    3.735    1.014
    365    N    -3.294    1.316    -1.281
    366    H    -3.890    0.518    -1.264
    367    H    -3.009    1.720    -2.148
    368    N    -2.428    3.177    -0.214
    369    C    -3.012    1.997    -0.182
    370    N    -3.274    1.352    0.995
    371    H    -3.789    0.497    0.930
    372    C    -3.095    1.899    2.276
    373    O    -3.304    1.311    3.336
    374    C    -2.676    3.226    2.223
    375    N    -2.428    4.122    3.254
    376    C    -1.832    5.118    2.660
    377    H    -1.486    6.017    3.159
    378    C    -2.089    6.209    -0.619
    379    H    -3.117    5.802    -0.492
    380    O    -1.567    5.848    -1.879
    381    H    -1.139    6.636    -2.235
    382    C    -2.100    7.713    -0.330
    383    H    -2.997    8.007    0.258
    384    O    -2.097    8.434    -1.604
    385    P    -3.112    8.284    -2.888
    386    O    -2.383    8.803    -4.069
    387    O    -4.357    9.006    -2.547
    388    O    -3.562    6.786    -3.244
    389    C    -4.189    6.232    -4.453
    390    H    -3.731    6.692    -5.355
    391    H    -5.268    6.504    -4.461
    392    C    -4.083    4.646    -4.671
    393    H    -3.152    4.460    -5.241
    394    O    -3.924    3.966    -3.400
    395    C    -5.126    3.305    -3.069
    396    H    -4.821    2.234    -3.030
    397    N    -5.706    3.710    -1.774
    398    C    -5.477    4.983    -1.322
    399    H    -4.792    5.570    -1.923
    400    C    -5.993    5.416    -0.165
    401    H    -5.797    6.414    0.228
    402    C    -6.633    2.903    -1.123
    403    O    -7.022    1.848    -1.653
    404    N    -7.098    3.298    0.075
    405    C    -6.805    4.514    0.565
    406    N    -7.282    4.849    1.757
    407    H    -8.037    4.296    2.102
    408    H    -7.144    5.762    2.152
    409    C    -6.113    3.490    -4.165
    410    H    -6.825    4.325    -3.980
    411    O    -6.780    2.273    -4.260
    412    H    -6.928    1.916    -3.365
    413    C    -5.235    3.785    -5.367
    414    H    -5.781    4.445    -6.078
    415    O    -4.756    2.587    -6.066
    416    P    -5.642    1.571    -6.957
    417    O    -4.739    0.978    -7.953
    418    O    -6.816    2.289    -7.514
    419    O    -6.221    0.332    -6.115
    420    C    -6.725    -0.829    -6.870
    421    H    -5.946    -1.623    -6.818
    422    H    -6.878    -0.614    -7.959
    423    C    -8.068    -1.509    -6.415
    424    H    -8.003    -2.600    -6.608
    425    O    -8.318    -1.377    -4.991
    426    C    -9.700    -1.141    -4.743
    427    H    -10.034    -1.998    -4.113
    428    N    -9.916    0.121    -4.006
    429    C    -9.283    1.219    -4.495
    430    H    -8.536    1.035    -5.277
    431    C    -9.446    2.425    -3.937
    432    H    -8.893    3.298    -4.278
    433    C    -10.873    0.278    -3.002
    434    O    -11.606    -0.676    -2.705
    435    N    -10.963    1.467    -2.348
    436    C    -10.261    2.527    -2.793
    437    N    -10.315    3.692    -2.154
    438    H    -10.999    3.833    -1.441
    439    H    -9.787    4.483    -2.469
    440    C    -10.461    -1.177    -6.060
    441    H    -11.148    -0.305    -6.154
    442    O    -11.217    -2.373    -6.174
    443    H    -11.656    -2.397    -7.041
    444    C    -9.345    -1.033    -7.111
    445    H    -9.180    0.042    -7.340
    446    O    -9.569    -1.777    -8.326
    447    H    -10.424    -1.534    -8.715
 $END
