!*** FMO 5.3 (Gamess) INPUT generated by Facio 22.1.1.32 ***
 $CONTRL RUNTYP=ENERGY NPRINT=-5 ISPHER=1 MAXIT=200 $END
 $SYSTEM MWORDS=63 MEMDDI=63 $END
 $GDDI NGROUP=1 $END
 $SCF DIRSCF=.TRUE. NPUNCH=0 $END
!*** NumCPU : 2  MemPerNode : 512MB
 $PCM SOLVNT=WATER IEF=-10 ICOMP=2 ICAV=1 IDISP=1 IFMO=-1 $END
 $PCMCAV RADII=SUAHF $END
 $TESCAV NTSALL=60 $END
 $FMOPRP
    NAODIR=200
    NGRFMO(1)=1, 1, 0, 0, 0,   0, 0, 0, 0, 0
    IPIEDA=1
    NPRINT=9
 $END
 $FMO
      SCFTYP(1)=RHF
      MODGRD=10
      MODMUL=0
      MAXCAO=5
      MAXBND=16
      NLAYER=1
      MPLEVL(1)=2
      NFRAG=14
      ICHARG(1)=-1, -1, -1, -1, -1, -1, -1, -1, -1, -1, -1, -1, -1, 0
      FRGNAM(1)=F1, F2, F3, F4, F5, F6, F7, F8, F9, F10, F11, F12, F13, F14
      indat(1)=0
               1   -36   0
               37   -70   0
               71   -101   0
               102   -134   0
               135   -165   0
               166   -195   0
               196   -225   0
               226   -256   0
               257   -290   0
               291   -324   0
               325   -354   0
               355   -388   0
               389   -419   0
               420   -447   0
 $END

 $FMOBND
   -37   36       6-31G*    MINI
   -71   70       6-31G*    MINI
   -102   101       6-31G*    MINI
   -135   134       6-31G*    MINI
   -166   165       6-31G*    MINI
   -196   195       6-31G*    MINI
   -226   225       6-31G*    MINI
   -257   256       6-31G*    MINI
   -291   290       6-31G*    MINI
   -325   324       6-31G*    MINI
   -355   354       6-31G*    MINI
   -389   388       6-31G*    MINI
   -420   419       6-31G*    MINI
 $END
 $FMOHYB
 6-31G*      15   5
   1 0  -0.065034   0.288264   0.000000   0.000000   0.604412
         0.290129   0.000000   0.000000   0.319045  -0.017106
        -0.017106   0.057934   0.000000   0.000000   0.000000
   0 1  -0.065040   0.288293   0.569832   0.000000  -0.201456
         0.290147   0.300783   0.000000  -0.106342   0.049598
        -0.017106  -0.008771   0.000000  -0.027223   0.000000
   0 1  -0.065039   0.288293  -0.284916  -0.493490  -0.201455
         0.290145  -0.150392  -0.260486  -0.106340  -0.000427
         0.032923  -0.008771   0.033353   0.013612   0.023576
   0 1  -0.065039   0.288293  -0.284916   0.493490  -0.201455
         0.290145  -0.150392   0.260486  -0.106340  -0.000427
         0.032923  -0.008771  -0.033353   0.013612  -0.023576
   0 1   1.010938  -0.011975   0.000000   0.000000   0.000000
        -0.054085   0.000000   0.000000  -0.000000  -0.003174
        -0.003174  -0.003174   0.000000   0.000000   0.000000
 MINI         5   5
   1 0  -0.104883   0.308874   0.000000   0.000000   0.521806
   0 1  -0.104883   0.308874   0.491961   0.000000  -0.173934
   0 1  -0.104883   0.308876  -0.245980  -0.426050  -0.173933
   0 1  -0.104883   0.308876  -0.245980   0.426050  -0.173933
   0 1   0.988209   0.063992   0.000000   0.000000   0.000000
 $END
 
 $DATA
 FMO calculation
 C1 
 H.1-1    1
      N31 6
   
 O.1-1    8
      N31 6
      d 1
      1 0.800 1.0
   
 C.1-1    6
      N31 6
      d 1
      1 0.800 1.0
   
 N.1-1    7
      N31 6
      d 1
      1 0.800 1.0
   
 P.1-1   15
      N31 6
      d 1
      1 0.550 1.0
   
 $END
 $FMOXYZ
    1    H    -11.577    -2.020    9.651
    2    O    -11.858    -2.190    8.732
    3    C    -12.637    -3.397    8.742
    4    H    -13.427    -3.299    9.520
    5    H    -11.985    -4.264    9.019
    6    C    -13.328    -3.703    7.399
    7    H    -14.149    -4.438    7.549
    8    O    -13.916    -2.500    6.812
    9    C    -13.710    -2.509    5.403
    10    H    -14.718    -2.419    4.936
    11    N    -12.863    -1.383    4.966
    12    C    -12.718    -0.923    3.679
    13    N    -13.476    -1.139    0.300
    14    H    -14.120    -1.902    0.278
    15    H    -13.204    -0.703    -0.556
    16    N    -13.338    -1.416    2.590
    17    C    -12.991    -0.772    1.474
    18    N    -12.139    0.303    1.457
    19    H    -11.966    0.755    0.575
    20    C    -11.520    0.859    2.572
    21    O    -10.783    1.846    2.458
    22    C    -11.850    0.149    3.762
    23    N    -11.444    0.354    5.077
    24    C    -12.075    -0.577    5.757
    25    H    -12.006    -0.728    6.837
    26    C    -13.109    -3.848    5.026
    27    H    -12.391    -3.768    4.185
    28    O    -14.115    -4.783    4.688
    29    H    -13.676    -5.644    4.659
    30    C    -12.402    -4.249    6.307
    31    H    -11.453    -3.667    6.413
    32    O    -12.253    -5.683    6.450
    33    P    -10.820    -6.297    6.299
    34    O    -10.867    -7.691    6.791
    35    O    -9.852    -5.390    6.952
    36    O    -10.544    -6.301    4.751
    37    C    -11.157    -7.269    3.872
    38    H    -12.260    -7.325    4.033
    39    H    -10.730    -8.281    4.050
    40    C    -10.937    -6.894    2.401
    41    H    -11.444    -7.628    1.734
    42    O    -11.570    -5.592    2.161
    43    C    -10.779    -4.852    1.235
    44    H    -11.465    -4.494    0.433
    45    N    -10.141    -3.682    1.872
    46    C    -9.588    -2.598    1.239
    47    N    -8.735    -0.938    -1.677
    48    H    -9.061    -1.563    -2.381
    49    H    -8.219    -0.122    -1.952
    50    N    -9.521    -2.412    -0.088
    51    C    -8.915    -1.271    -0.413
    52    N    -8.456    -0.373    0.514
    53    H    -8.026    0.474    0.179
    54    C    -8.540    -0.521    1.894
    55    O    -8.099    0.351    2.649
    56    C    -9.141    -1.763    2.247
    57    N    -9.391    -2.323    3.494
    58    C    -9.981    -3.460    3.220
    59    H    -10.349    -4.178    3.949
    60    C    -9.767    -5.824    0.660
    61    H    -8.841    -5.331    0.298
    62    O    -10.391    -6.536    -0.399
    63    H    -9.764    -7.181    -0.758
    64    C    -9.485    -6.703    1.886
    65    H    -8.959    -6.111    2.668
    66    O    -8.818    -7.960    1.601
    67    P    -7.355    -8.323    2.118
    68    O    -7.212    -9.797    2.144
    69    O    -7.060    -7.610    3.377
    70    O    -6.354    -7.751    1.041
    71    C    -6.108    -8.440    -0.214
    72    H    -7.012    -9.006    -0.545
    73    H    -5.285    -9.178    -0.083
    74    C    -5.742    -7.488    -1.385
    75    H    -6.066    -7.953    -2.342
    76    O    -6.512    -6.265    -1.247
    77    C    -5.745    -5.155    -1.657
    78    H    -6.350    -4.706    -2.476
    79    N    -5.596    -4.125    -0.602
    80    C    -5.709    -4.497    0.717
    81    H    -5.883    -5.552    0.915
    82    C    -5.653    -3.598    1.696
    83    H    -5.803    -3.848    2.743
    84    C    -5.338    -2.791    -0.933
    85    O    -5.184    -2.476    -2.123
    86    N    -5.272    -1.868    0.055
    87    C    -5.507    -2.249    1.325
    88    N    -5.677    -1.358    2.266
    89    H    -5.642    -0.406    1.968
    90    H    -5.237    -1.499    3.153
    91    C    -4.436    -5.653    -2.234
    92    H    -3.576    -4.993    -1.984
    93    O    -4.587    -5.750    -3.639
    94    H    -3.718    -6.022    -3.995
    95    C    -4.261    -7.037    -1.588
    96    H    -3.816    -6.942    -0.572
    97    O    -3.535    -8.012    -2.379
    98    P    -2.062    -7.891    -2.946
    99    O    -1.735    -9.150    -3.649
    100    O    -1.161    -7.484    -1.850
    101    O    -2.089    -6.729    -4.002
    102    C    -1.572    -6.761    -5.358
    103    H    -2.301    -7.309    -6.000
    104    H    -0.612    -7.319    -5.414
    105    C    -1.342    -5.344    -5.996
    106    H    -1.754    -5.337    -7.028
    107    O    -2.101    -4.353    -5.239
    108    C    -1.319    -3.217    -4.973
    109    H    -1.949    -2.332    -5.231
    110    N    -0.946    -3.133    -3.575
    111    C    -0.384    -2.374    -1.622
    112    N    -0.430    -3.755    -1.493
    113    C    -0.763    -4.159    -2.680
    114    H    -0.878    -5.201    -2.957
    115    N    -0.059    -0.079    -1.124
    116    C    -0.370    0.158    -2.402
    117    H    -0.350    1.210    -2.716
    118    N    -0.705    -0.717    -3.362
    119    C    -0.693    -1.976    -2.893
    120    C    -0.043    -1.369    -0.723
    121    N    0.340    -1.722    0.479
    122    H    1.147    -1.324    0.899
    123    H    -0.296    -2.187    1.104
    124    C    -0.129    -3.256    -5.868
    125    H    0.754    -2.774    -5.415
    126    O    -0.447    -2.601    -7.078
    127    H    -0.955    -3.215    -7.628
    128    C    0.107    -4.750    -6.073
    129    H    0.681    -5.192    -5.227
    130    O    0.728    -5.060    -7.332
    131    P    2.126    -4.527    -7.872
    132    O    2.002    -4.353    -9.334
    133    O    3.142    -5.494    -7.412
    134    O    2.504    -3.140    -7.214
    135    C    2.948    -1.967    -7.952
    136    H    2.308    -1.818    -8.851
    137    H    3.991    -2.110    -8.315
    138    C    2.907    -0.618    -7.151
    139    H    2.537    0.197    -7.807
    140    O    1.973    -0.711    -6.040
    141    C    2.514    -0.117    -4.872
    142    H    1.731    0.602    -4.536
    143    N    2.754    -1.086    -3.771
    144    C    2.769    -2.438    -4.028
    145    H    2.652    -2.723    -5.067
    146    C    2.909    -3.341    -3.054
    147    H    2.878    -4.414    -3.236
    148    C    2.998    -0.630    -2.477
    149    O    3.056    0.590    -2.251
    150    N    3.170    -1.533    -1.486
    151    C    3.105    -2.851    -1.738
    152    N    3.235    -3.704    -0.734
    153    H    3.353    -3.325    0.190
    154    H    3.183    -4.695    -0.845
    155    C    3.754    0.642    -5.265
    156    H    4.538    0.636    -4.476
    157    O    3.410    1.979    -5.575
    158    H    4.156    2.355    -6.065
    159    C    4.219    -0.118    -6.498
    160    H    4.782    -1.032    -6.197
    161    O    4.943    0.732    -7.408
    162    P    6.489    0.623    -7.592
    163    O    6.899    1.708    -8.509
    164    O    6.778    -0.766    -8.005
    165    O    7.104    0.864    -6.165
    166    C    7.628    2.140    -5.737
    167    H    6.833    2.917    -5.787
    168    H    8.482    2.460    -6.386
    169    C    8.130    2.088    -4.280
    170    H    8.402    3.102    -3.916
    171    O    7.083    1.566    -3.404
    172    C    7.673    0.773    -2.383
    173    H    7.346    1.226    -1.420
    174    N    7.231    -0.654    -2.452
    175    C    6.735    -1.195    -3.614
    176    H    6.643    -0.500    -4.445
    177    C    7.352    -1.430    -1.328
    178    O    7.799    -0.989    -0.278
    179    N    6.923    -2.726    -1.442
    180    H    7.117    -3.336    -0.667
    181    C    6.452    -3.340    -2.581
    182    O    6.130    -4.526    -2.560
    183    C    6.348    -2.475    -3.717
    184    H    5.962    -2.891    -4.645
    185    C    9.182    0.922    -2.519
    186    H    9.735    0.014    -2.198
    187    O    9.627    2.047    -1.778
    188    H    10.588    2.061    -1.819
    189    C    9.318    1.150    -4.020
    190    H    9.077    0.219    -4.582
    191    O    10.565    1.757    -4.431
    192    P    11.769    0.812    -4.816
    193    O    12.575    1.499    -5.851
    194    O    11.277    -0.544    -5.150
    195    O    12.616    0.705    -3.483
    196    C    13.932    0.087    -3.566
    197    H    14.449    0.321    -4.532
    198    H    13.844    -1.020    -3.500
    199    C    14.876    0.561    -2.450
    200    H    15.882    0.109    -2.606
    201    O    15.036    2.003    -2.526
    202    C    14.686    2.585    -1.293
    203    H    15.655    2.715    -0.751
    204    N    13.970    3.865    -1.502
    205    C    12.875    3.906    -2.336
    206    H    12.657    2.974    -2.859
    207    C    14.388    4.988    -0.830
    208    O    15.354    4.988    -0.061
    209    N    13.657    6.117    -1.075
    210    H    13.995    6.959    -0.637
    211    C    12.568    6.247    -1.913
    212    O    12.028    7.343    -2.054
    213    C    12.175    5.029    -2.559
    214    H    11.337    5.056    -3.251
    215    C    13.841    1.582    -0.535
    216    H    12.775    1.637    -0.849
    217    O    13.962    1.780    0.863
    218    H    13.461    1.088    1.322
    219    C    14.432    0.252    -1.000
    220    H    13.607    -0.496    -1.052
    221    O    15.533    -0.194    -0.178
    222    P    15.724    -1.718    0.177
    223    O    16.811    -1.815    1.177
    224    O    15.898    -2.470    -1.084
    225    O    14.368    -2.176    0.811
    226    C    14.173    -2.400    2.224
    227    H    14.102    -1.416    2.741
    228    H    15.026    -2.962    2.678
    229    C    12.868    -3.176    2.539
    230    H    12.542    -2.952    3.576
    231    O    11.791    -2.807    1.630
    232    C    11.378    -3.960    0.926
    233    H    10.526    -4.365    1.518
    234    N    10.980    -3.664    -0.454
    235    C    11.762    -2.813    -1.188
    236    H    12.592    -2.354    -0.649
    237    C    11.458    -2.520    -2.457
    238    H    12.037    -1.822    -3.053
    239    C    9.882    -4.292    -1.033
    240    O    9.195    -5.070    -0.350
    241    N    9.576    -4.023    -2.324
    242    C    10.315    -3.149    -3.026
    243    N    9.960    -2.847    -4.271
    244    H    10.438    -2.102    -4.760
    245    H    9.200    -3.325    -4.705
    246    C    12.522    -4.936    0.984
    247    H    13.335    -4.655    0.280
    248    O    12.108    -6.271    0.775
    249    H    11.594    -6.511    1.562
    250    C    12.975    -4.712    2.410
    251    H    14.048    -4.994    2.495
    252    O    12.125    -5.410    3.349
    253    P    12.699    -6.218    4.558
    254    O    14.117    -6.562    4.294
    255    O    11.792    -7.359    4.821
    256    O    12.603    -5.212    5.767
    257    C    11.323    -4.633    6.145
    258    H    10.784    -5.323    6.829
    259    H    10.661    -4.467    5.261
    260    C    11.485    -3.263    6.834
    261    H    11.975    -3.369    7.824
    262    O    12.360    -2.434    6.020
    263    C    12.020    -1.077    6.176
    264    H    12.884    -0.635    6.724
    265    N    11.881    -0.394    4.887
    266    C    10.962    -0.585    3.879
    267    N    8.197    -2.201    2.565
    268    H    7.684    -2.206    1.716
    269    H    7.982    -2.854    3.286
    270    N    9.936    -1.457    3.878
    271    C    9.246    -1.418    2.748
    272    N    9.528    -0.555    1.723
    273    H    8.961    -0.609    0.894
    274    C    10.576    0.348    1.689
    275    O    10.784    1.086    0.722
    276    C    11.320    0.315    2.892
    277    N    12.423    1.060    3.272
    278    C    12.720    0.606    4.462
    279    H    13.556    0.964    5.069
    280    C    10.778    -0.988    7.040
    281    H    10.029    -0.266    6.647
    282    O    11.157    -0.628    8.355
    283    H    10.397    -0.804    8.932
    284    C    10.208    -2.406    6.990
    285    H    9.629    -2.556    6.053
    286    O    9.445    -2.771    8.169
    287    P    7.870    -2.570    8.175
    288    O    7.407    -2.536    9.579
    289    O    7.262    -3.606    7.314
    290    O    7.582    -1.166    7.533
    291    C    7.099    -0.011    8.276
    292    H    7.903    0.320    8.971
    293    H    6.211    -0.265    8.898
    294    C    6.741    1.238    7.400
    295    H    7.142    2.141    7.907
    296    O    7.423    1.127    6.103
    297    C    6.534    1.497    5.062
    298    H    7.124    2.075    4.314
    299    N    5.918    0.325    4.408
    300    C    5.413    0.272    3.135
    301    N    4.773    1.740    0.051
    302    H    4.303    1.502    -0.799
    303    H    5.165    2.655    0.162
    304    N    5.414    1.270    2.230
    305    C    4.839    0.910    1.079
    306    N    4.252    -0.313    0.891
    307    H    3.853    -0.522    -0.012
    308    C    4.218    -1.345    1.819
    309    O    3.663    -2.424    1.603
    310    C    4.879    -0.996    3.010
    311    N    5.072    -1.743    4.157
    312    C    5.704    -0.925    4.956
    313    H    6.024    -1.180    5.962
    314    C    5.502    2.378    5.722
    315    H    4.577    2.503    5.122
    316    O    6.102    3.640    5.972
    317    H    6.954    3.478    6.407
    318    C    5.249    1.580    7.012
    319    H    4.739    0.622    6.781
    320    O    4.541    2.300    8.053
    321    P    2.953    2.288    8.250
    322    O    2.688    2.933    9.555
    323    O    2.448    0.901    8.109
    324    O    2.259    3.149    7.131
    325    C    2.191    4.591    7.043
    326    H    3.197    5.003    7.297
    327    H    1.467    4.998    7.780
    328    C    1.865    5.153    5.607
    329    H    2.327    6.159    5.530
    330    O    2.574    4.300    4.658
    331    C    1.803    4.066    3.501
    332    H    2.486    4.339    2.662
    333    N    1.408    2.649    3.323
    334    C    1.551    1.757    4.352
    335    H    1.864    2.174    5.293
    336    C    1.003    2.229    2.076
    337    O    0.948    2.988    1.112
    338    N    0.678    0.894    1.993
    339    H    0.339    0.596    1.089
    340    C    0.726    -0.027    3.048
    341    O    0.287    -1.166    2.959
    342    C    1.264    0.465    4.250
    343    H    1.305    -0.208    5.104
    344    C    0.639    5.022    3.520
    345    H    -0.277    4.624    3.035
    346    O    1.080    6.191    2.865
    347    H    1.605    6.698    3.499
    348    C    0.404    5.307    5.004
    349    H    -0.220    4.513    5.472
    350    O    -0.164    6.627    5.237
    351    P    -1.482    7.300    4.600
    352    O    -1.401    8.748    4.891
    353    O    -2.659    6.602    5.159
    354    O    -1.557    7.130    3.021
    355    C    -2.009    8.101    2.018
    356    H    -1.321    8.977    2.063
    357    H    -3.020    8.484    2.260
    358    C    -1.988    7.637    0.485
    359    H    -1.353    8.362    -0.065
    360    O    -1.260    6.381    0.438
    361    C    -1.989    5.388    -0.239
    362    H    -1.224    4.850    -0.846
    363    N    -2.586    4.386    0.610
    364    C    -3.032    3.172    0.163
    365    N    -3.573    0.856    -2.381
    366    H    -3.913    -0.074    -2.484
    367    H    -3.270    1.355    -3.193
    368    N    -3.020    2.717    -1.111
    369    C    -3.476    1.465    -1.209
    370    N    -3.807    0.714    -0.112
    371    H    -4.177    -0.212    -0.252
    372    C    -3.753    1.176    1.203
    373    O    -3.992    0.526    2.209
    374    C    -3.417    2.518    1.297
    375    N    -3.316    3.319    2.422
    376    C    -2.815    4.426    1.963
    377    H    -2.594    5.294    2.569
    378    C    -2.980    6.029    -1.123
    379    H    -3.917    5.452    -1.241
    380    O    -2.342    6.173    -2.375
    381    H    -1.920    7.044    -2.374
    382    C    -3.268    7.374    -0.454
    383    H    -4.145    7.306    0.228
    384    O    -3.480    8.399    -1.459
    385    P    -4.485    8.412    -2.724
    386    O    -3.841    9.191    -3.814
    387    O    -5.755    8.960    -2.207
    388    O    -4.870    6.965    -3.300
    389    C    -4.899    6.656    -4.736
    390    H    -3.870    6.783    -5.148
    391    H    -5.557    7.361    -5.288
    392    C    -5.338    5.193    -5.144
    393    H    -4.816    4.908    -6.086
    394    O    -4.887    4.258    -4.130
    395    C    -5.882    3.290    -3.838
    396    H    -5.371    2.314    -4.012
    397    N    -6.333    3.303    -2.428
    398    C    -6.159    4.426    -1.668
    399    H    -5.682    5.259    -2.175
    400    C    -6.494    4.456    -0.373
    401    H    -6.313    5.327    0.254
    402    C    -6.965    2.190    -1.881
    403    O    -7.182    1.201    -2.598
    404    N    -7.316    2.194    -0.574
    405    C    -7.081    3.282    0.181
    406    N    -7.402    3.251    1.471
    407    H    -7.808    2.425    1.857
    408    H    -7.215    4.025    2.078
    409    C    -7.016    3.429    -4.814
    410    H    -8.018    3.318    -4.346
    411    O    -6.859    2.451    -5.825
    412    H    -6.187    2.759    -6.448
    413    C    -6.852    4.858    -5.346
    414    H    -7.387    5.578    -4.689
    415    O    -7.264    4.992    -6.734
    416    P    -8.816    4.887    -7.079
    417    O    -9.008    5.415    -8.447
    418    O    -9.569    5.561    -6.000
    419    O    -9.249    3.370    -7.083
    420    C    -10.331    2.860    -7.910
    421    H    -9.886    2.351    -8.794
    422    H    -10.981    3.677    -8.310
    423    C    -11.268    1.826    -7.215
    424    H    -11.513    1.004    -7.921
    425    O    -10.651    1.210    -6.047
    426    C    -11.629    0.957    -5.050
    427    H    -11.652    -0.152    -4.953
    428    N    -11.279    1.560    -3.733
    429    C    -10.679    2.798    -3.703
    430    H    -10.426    3.234    -4.677
    431    C    -10.375    3.392    -2.540
    432    H    -9.880    4.360    -2.494
    433    C    -11.627    0.927    -2.535
    434    O    -12.231    -0.157    -2.571
    435    N    -11.313    1.505    -1.349
    436    C    -10.712    2.708    -1.331
    437    N    -10.435    3.262    -0.152
    438    H    -10.627    2.759    0.692
    439    H    -10.049    4.185    -0.070
    440    C    -12.986    1.428    -5.569
    441    H    -13.552    1.985    -4.790
    442    O    -13.753    0.321    -6.015
    443    H    -14.558    0.647    -6.449
    444    C    -12.601    2.384    -6.706
    445    H    -12.384    3.396    -6.302
    446    O    -13.569    2.455    -7.773
    447    H    -14.411    2.801    -7.433
 $END
