!*** FMO 5.3 (Gamess) INPUT generated by Facio 22.1.1.32 ***
 $CONTRL RUNTYP=ENERGY NPRINT=-5 ISPHER=1 MAXIT=200 $END
 $SYSTEM MWORDS=63 MEMDDI=63 $END
 $GDDI NGROUP=1 $END
 $SCF DIRSCF=.TRUE. NPUNCH=0 $END
!*** NumCPU : 2  MemPerNode : 512MB
 $PCM SOLVNT=WATER IEF=-10 ICOMP=2 ICAV=1 IDISP=1 IFMO=-1 $END
 $PCMCAV RADII=SUAHF $END
 $TESCAV NTSALL=60 $END
 $FMOPRP
    NAODIR=200
    NGRFMO(1)=1, 1, 0, 0, 0,   0, 0, 0, 0, 0
    IPIEDA=1
    NPRINT=9
 $END
 $FMO
      SCFTYP(1)=RHF
      MODGRD=10
      MODMUL=0
      MAXCAO=5
      MAXBND=16
      NLAYER=1
      MPLEVL(1)=2
      NFRAG=14
      ICHARG(1)=-1, -1, -1, -1, -1, -1, -1, -1, -1, -1, -1, -1, -1, 0
      FRGNAM(1)=F1, F2, F3, F4, F5, F6, F7, F8, F9, F10, F11, F12, F13, F14
      indat(1)=0
               1   -36   0
               37   -70   0
               71   -101   0
               102   -134   0
               135   -165   0
               166   -195   0
               196   -225   0
               226   -256   0
               257   -290   0
               291   -324   0
               325   -354   0
               355   -388   0
               389   -419   0
               420   -447   0
 $END

 $FMOBND
   -37   36       6-31G*    MINI
   -71   70       6-31G*    MINI
   -102   101       6-31G*    MINI
   -135   134       6-31G*    MINI
   -166   165       6-31G*    MINI
   -196   195       6-31G*    MINI
   -226   225       6-31G*    MINI
   -257   256       6-31G*    MINI
   -291   290       6-31G*    MINI
   -325   324       6-31G*    MINI
   -355   354       6-31G*    MINI
   -389   388       6-31G*    MINI
   -420   419       6-31G*    MINI
 $END
 $FMOHYB
 6-31G*      15   5
   1 0  -0.065034   0.288264   0.000000   0.000000   0.604412
         0.290129   0.000000   0.000000   0.319045  -0.017106
        -0.017106   0.057934   0.000000   0.000000   0.000000
   0 1  -0.065040   0.288293   0.569832   0.000000  -0.201456
         0.290147   0.300783   0.000000  -0.106342   0.049598
        -0.017106  -0.008771   0.000000  -0.027223   0.000000
   0 1  -0.065039   0.288293  -0.284916  -0.493490  -0.201455
         0.290145  -0.150392  -0.260486  -0.106340  -0.000427
         0.032923  -0.008771   0.033353   0.013612   0.023576
   0 1  -0.065039   0.288293  -0.284916   0.493490  -0.201455
         0.290145  -0.150392   0.260486  -0.106340  -0.000427
         0.032923  -0.008771  -0.033353   0.013612  -0.023576
   0 1   1.010938  -0.011975   0.000000   0.000000   0.000000
        -0.054085   0.000000   0.000000  -0.000000  -0.003174
        -0.003174  -0.003174   0.000000   0.000000   0.000000
 MINI         5   5
   1 0  -0.104883   0.308874   0.000000   0.000000   0.521806
   0 1  -0.104883   0.308874   0.491961   0.000000  -0.173934
   0 1  -0.104883   0.308876  -0.245980  -0.426050  -0.173933
   0 1  -0.104883   0.308876  -0.245980   0.426050  -0.173933
   0 1   0.988209   0.063992   0.000000   0.000000   0.000000
 $END
 
 $DATA
 FMO calculation
 C1 
 H.1-1    1
      N31 6
   
 O.1-1    8
      N31 6
      d 1
      1 0.800 1.0
   
 C.1-1    6
      N31 6
      d 1
      1 0.800 1.0
   
 N.1-1    7
      N31 6
      d 1
      1 0.800 1.0
   
 P.1-1   15
      N31 6
      d 1
      1 0.550 1.0
   
 $END
 $FMOXYZ
    1    H    -5.090    -7.876    6.225
    2    O    -5.921    -7.449    5.949
    3    C    -6.946    -8.456    5.990
    4    H    -6.934    -8.919    7.002
    5    H    -6.697    -9.249    5.251
    6    C    -8.380    -7.946    5.715
    7    H    -9.129    -8.675    6.092
    8    O    -8.610    -6.688    6.409
    9    C    -9.314    -5.797    5.564
    10    H    -10.219    -5.472    6.127
    11    N    -8.523    -4.627    5.242
    12    C    -8.996    -3.475    4.681
    13    N    -11.599    -1.561    3.411
    14    H    -12.379    -2.185    3.485
    15    H    -11.769    -0.627    3.103
    16    N    -10.270    -3.221    4.311
    17    C    -10.416    -1.987    3.823
    18    N    -9.380    -1.090    3.738
    19    H    -9.580    -0.169    3.390
    20    C    -8.068    -1.352    4.159
    21    O    -7.124    -0.567    4.132
    22    C    -7.903    -2.653    4.618
    23    N    -6.757    -3.278    5.080
    24    C    -7.170    -4.459    5.434
    25    H    -6.544    -5.244    5.858
    26    C    -9.731    -6.533    4.326
    27    H    -9.684    -5.890    3.423
    28    O    -11.044    -7.039    4.470
    29    H    -11.227    -7.560    3.672
    30    C    -8.706    -7.652    4.238
    31    H    -7.759    -7.286    3.777
    32    O    -9.213    -8.836    3.592
    33    P    -9.355    -8.857    2.025
    34    O    -9.922    -10.177    1.662
    35    O    -8.043    -8.509    1.475
    36    O    -10.395    -7.737    1.610
    37    C    -11.098    -7.930    0.348
    38    H    -12.125    -8.296    0.581
    39    H    -10.628    -8.694    -0.329
    40    C    -11.256    -6.648    -0.498
    41    H    -12.097    -6.825    -1.207
    42    O    -11.601    -5.481    0.330
    43    C    -11.037    -4.313    -0.290
    44    H    -11.818    -3.520    -0.323
    45    N    -9.844    -3.845    0.420
    46    C    -9.233    -2.640    0.253
    47    N    -9.049    0.461    -1.279
    48    H    -9.897    0.508    -1.805
    49    H    -8.461    1.271    -1.242
    50    N    -9.650    -1.645    -0.548
    51    C    -8.815    -0.610    -0.547
    52    N    -7.666    -0.581    0.197
    53    H    -7.095    0.241    0.108
    54    C    -7.209    -1.609    1.019
    55    O    -6.159    -1.530    1.657
    56    C    -8.093    -2.704    1.023
    57    N    -7.989    -3.925    1.666
    58    C    -9.050    -4.575    1.275
    59    H    -9.307    -5.601    1.540
    60    C    -10.643    -4.744    -1.680
    61    H    -9.887    -4.077    -2.148
    62    O    -11.802    -4.820    -2.496
    63    H    -11.591    -5.308    -3.311
    64    C    -10.069    -6.108    -1.327
    65    H    -9.234    -6.013    -0.607
    66    O    -9.687    -6.922    -2.447
    67    P    -8.166    -7.370    -2.621
    68    O    -8.165    -8.657    -3.356
    69    O    -7.415    -7.324    -1.351
    70    O    -7.557    -6.250    -3.527
    71    C    -7.056    -6.540    -4.853
    72    H    -7.796    -7.130    -5.436
    73    H    -6.121    -7.143    -4.783
    74    C    -6.732    -5.285    -5.685
    75    H    -7.058    -5.418    -6.736
    76    O    -7.403    -4.106    -5.145
    77    C    -6.526    -3.001    -5.199
    78    H    -7.110    -2.202    -5.713
    79    N    -6.096    -2.532    -3.866
    80    C    -5.903    -3.410    -2.818
    81    H    -6.165    -4.451    -2.994
    82    C    -5.436    -2.973    -1.635
    83    H    -5.250    -3.636    -0.795
    84    C    -5.811    -1.191    -3.714
    85    O    -5.952    -0.422    -4.679
    86    N    -5.355    -0.744    -2.531
    87    C    -5.101    -1.605    -1.541
    88    N    -4.489    -1.151    -0.466
    89    H    -4.043    -0.251    -0.532
    90    H    -4.478    -1.653    0.404
    91    C    -5.351    -3.399    -6.063
    92    H    -4.411    -2.862    -5.815
    93    O    -5.698    -3.181    -7.418
    94    H    -6.544    -3.622    -7.588
    95    C    -5.252    -4.877    -5.701
    96    H    -4.921    -4.961    -4.643
    97    O    -4.485    -5.695    -6.614
    98    P    -3.223    -6.490    -6.080
    99    O    -3.329    -7.906    -6.478
    100    O    -2.999    -6.215    -4.642
    101    O    -2.034    -5.893    -6.851
    102    C    -1.684    -6.169    -8.208
    103    H    -2.582    -6.204    -8.872
    104    H    -1.166    -7.156    -8.268
    105    C    -0.728    -5.071    -8.661
    106    H    -0.545    -5.112    -9.760
    107    O    -1.294    -3.743    -8.340
    108    C    -0.262    -2.897    -7.863
    109    H    -0.296    -1.955    -8.462
    110    N    -0.402    -2.580    -6.422
    111    C    -0.308    -1.599    -4.456
    112    N    -0.834    -2.852    -4.230
    113    C    -0.868    -3.391    -5.413
    114    H    -1.213    -4.399    -5.580
    115    N    0.445    0.610    -4.118
    116    C    0.700    0.643    -5.434
    117    H    1.108    1.588    -5.811
    118    N    0.492    -0.311    -6.356
    119    C    -0.029    -1.413    -5.796
    120    C    -0.055    -0.533    -3.586
    121    N    -0.303    -0.668    -2.275
    122    H    -0.452    -1.578    -1.885
    123    H    -0.120    0.064    -1.614
    124    C    1.029    -3.622    -8.130
    125    H    1.781    -3.272    -7.410
    126    O    1.463    -3.384    -9.452
    127    H    2.217    -3.973    -9.613
    128    C    0.628    -5.082    -7.922
    129    H    0.418    -5.260    -6.843
    130    O    1.534    -6.067    -8.484
    131    P    2.147    -7.244    -7.611
    132    O    2.666    -8.305    -8.505
    133    O    1.201    -7.668    -6.561
    134    O    3.391    -6.598    -6.911
    135    C    4.503    -6.145    -7.719
    136    H    4.272    -6.109    -8.812
    137    H    5.358    -6.849    -7.599
    138    C    4.953    -4.744    -7.312
    139    H    5.481    -4.260    -8.161
    140    O    3.838    -3.902    -6.955
    141    C    4.231    -2.997    -5.942
    142    H    3.990    -1.982    -6.338
    143    N    3.524    -3.215    -4.642
    144    C    2.823    -4.378    -4.376
    145    H    2.791    -5.112    -5.184
    146    C    2.209    -4.564    -3.196
    147    H    1.650    -5.469    -2.956
    148    C    3.607    -2.218    -3.673
    149    O    4.220    -1.168    -3.938
    150    N    3.019    -2.403    -2.473
    151    C    2.324    -3.526    -2.222
    152    N    1.758    -3.655    -1.025
    153    H    1.927    -2.929    -0.354
    154    H    1.262    -4.476    -0.744
    155    C    5.731    -3.164    -5.804
    156    H    6.099    -2.916    -4.789
    157    O    6.382    -2.364    -6.775
    158    H    7.324    -2.593    -6.776
    159    C    5.852    -4.655    -6.101
    160    H    5.354    -5.234    -5.287
    161    O    7.166    -5.131    -6.444
    162    P    7.760    -6.358    -5.648
    163    O    8.789    -7.010    -6.486
    164    O    6.684    -7.227    -5.119
    165    O    8.487    -5.659    -4.443
    166    C    9.397    -4.568    -4.747
    167    H    9.173    -4.036    -5.703
    168    H    10.430    -4.973    -4.841
    169    C    9.397    -3.501    -3.654
    170    H    9.952    -2.599    -3.991
    171    O    8.057    -3.072    -3.283
    172    C    8.026    -2.815    -1.886
    173    H    7.778    -1.730    -1.799
    174    N    6.988    -3.616    -1.177
    175    C    6.459    -4.759    -1.742
    176    H    6.868    -5.035    -2.717
    177    C    6.537    -3.158    0.045
    178    O    6.969    -2.139    0.579
    179    N    5.555    -3.921    0.621
    180    H    5.215    -3.622    1.523
    181    C    4.991    -5.077    0.126
    182    O    4.121    -5.663    0.769
    183    C    5.499    -5.486    -1.149
    184    H    5.084    -6.383    -1.604
    185    C    9.445    -3.031    -1.354
    186    H    9.426    -3.467    -0.340
    187    O    10.173    -1.822    -1.332
    188    H    11.078    -2.056    -1.084
    189    C    10.047    -3.992    -2.375
    190    H    9.691    -5.034    -2.211
    191    O    11.472    -3.912    -2.560
    192    P    12.527    -4.600    -1.647
    193    O    13.694    -4.959    -2.486
    194    O    11.887    -5.701    -0.895
    195    O    12.918    -3.416    -0.668
    196    C    14.113    -3.559    0.150
    197    H    14.919    -4.134    -0.372
    198    H    13.864    -4.118    1.081
    199    C    14.719    -2.208    0.559
    200    H    15.653    -2.355    1.155
    201    O    15.069    -1.437    -0.625
    202    C    14.485    -0.155    -0.562
    203    H    15.271    0.506    -0.128
    204    N    14.052    0.283    -1.915
    205    C    13.239    -0.528    -2.674
    206    H    13.011    -1.500    -2.230
    207    C    14.441    1.521    -2.372
    208    O    15.146    2.278    -1.711
    209    N    13.991    1.846    -3.627
    210    H    14.288    2.747    -3.976
    211    C    13.215    1.070    -4.464
    212    O    12.935    1.472    -5.593
    213    C    12.822    -0.192    -3.906
    214    H    12.228    -0.868    -4.517
    215    C    13.322    -0.226    0.401
    216    H    12.399    -0.555    -0.124
    217    O    13.113    1.031    1.021
    218    H    12.430    0.940    1.710
    219    C    13.745    -1.335    1.376
    220    H    12.828    -1.939    1.579
    221    O    14.367    -0.872    2.592
    222    P    14.248    -1.777    3.875
    223    O    15.026    -1.133    4.956
    224    O    14.618    -3.171    3.535
    225    O    12.733    -1.739    4.247
    226    C    12.218    -0.877    5.288
    227    H    12.151    0.165    4.899
    228    H    12.877    -0.855    6.190
    229    C    10.808    -1.305    5.749
    230    H    10.286    -0.430    6.196
    231    O    10.011    -1.776    4.634
    232    C    9.561    -3.081    4.886
    233    H    8.559    -2.958    5.353
    234    N    9.481    -3.876    3.648
    235    C    10.532    -3.802    2.777
    236    H    11.307    -3.074    3.025
    237    C    10.553    -4.537    1.666
    238    H    11.374    -4.467    0.962
    239    C    8.413    -4.733    3.394
    240    O    7.488    -4.806    4.219
    241    N    8.402    -5.462    2.251
    242    C    9.442    -5.394    1.403
    243    N    9.430    -6.120    0.286
    244    H    10.261    -6.120    -0.288
    245    H    8.716    -6.801    0.131
    246    C    10.510    -3.672    5.895
    247    H    11.455    -4.003    5.410
    248    O    9.915    -4.725    6.626
    249    H    9.233    -4.312    7.180
    250    C    10.777    -2.456    6.776
    251    H    11.798    -2.559    7.211
    252    O    9.747    -2.265    7.778
    253    P    10.123    -1.686    9.195
    254    O    11.540    -1.973    9.522
    255    O    9.124    -2.144    10.183
    256    O    9.940    -0.134    9.055
    257    C    8.632    0.407    8.739
    258    H    8.028    0.492    9.673
    259    H    8.073    -0.251    8.022
    260    C    8.744    1.801    8.095
    261    H    8.894    2.572    8.883
    262    O    9.923    1.880    7.235
    263    C    9.711    2.834    6.227
    264    H    10.432    3.657    6.449
    265    N    9.999    2.291    4.883
    266    C    9.337    1.332    4.148
    267    N    6.787    -0.978    3.857
    268    H    6.532    -1.736    3.270
    269    H    6.379    -0.893    4.762
    270    N    8.224    0.683    4.507
    271    C    7.834    -0.205    3.614
    272    N    8.474    -0.414    2.418
    273    H    8.124    -1.119    1.795
    274    C    9.628    0.247    2.016
    275    O    10.167    0.021    0.933
    276    C    10.052    1.209    2.974
    277    N    11.144    2.071    2.962
    278    C    11.075    2.678    4.122
    279    H    11.776    3.440    4.470
    280    C    8.295    3.367    6.386
    281    H    7.821    3.515    5.405
    282    O    8.323    4.595    7.092
    283    H    7.412    4.792    7.354
    284    C    7.594    2.257    7.187
    285    H    7.345    1.390    6.549
    286    O    6.454    2.676    7.958
    287    P    4.966    2.262    7.630
    288    O    4.097    3.013    8.567
    289    O    4.807    0.790    7.606
    290    O    4.684    2.842    6.208
    291    C    4.806    4.258    5.948
    292    H    5.447    4.786    6.691
    293    H    3.796    4.725    6.012
    294    C    5.383    4.556    4.551
    295    H    6.090    5.414    4.587
    296    O    6.080    3.417    3.953
    297    C    5.713    3.294    2.596
    298    H    6.651    3.187    2.005
    299    N    4.850    2.116    2.401
    300    C    4.721    1.361    1.265
    301    N    5.527    0.697    -2.034
    302    H    6.162    1.433    -2.259
    303    H    5.220    0.075    -2.756
    304    N    5.360    1.565    0.100
    305    C    5.015    0.658    -0.820
    306    N    4.117    -0.353    -0.592
    307    H    3.894    -0.984    -1.347
    308    C    3.452    -0.588    0.601
    309    O    2.663    -1.529    0.742
    310    C    3.802    0.374    1.583
    311    N    3.357    0.510    2.887
    312    C    4.008    1.550    3.336
    313    H    3.914    1.949    4.341
    314    C    5.014    4.584    2.238
    315    H    4.299    4.471    1.397
    316    O    5.969    5.588    1.946
    317    H    5.488    6.421    1.900
    318    C    4.297    4.878    3.549
    319    H    3.495    4.128    3.725
    320    O    3.870    6.239    3.759
    321    P    2.377    6.581    3.434
    322    O    2.083    7.939    3.943
    323    O    1.523    5.461    3.889
    324    O    2.467    6.569    1.882
    325    C    3.241    7.532    1.152
    326    H    4.322    7.457    1.383
    327    H    2.902    8.557    1.410
    328    C    3.021    7.325    -0.339
    329    H    3.469    8.149    -0.936
    330    O    3.613    6.078    -0.800
    331    C    2.767    5.521    -1.803
    332    H    3.402    5.396    -2.711
    333    N    2.203    4.214    -1.365
    334    C    1.952    3.967    -0.030
    335    H    2.271    4.742    0.658
    336    C    1.866    3.290    -2.322
    337    O    2.020    3.494    -3.523
    338    N    1.353    2.116    -1.834
    339    H    1.076    1.455    -2.554
    340    C    1.091    1.805    -0.513
    341    O    0.625    0.718    -0.196
    342    C    1.414    2.830    0.418
    343    H    1.239    2.648    1.478
    344    C    1.673    6.550    -2.088
    345    H    0.717    6.080    -2.401
    346    O    2.110    7.473    -3.069
    347    H    1.424    8.149    -3.177
    348    C    1.555    7.172    -0.709
    349    H    1.124    6.370    -0.065
    350    O    0.883    8.447    -0.592
    351    P    -0.219    8.546    0.550
    352    O    -0.201    9.887    1.189
    353    O    -0.197    7.382    1.459
    354    O    -1.448    8.405    -0.323
    355    C    -1.858    9.393    -1.250
    356    H    -1.045    9.717    -1.941
    357    H    -2.273    10.270    -0.706
    358    C    -2.961    8.723    -2.016
    359    H    -3.479    9.478    -2.642
    360    O    -2.427    7.657    -2.883
    361    C    -3.437    6.650    -2.999
    362    H    -3.632    6.508    -4.084
    363    N    -3.063    5.378    -2.343
    364    C    -3.431    4.140    -2.776
    365    N    -4.934    2.070    -5.111
    366    H    -5.164    2.684    -5.859
    367    H    -5.279    1.126    -5.122
    368    N    -4.099    3.860    -3.915
    369    C    -4.376    2.561    -4.021
    370    N    -4.040    1.652    -3.056
    371    H    -4.438    0.727    -3.118
    372    C    -3.399    1.929    -1.858
    373    O    -3.138    1.081    -1.002
    374    C    -3.034    3.278    -1.774
    375    N    -2.360    3.941    -0.766
    376    C    -2.380    5.185    -1.149
    377    H    -1.915    6.008    -0.596
    378    C    -4.666    7.223    -2.314
    379    H    -5.365    6.431    -1.978
    380    O    -5.321    8.157    -3.151
    381    H    -5.844    8.740    -2.576
    382    C    -3.952    7.908    -1.171
    383    H    -3.387    7.139    -0.635
    384    O    -4.708    8.667    -0.220
    385    P    -4.432    8.442    1.352
    386    O    -4.150    9.762    1.961
    387    O    -3.526    7.314    1.626
    388    O    -5.807    8.030    1.944
    389    C    -6.914    8.791    1.444
    390    H    -6.670    9.710    0.850
    391    H    -7.445    9.200    2.318
    392    C    -7.780    7.870    0.602
    393    H    -8.478    8.462    -0.025
    394    O    -7.037    6.969    -0.271
    395    C    -7.780    5.781    -0.433
    396    H    -8.027    5.741    -1.517
    397    N    -7.026    4.547    -0.050
    398    C    -6.038    4.609    0.908
    399    H    -5.823    5.593    1.325
    400    C    -5.369    3.505    1.283
    401    H    -4.599    3.522    2.048
    402    C    -7.319    3.334    -0.666
    403    O    -8.184    3.297    -1.561
    404    N    -6.673    2.203    -0.277
    405    C    -5.736    2.275    0.685
    406    N    -5.158    1.163    1.133
    407    H    -5.499    0.254    0.911
    408    H    -4.249    1.210    1.550
    409    C    -9.059    5.966    0.373
    410    H    -9.422    5.015    0.807
    411    O    -10.069    6.542    -0.437
    412    H    -10.796    6.765    0.161
    413    C    -8.570    6.929    1.459
    414    H    -7.849    6.388    2.115
    415    O    -9.556    7.696    2.175
    416    P    -9.383    7.929    3.735
    417    O    -9.229    9.378    4.001
    418    O    -8.369    7.026    4.324
    419    O    -10.786    7.525    4.280
    420    C    -11.958    8.044    3.606
    421    H    -11.746    8.785    2.788
    422    H    -12.588    8.575    4.355
    423    C    -12.759    6.877    3.040
    424    H    -13.654    7.222    2.482
    425    O    -11.943    6.074    2.137
    426    C    -12.290    4.711    2.283
    427    H    -12.745    4.448    1.300
    428    N    -11.124    3.829    2.526
    429    C    -10.132    4.261    3.371
    430    H    -10.240    5.255    3.791
    431    C    -9.047    3.504    3.599
    432    H    -8.217    3.844    4.213
    433    C    -11.073    2.550    1.978
    434    O    -12.015    2.153    1.266
    435    N    -9.998    1.759    2.217
    436    C    -8.987    2.260    2.940
    437    N    -7.863    1.595    2.988
    438    H    -7.254    1.744    3.765
    439    H    -7.810    0.684    2.596
    440    C    -13.346    4.593    3.367
    441    H    -13.149    3.733    4.044
    442    O    -14.628    4.464    2.778
    443    H    -15.308    4.597    3.464
    444    C    -13.184    5.902    4.134
    445    H    -12.356    5.808    4.869
    446    O    -14.377    6.381    4.777
    447    H    -14.671    5.754    5.466
 $END
