!*** FMO 5.3 (Gamess) INPUT generated by Facio 22.1.1.32 ***
 $CONTRL RUNTYP=ENERGY NPRINT=-5 ISPHER=1 MAXIT=200 $END
 $SYSTEM MWORDS=63 MEMDDI=63 $END
 $GDDI NGROUP=1 $END
 $SCF DIRSCF=.TRUE. NPUNCH=0 $END
!*** NumCPU : 2  MemPerNode : 512MB
 $PCM SOLVNT=WATER IEF=-10 ICOMP=2 ICAV=1 IDISP=1 IFMO=-1 $END
 $PCMCAV RADII=SUAHF $END
 $TESCAV NTSALL=60 $END
 $FMOPRP
    NAODIR=200
    NGRFMO(1)=1, 1, 0, 0, 0,   0, 0, 0, 0, 0
    IPIEDA=1
    NPRINT=9
 $END
 $FMO
      SCFTYP(1)=RHF
      MODGRD=10
      MODMUL=0
      MAXCAO=5
      MAXBND=16
      NLAYER=1
      MPLEVL(1)=2
      NFRAG=14
      ICHARG(1)=-1, -1, -1, -1, -1, -1, -1, -1, -1, -1, -1, -1, -1, 0
      FRGNAM(1)=F1, F2, F3, F4, F5, F6, F7, F8, F9, F10, F11, F12, F13, F14
      indat(1)=0
               1   -36   0
               37   -70   0
               71   -101   0
               102   -134   0
               135   -165   0
               166   -195   0
               196   -225   0
               226   -256   0
               257   -290   0
               291   -324   0
               325   -354   0
               355   -388   0
               389   -419   0
               420   -447   0
 $END

 $FMOBND
   -37   36       6-31G*    MINI
   -71   70       6-31G*    MINI
   -102   101       6-31G*    MINI
   -135   134       6-31G*    MINI
   -166   165       6-31G*    MINI
   -196   195       6-31G*    MINI
   -226   225       6-31G*    MINI
   -257   256       6-31G*    MINI
   -291   290       6-31G*    MINI
   -325   324       6-31G*    MINI
   -355   354       6-31G*    MINI
   -389   388       6-31G*    MINI
   -420   419       6-31G*    MINI
 $END
 $FMOHYB
 6-31G*      15   5
   1 0  -0.065034   0.288264   0.000000   0.000000   0.604412
         0.290129   0.000000   0.000000   0.319045  -0.017106
        -0.017106   0.057934   0.000000   0.000000   0.000000
   0 1  -0.065040   0.288293   0.569832   0.000000  -0.201456
         0.290147   0.300783   0.000000  -0.106342   0.049598
        -0.017106  -0.008771   0.000000  -0.027223   0.000000
   0 1  -0.065039   0.288293  -0.284916  -0.493490  -0.201455
         0.290145  -0.150392  -0.260486  -0.106340  -0.000427
         0.032923  -0.008771   0.033353   0.013612   0.023576
   0 1  -0.065039   0.288293  -0.284916   0.493490  -0.201455
         0.290145  -0.150392   0.260486  -0.106340  -0.000427
         0.032923  -0.008771  -0.033353   0.013612  -0.023576
   0 1   1.010938  -0.011975   0.000000   0.000000   0.000000
        -0.054085   0.000000   0.000000  -0.000000  -0.003174
        -0.003174  -0.003174   0.000000   0.000000   0.000000
 MINI         5   5
   1 0  -0.104883   0.308874   0.000000   0.000000   0.521806
   0 1  -0.104883   0.308874   0.491961   0.000000  -0.173934
   0 1  -0.104883   0.308876  -0.245980  -0.426050  -0.173933
   0 1  -0.104883   0.308876  -0.245980   0.426050  -0.173933
   0 1   0.988209   0.063992   0.000000   0.000000   0.000000
 $END
 
 $DATA
 FMO calculation
 C1 
 H.1-1    1
      N31 6
   
 O.1-1    8
      N31 6
      d 1
      1 0.800 1.0
   
 C.1-1    6
      N31 6
      d 1
      1 0.800 1.0
   
 N.1-1    7
      N31 6
      d 1
      1 0.800 1.0
   
 P.1-1   15
      N31 6
      d 1
      1 0.550 1.0
   
 $END
 $FMOXYZ
    1    H    -16.107    -5.622    5.762
    2    O    -15.977    -5.237    4.876
    3    C    -16.543    -6.166    3.943
    4    H    -17.640    -6.245    4.105
    5    H    -16.104    -7.169    4.137
    6    C    -16.270    -5.791    2.493
    7    H    -16.776    -6.487    1.788
    8    O    -16.682    -4.418    2.184
    9    C    -15.741    -3.870    1.267
    10    H    -16.307    -3.525    0.368
    11    N    -14.985    -2.748    1.842
    12    C    -14.272    -1.793    1.158
    13    N    -13.247    -0.350    -1.823
    14    H    -13.599    -0.980    -2.508
    15    H    -12.766    0.472    -2.125
    16    N    -14.149    -1.696    -0.180
    17    C    -13.439    -0.627    -0.547
    18    N    -12.883    0.248    0.349
    19    H    -12.388    1.053    -0.001
    20    C    -12.990    0.168    1.732
    21    O    -12.482    1.008    2.481
    22    C    -13.743    -0.967    2.130
    23    N    -14.086    -1.411    3.400
    24    C    -14.812    -2.481    3.181
    25    H    -15.263    -3.113    3.950
    26    C    -14.809    -4.987    0.901
    27    H    -13.797    -4.599    0.688
    28    O    -15.346    -5.708    -0.195
    29    H    -14.609    -6.204    -0.574
    30    C    -14.789    -5.790    2.196
    31    H    -14.314    -5.178    2.997
    32    O    -14.292    -7.153    2.158
    33    P    -12.769    -7.366    2.504
    34    O    -12.496    -8.791    2.814
    35    O    -12.358    -6.388    3.534
    36    O    -12.138    -6.960    1.147
    37    C    -12.663    -7.444    -0.104
    38    H    -13.770    -7.497    -0.158
    39    H    -12.308    -8.477    -0.268
    40    C    -12.140    -6.575    -1.230
    41    H    -12.444    -6.980    -2.220
    42    O    -12.657    -5.222    -1.133
    43    C    -11.637    -4.320    -1.490
    44    H    -12.064    -3.625    -2.249
    45    N    -11.144    -3.559    -0.327
    46    C    -10.468    -2.415    -0.497
    47    N    -8.887    -0.507    -2.761
    48    H    -9.504    0.179    -3.150
    49    H    -7.958    -0.166    -2.795
    50    N    -10.218    -1.878    -1.676
    51    C    -9.346    -0.923    -1.613
    52    N    -8.853    -0.411    -0.424
    53    H    -8.310    0.441    -0.458
    54    C    -9.178    -0.914    0.846
    55    O    -8.736    -0.471    1.910
    56    C    -10.066    -2.009    0.750
    57    N    -10.544    -2.872    1.720
    58    C    -11.184    -3.791    1.032
    59    H    -11.700    -4.654    1.457
    60    C    -10.540    -5.164    -2.112
    61    H    -9.541    -4.681    -2.077
    62    O    -10.886    -5.507    -3.446
    63    H    -10.294    -6.220    -3.734
    64    C    -10.629    -6.356    -1.178
    65    H    -10.343    -6.009    -0.158
    66    O    -9.922    -7.540    -1.583
    67    P    -9.272    -8.460    -0.457
    68    O    -9.679    -9.862    -0.712
    69    O    -9.480    -7.929    0.904
    70    O    -7.742    -8.316    -0.704
    71    C    -7.077    -8.871    -1.845
    72    H    -7.790    -9.303    -2.589
    73    H    -6.410    -9.694    -1.508
    74    C    -6.239    -7.814    -2.564
    75    H    -6.050    -8.140    -3.605
    76    O    -6.967    -6.546    -2.647
    77    C    -6.034    -5.488    -2.595
    78    H    -6.202    -4.918    -3.540
    79    N    -6.220    -4.583    -1.427
    80    C    -6.851    -5.007    -0.278
    81    H    -7.253    -6.023    -0.295
    82    C    -6.958    -4.204    0.791
    83    H    -7.424    -4.526    1.720
    84    C    -5.801    -3.262    -1.529
    85    O    -5.350    -2.853    -2.610
    86    N    -5.866    -2.452    -0.449
    87    C    -6.372    -2.910    0.708
    88    N    -6.281    -2.152    1.798
    89    H    -5.800    -1.273    1.788
    90    H    -6.649    -2.452    2.681
    91    C    -4.642    -6.119    -2.643
    92    H    -3.874    -5.505    -2.128
    93    O    -4.260    -6.344    -3.985
    94    H    -3.525    -6.975    -3.938
    95    C    -4.863    -7.461    -1.956
    96    H    -5.007    -7.331    -0.856
    97    O    -3.874    -8.471    -2.314
    98    P    -2.836    -9.083    -1.289
    99    O    -2.874    -10.561    -1.366
    100    O    -3.060    -8.514    0.057
    101    O    -1.408    -8.645    -1.726
    102    C    -0.558    -9.140    -2.779
    103    H    -1.046    -9.972    -3.329
    104    H    0.372    -9.555    -2.328
    105    C    -0.159    -8.039    -3.805
    106    H    -0.339    -8.391    -4.838
    107    O    -1.043    -6.880    -3.584
    108    C    -0.278    -5.732    -3.342
    109    H    -0.796    -4.923    -3.904
    110    N    -0.206    -5.322    -1.925
    111    C    -0.103    -4.074    -0.125
    112    N    -0.100    -5.387    0.321
    113    C    -0.158    -6.086    -0.777
    114    H    -0.132    -7.171    -0.785
    115    N    -0.057    -1.707    -0.136
    116    C    -0.084    -1.797    -1.472
    117    H    -0.065    -0.843    -2.009
    118    N    -0.163    -2.891    -2.248
    119    C    -0.165    -4.012    -1.498
    120    C    -0.057    -2.862    0.568
    121    N    -0.009    -2.893    1.894
    122    H    0.306    -3.719    2.363
    123    H    -0.105    -2.090    2.480
    124    C    1.061    -5.977    -3.957
    125    H    1.853    -5.382    -3.467
    126    O    0.988    -5.671    -5.336
    127    H    1.911    -5.598    -5.630
    128    C    1.302    -7.470    -3.740
    129    H    1.684    -7.657    -2.711
    130    O    2.152    -8.104    -4.732
    131    P    3.672    -7.807    -5.079
    132    O    3.943    -8.268    -6.460
    133    O    4.499    -8.401    -4.007
    134    O    3.863    -6.258    -5.036
    135    C    4.480    -5.359    -5.988
    136    H    4.311    -5.718    -7.027
    137    H    5.583    -5.350    -5.830
    138    C    3.978    -3.872    -5.900
    139    H    3.481    -3.589    -6.855
    140    O    2.952    -3.780    -4.886
    141    C    3.193    -2.757    -3.965
    142    H    2.206    -2.237    -3.901
    143    N    3.529    -3.246    -2.591
    144    C    3.899    -4.552    -2.354
    145    H    3.983    -5.191    -3.216
    146    C    4.120    -5.019    -1.123
    147    H    4.373    -6.060    -0.924
    148    C    3.454    -2.362    -1.520
    149    O    3.179    -1.172    -1.737
    150    N    3.684    -2.815    -0.264
    151    C    3.983    -4.108    -0.052
    152    N    4.167    -4.543    1.184
    153    H    4.227    -3.859    1.918
    154    H    4.519    -5.459    1.383
    155    C    4.206    -1.824    -4.579
    156    H    4.878    -1.375    -3.817
    157    O    3.528    -0.793    -5.274
    158    H    4.182    -0.337    -5.817
    159    C    4.988    -2.747    -5.533
    160    H    5.816    -3.240    -4.987
    161    O    5.468    -2.141    -6.738
    162    P    6.386    -0.902    -7.030
    163    O    5.590    0.012    -7.875
    164    O    7.649    -1.408    -7.602
    165    O    6.678    -0.179    -5.670
    166    C    6.920    1.251    -5.603
    167    H    5.972    1.804    -5.805
    168    H    7.661    1.568    -6.368
    169    C    7.473    1.736    -4.240
    170    H    7.320    2.832    -4.133
    171    O    6.793    1.089    -3.126
    172    C    7.740    0.722    -2.130
    173    H    7.370    1.181    -1.183
    174    N    7.838    -0.765    -1.977
    175    C    7.500    -1.618    -2.993
    176    H    7.037    -1.137    -3.833
    177    C    8.274    -1.273    -0.786
    178    O    8.590    -0.548    0.141
    179    N    8.300    -2.639    -0.681
    180    H    8.694    -3.035    0.159
    181    C    7.995    -3.543    -1.672
    182    O    8.067    -4.748    -1.454
    183    C    7.563    -2.952    -2.895
    184    H    7.251    -3.613    -3.697
    185    C    9.068    1.372    -2.491
    186    H    9.941    0.754    -2.190
    187    O    9.170    2.662    -1.907
    188    H    10.061    2.980    -2.091
    189    C    8.964    1.448    -4.007
    190    H    9.117    0.435    -4.446
    191    O    9.785    2.479    -4.608
    192    P    11.177    2.075    -5.223
    193    O    11.456    2.973    -6.366
    194    O    11.195    0.620    -5.486
    195    O    12.200    2.368    -4.054
    196    C    13.608    2.121    -4.326
    197    H    13.890    2.401    -5.373
    198    H    13.845    1.041    -4.206
    199    C    14.532    2.934    -3.404
    200    H    15.582    2.811    -3.746
    201    O    14.203    4.349    -3.511
    202    C    13.943    4.876    -2.233
    203    H    14.912    5.318    -1.908
    204    N    12.843    5.879    -2.281
    205    C    11.637    5.560    -2.866
    206    H    11.598    4.579    -3.342
    207    C    13.037    7.101    -1.677
    208    O    14.085    7.409    -1.115
    209    N    11.968    7.957    -1.748
    210    H    12.099    8.856    -1.316
    211    C    10.744    7.724    -2.335
    212    O    9.893    8.613    -2.355
    213    C    10.598    6.413    -2.897
    214    H    9.656    6.155    -3.372
    215    C    13.621    3.717    -1.313
    216    H    12.546    3.441    -1.384
    217    O    13.977    4.052    0.015
    218    H    13.692    3.346    0.621
    219    C    14.473    2.584    -1.897
    220    H    13.897    1.634    -1.796
    221    O    15.793    2.485    -1.318
    222    P    16.398    1.137    -0.779
    223    O    17.614    1.452    0.007
    224    O    16.583    0.235    -1.937
    225    O    15.296    0.530    0.159
    226    C    15.528    0.201    1.552
    227    H    15.479    1.140    2.148
    228    H    16.540    -0.239    1.706
    229    C    14.476    -0.769    2.172
    230    H    14.242    -0.450    3.207
    231    O    13.238    -0.794    1.394
    232    C    13.073    -2.089    0.858
    233    H    12.419    -2.613    1.592
    234    N    12.460    -2.083    -0.473
    235    C    12.897    -1.168    -1.395
    236    H    13.632    -0.450    -1.032
    237    C    12.374    -1.120    -2.625
    238    H    12.661    -0.370    -3.357
    239    C    11.529    -3.051    -0.827
    240    O    11.198    -3.922    -0.002
    241    N    11.005    -3.026    -2.077
    242    C    11.384    -2.086    -2.959
    243    N    10.820    -2.055    -4.166
    244    H    11.015    -1.307    -4.809
    245    H    10.205    -2.791    -4.442
    246    C    14.439    -2.724    0.872
    247    H    15.093    -2.305    0.073
    248    O    14.393    -4.135    0.798
    249    H    13.971    -4.434    1.620
    250    C    14.891    -2.260    2.236
    251    H    15.999    -2.324    2.323
    252    O    14.205    -2.976    3.289
    253    P    14.890    -3.686    4.501
    254    O    16.342    -3.849    4.255
    255    O    14.156    -4.936    4.802
    256    O    14.698    -2.704    5.727
    257    C    13.373    -2.300    6.183
    258    H    13.056    -2.955    7.021
    259    H    12.607    -2.399    5.379
    260    C    13.331    -0.836    6.671
    261    H    13.906    -0.726    7.617
    262    O    14.002    -0.020    5.676
    263    C    13.463    1.278    5.682
    264    H    14.299    1.930    6.021
    265    N    13.030    1.712    4.356
    266    C    12.043    1.225    3.529
    267    N    9.488    -1.007    2.858
    268    H    8.866    -1.181    2.103
    269    H    9.502    -1.603    3.659
    270    N    11.215    0.191    3.776
    271    C    10.372    -0.028    2.790
    272    N    10.326    0.740    1.661
    273    H    9.689    0.454    0.938
    274    C    11.166    1.794    1.362
    275    O    11.070    2.433    0.311
    276    C    12.077    2.041    2.414
    277    N    13.055    3.017    2.538
    278    C    13.584    2.784    3.712
    279    H    14.398    3.355    4.162
    280    C    12.341    1.330    6.687
    281    H    11.473    1.921    6.319
    282    O    12.827    1.888    7.898
    283    H    12.159    1.718    8.580
    284    C    11.951    -0.140    6.841
    285    H    11.325    -0.495    6.004
    286    O    11.314    -0.440    8.095
    287    P    9.791    -0.072    8.370
    288    O    9.686    0.418    9.762
    289    O    8.970    -1.252    8.021
    290    O    9.394    1.110    7.404
    291    C    8.430    2.132    7.783
    292    H    8.892    2.819    8.526
    293    H    7.542    1.671    8.274
    294    C    7.888    3.009    6.611
    295    H    8.195    4.065    6.745
    296    O    8.456    2.574    5.326
    297    C    7.417    2.465    4.370
    298    H    7.795    2.861    3.399
    299    N    6.963    1.076    4.234
    300    C    6.300    0.513    3.178
    301    N    4.932    0.689    -0.005
    302    H    4.407    0.099    -0.618
    303    H    5.132    1.626    -0.287
    304    N    5.976    1.117    2.016
    305    C    5.316    0.298    1.195
    306    N    4.986    -0.989    1.528
    307    H    4.472    -1.538    0.855
    308    C    5.289    -1.615    2.728
    309    O    4.964    -2.772    2.997
    310    C    6.017    -0.776    3.584
    311    N    6.511    -1.034    4.851
    312    C    7.085    0.087    5.190
    313    H    7.630    0.254    6.118
    314    C    6.298    3.326    4.890
    315    H    5.321    3.059    4.440
    316    O    6.598    4.693    4.670
    317    H    5.933    5.200    5.144
    318    C    6.344    2.983    6.375
    319    H    5.997    1.942    6.554
    320    O    5.653    3.913    7.241
    321    P    4.081    3.809    7.461
    322    O    3.686    4.907    8.370
    323    O    3.753    2.436    7.903
    324    O    3.386    4.031    6.071
    325    C    3.377    5.281    5.350
    326    H    4.391    5.733    5.338
    327    H    2.703    6.011    5.850
    328    C    2.925    5.129    3.874
    329    H    3.383    5.928    3.254
    330    O    3.381    3.865    3.320
    331    C    2.415    3.334    2.442
    332    H    2.952    3.196    1.473
    333    N    1.898    2.025    2.884
    334    C    2.116    1.585    4.168
    335    H    2.607    2.289    4.837
    336    C    1.268    1.235    1.948
    337    O    1.076    1.598    0.793
    338    N    0.859    0.015    2.415
    339    H    0.492    -0.580    1.684
    340    C    1.045    -0.482    3.706
    341    O    0.602    -1.572    4.047
    342    C    1.736    0.382    4.593
    343    H    1.912    0.045    5.615
    344    C    1.332    4.364    2.281
    345    H    0.321    3.920    2.161
    346    O    1.654    5.148    1.148
    347    H    0.879    5.115    0.551
    348    C    1.413    5.158    3.587
    349    H    0.920    4.609    4.420
    350    O    0.960    6.522    3.511
    351    P    -0.452    7.009    3.010
    352    O    -0.399    8.482    2.858
    353    O    -1.473    6.480    3.940
    354    O    -0.755    6.358    1.607
    355    C    -0.780    7.073    0.353
    356    H    0.114    7.733    0.271
    357    H    -1.674    7.731    0.314
    358    C    -0.814    6.170    -0.922
    359    H    -0.052    6.524    -1.650
    360    O    -0.485    4.787    -0.603
    361    C    -1.467    3.901    -1.101
    362    H    -0.906    3.146    -1.700
    363    N    -2.179    3.189    -0.039
    364    C    -2.839    2.006    -0.205
    365    N    -3.858    -0.584    -2.245
    366    H    -3.536    -0.285    -3.142
    367    H    -4.429    -1.408    -2.192
    368    N    -2.955    1.325    -1.356
    369    C    -3.634    0.197    -1.207
    370    N    -4.144    -0.218    -0.005
    371    H    -4.673    -1.075    0.000
    372    C    -4.056    0.474    1.196
    373    O    -4.551    0.038    2.240
    374    C    -3.340    1.686    1.039
    375    N    -3.029    2.668    1.966
    376    C    -2.342    3.545    1.279
    377    H    -1.924    4.462    1.686
    378    C    -2.400    4.653    -2.009
    379    H    -3.443    4.390    -1.804
    380    O    -2.128    4.377    -3.367
    381    H    -1.347    4.890    -3.626
    382    C    -2.185    6.116    -1.628
    383    H    -2.944    6.413    -0.868
    384    O    -2.181    7.022    -2.734
    385    P    -3.433    7.475    -3.562
    386    O    -2.978    7.787    -4.938
    387    O    -4.082    8.564    -2.807
    388    O    -4.524    6.323    -3.612
    389    C    -5.727    6.750    -4.336
    390    H    -5.510    6.600    -5.420
    391    H    -5.996    7.827    -4.229
    392    C    -7.008    5.924    -4.131
    393    H    -7.710    6.319    -4.901
    394    O    -6.595    4.565    -4.526
    395    C    -7.392    3.635    -3.831
    396    H    -7.655    2.813    -4.535
    397    N    -6.750    3.139    -2.577
    398    C    -5.734    3.821    -1.962
    399    H    -5.160    4.468    -2.623
    400    C    -5.552    3.751    -0.637
    401    H    -4.885    4.425    -0.100
    402    C    -7.539    2.311    -1.816
    403    O    -8.596    1.931    -2.296
    404    N    -7.213    2.024    -0.553
    405    C    -6.397    2.865    0.089
    406    N    -6.452    2.904    1.410
    407    H    -7.149    2.333    1.834
    408    H    -6.026    3.634    1.945
    409    C    -8.617    4.454    -3.447
    410    H    -9.278    3.992    -2.690
    411    O    -9.414    4.800    -4.570
    412    H    -9.975    5.542    -4.291
    413    C    -7.917    5.655    -2.848
    414    H    -7.304    5.428    -1.966
    415    O    -8.897    6.615    -2.462
    416    P    -8.939    7.419    -1.101
    417    O    -8.491    8.786    -1.428
    418    O    -8.252    6.720    0.004
    419    O    -10.452    7.482    -0.764
    420    C    -11.176    8.089    0.331
    421    H    -11.055    9.196    0.319
    422    H    -10.761    7.765    1.306
    423    C    -12.715    7.774    0.239
    424    H    -13.239    8.679    -0.133
    425    O    -12.917    6.722    -0.755
    426    C    -13.223    5.509    -0.120
    427    H    -13.853    4.994    -0.880
    428    N    -12.056    4.647    0.250
    429    C    -11.133    5.033    1.199
    430    H    -11.218    6.013    1.640
    431    C    -10.146    4.230    1.587
    432    H    -9.412    4.515    2.335
    433    C    -11.989    3.353    -0.268
    434    O    -12.882    2.960    -1.036
    435    N    -10.995    2.521    0.115
    436    C    -10.138    2.924    1.068
    437    N    -9.326    2.076    1.645
    438    H    -9.382    1.107    1.415
    439    H    -8.887    2.307    2.512
    440    C    -14.076    5.865    1.053
    441    H    -13.996    5.119    1.872
    442    O    -15.425    5.949    0.618
    443    H    -15.468    6.636    -0.071
    444    C    -13.488    7.230    1.489
    445    H    -12.757    7.068    2.313
    446    O    -14.502    8.150    1.928
    447    H    -15.099    7.680    2.535
 $END
