!*** FMO 5.3 (Gamess) INPUT generated by Facio 22.1.1.32 ***
 $CONTRL RUNTYP=ENERGY NPRINT=-5 ISPHER=1 MAXIT=200 $END
 $SYSTEM MWORDS=63 MEMDDI=63 $END
 $GDDI NGROUP=1 $END
 $SCF DIRSCF=.TRUE. NPUNCH=0 $END
!*** NumCPU : 2  MemPerNode : 512MB
 $PCM SOLVNT=WATER IEF=-10 ICOMP=2 ICAV=1 IDISP=1 IFMO=-1 $END
 $PCMCAV RADII=SUAHF $END
 $TESCAV NTSALL=60 $END
 $FMOPRP
    NAODIR=200
    NGRFMO(1)=1, 1, 0, 0, 0,   0, 0, 0, 0, 0
    IPIEDA=1
    NPRINT=9
 $END
 $FMO
      SCFTYP(1)=RHF
      MODGRD=10
      MODMUL=0
      MAXCAO=5
      MAXBND=16
      NLAYER=1
      MPLEVL(1)=2
      NFRAG=14
      ICHARG(1)=-1, -1, -1, -1, -1, -1, -1, -1, -1, -1, -1, -1, -1, 0
      FRGNAM(1)=F1, F2, F3, F4, F5, F6, F7, F8, F9, F10, F11, F12, F13, F14
      indat(1)=0
               1   -36   0
               37   -70   0
               71   -101   0
               102   -134   0
               135   -165   0
               166   -195   0
               196   -225   0
               226   -256   0
               257   -290   0
               291   -324   0
               325   -354   0
               355   -388   0
               389   -419   0
               420   -447   0
 $END

 $FMOBND
   -37   36       6-31G*    MINI
   -71   70       6-31G*    MINI
   -102   101       6-31G*    MINI
   -135   134       6-31G*    MINI
   -166   165       6-31G*    MINI
   -196   195       6-31G*    MINI
   -226   225       6-31G*    MINI
   -257   256       6-31G*    MINI
   -291   290       6-31G*    MINI
   -325   324       6-31G*    MINI
   -355   354       6-31G*    MINI
   -389   388       6-31G*    MINI
   -420   419       6-31G*    MINI
 $END
 $FMOHYB
 6-31G*      15   5
   1 0  -0.065034   0.288264   0.000000   0.000000   0.604412
         0.290129   0.000000   0.000000   0.319045  -0.017106
        -0.017106   0.057934   0.000000   0.000000   0.000000
   0 1  -0.065040   0.288293   0.569832   0.000000  -0.201456
         0.290147   0.300783   0.000000  -0.106342   0.049598
        -0.017106  -0.008771   0.000000  -0.027223   0.000000
   0 1  -0.065039   0.288293  -0.284916  -0.493490  -0.201455
         0.290145  -0.150392  -0.260486  -0.106340  -0.000427
         0.032923  -0.008771   0.033353   0.013612   0.023576
   0 1  -0.065039   0.288293  -0.284916   0.493490  -0.201455
         0.290145  -0.150392   0.260486  -0.106340  -0.000427
         0.032923  -0.008771  -0.033353   0.013612  -0.023576
   0 1   1.010938  -0.011975   0.000000   0.000000   0.000000
        -0.054085   0.000000   0.000000  -0.000000  -0.003174
        -0.003174  -0.003174   0.000000   0.000000   0.000000
 MINI         5   5
   1 0  -0.104883   0.308874   0.000000   0.000000   0.521806
   0 1  -0.104883   0.308874   0.491961   0.000000  -0.173934
   0 1  -0.104883   0.308876  -0.245980  -0.426050  -0.173933
   0 1  -0.104883   0.308876  -0.245980   0.426050  -0.173933
   0 1   0.988209   0.063992   0.000000   0.000000   0.000000
 $END
 
 $DATA
 FMO calculation
 C1 
 H.1-1    1
      N31 6
   
 O.1-1    8
      N31 6
      d 1
      1 0.800 1.0
   
 C.1-1    6
      N31 6
      d 1
      1 0.800 1.0
   
 N.1-1    7
      N31 6
      d 1
      1 0.800 1.0
   
 P.1-1   15
      N31 6
      d 1
      1 0.550 1.0
   
 $END
 $FMOXYZ
    1    H    -6.362    -6.438    8.389
    2    O    -7.041    -5.808    8.083
    3    C    -8.306    -6.465    8.245
    4    H    -8.502    -6.599    9.330
    5    H    -8.263    -7.481    7.790
    6    C    -9.482    -5.699    7.623
    7    H    -10.446    -6.136    7.967
    8    O    -9.481    -4.296    8.005
    9    C    -9.877    -3.514    6.882
    10    H    -10.713    -2.862    7.215
    11    N    -8.764    -2.664    6.416
    12    C    -8.889    -1.570    5.609
    13    N    -10.880    0.583    3.779
    14    H    -11.795    0.216    3.936
    15    H    -10.760    1.358    3.167
    16    N    -10.039    -1.109    5.087
    17    C    -9.858    -0.012    4.361
    18    N    -8.641    0.596    4.208
    19    H    -8.603    1.447    3.678
    20    C    -7.452    0.180    4.791
    21    O    -6.416    0.834    4.639
    22    C    -7.619    -1.032    5.510
    23    N    -6.695    -1.808    6.199
    24    C    -7.418    -2.776    6.714
    25    H    -7.033    -3.594    7.327
    26    C    -10.377    -4.470    5.808
    27    H    -10.218    -4.075    4.782
    28    O    -11.751    -4.770    5.996
    29    H    -12.004    -5.458    5.359
    30    C    -9.480    -5.663    6.093
    31    H    -8.445    -5.368    5.797
    32    O    -9.926    -6.935    5.555
    33    P    -8.810    -7.802    4.832
    34    O    -9.206    -9.238    4.837
    35    O    -7.492    -7.475    5.400
    36    O    -8.897    -7.232    3.388
    37    C    -10.062    -7.470    2.585
    38    H    -11.013    -7.290    3.142
    39    H    -10.071    -8.520    2.216
    40    C    -10.018    -6.566    1.376
    41    H    -10.660    -7.010    0.580
    42    O    -10.583    -5.240    1.720
    43    C    -9.907    -4.262    0.908
    44    H    -10.667    -3.621    0.408
    45    N    -8.947    -3.455    1.679
    46    C    -8.388    -2.311    1.227
    47    N    -8.164    0.103    -1.196
    48    H    -8.965    -0.122    -1.745
    49    H    -7.753    1.008    -1.335
    50    N    -8.711    -1.688    0.089
    51    C    -7.969    -0.615    -0.120
    52    N    -6.948    -0.227    0.709
    53    H    -6.398    0.563    0.433
    54    C    -6.539    -0.925    1.846
    55    O    -5.570    -0.577    2.519
    56    C    -7.381    -2.019    2.118
    57    N    -7.335    -2.945    3.142
    58    C    -8.297    -3.774    2.852
    59    H    -8.558    -4.668    3.423
    60    C    -9.117    -5.074    -0.108
    61    H    -8.272    -4.505    -0.557
    62    O    -9.942    -5.623    -1.122
    63    H    -9.483    -6.404    -1.471
    64    C    -8.643    -6.145    0.831
    65    H    -8.156    -5.700    1.702
    66    O    -7.797    -7.165    0.266
    67    P    -6.413    -7.459    1.026
    68    O    -6.325    -8.915    1.247
    69    O    -6.201    -6.585    2.196
    70    O    -5.252    -7.089    0.036
    71    C    -5.235    -7.775    -1.236
    72    H    -6.047    -8.535    -1.365
    73    H    -4.282    -8.343    -1.315
    74    C    -5.331    -6.794    -2.398
    75    H    -5.754    -7.292    -3.296
    76    O    -6.150    -5.620    -2.092
    77    C    -5.612    -4.507    -2.793
    78    H    -6.430    -4.175    -3.472
    79    N    -5.200    -3.384    -1.901
    80    C    -4.744    -3.626    -0.624
    81    H    -4.770    -4.669    -0.290
    82    C    -4.325    -2.621    0.161
    83    H    -3.956    -2.784    1.174
    84    C    -5.213    -2.078    -2.395
    85    O    -5.609    -1.874    -3.552
    86    N    -4.787    -1.054    -1.622
    87    C    -4.332    -1.301    -0.386
    88    N    -3.926    -0.268    0.350
    89    H    -3.879    0.655    -0.029
    90    H    -3.851    -0.361    1.344
    91    C    -4.445    -5.024    -3.628
    92    H    -3.634    -4.276    -3.745
    93    O    -4.889    -5.451    -4.902
    94    H    -4.145    -5.905    -5.325
    95    C    -3.988    -6.196    -2.774
    96    H    -3.546    -5.815    -1.825
    97    O    -3.181    -7.178    -3.448
    98    P    -1.798    -7.643    -2.854
    99    O    -1.776    -9.111    -2.707
    100    O    -1.461    -6.834    -1.668
    101    O    -0.818    -7.264    -4.019
    102    C    -1.092    -7.722    -5.369
    103    H    -2.149    -8.055    -5.528
    104    H    -0.432    -8.588    -5.599
    105    C    -0.809    -6.614    -6.379
    106    H    -1.101    -6.919    -7.407
    107    O    -1.597    -5.435    -6.029
    108    C    -0.812    -4.278    -6.213
    109    H    -1.373    -3.626    -6.920
    110    N    -0.619    -3.546    -4.945
    111    C    -0.306    -1.952    -3.458
    112    N    -0.481    -3.123    -2.737
    113    C    -0.679    -4.031    -3.658
    114    H    -0.900    -5.073    -3.445
    115    N    -0.014    0.332    -4.019
    116    C    -0.076    -0.067    -5.295
    117    H    0.015    0.729    -6.041
    118    N    -0.278    -1.293    -5.798
    119    C    -0.388    -2.197    -4.816
    120    C    -0.124    -0.614    -3.056
    121    N    -0.080    -0.286    -1.760
    122    H    0.182    -1.006    -1.108
    123    H    0.105    0.641    -1.438
    124    C    0.492    -4.708    -6.872
    125    H    1.337    -4.067    -6.571
    126    O    0.360    -4.668    -8.274
    127    H    1.163    -5.069    -8.642
    128    C    0.663    -6.147    -6.396
    129    H    1.032    -6.182    -5.347
    130    O    1.434    -7.006    -7.263
    131    P    3.004    -7.119    -7.381
    132    O    3.308    -7.857    -8.623
    133    O    3.528    -7.684    -6.121
    134    O    3.523    -5.663    -7.546
    135    C    4.829    -5.104    -7.857
    136    H    5.207    -5.559    -8.800
    137    H    5.559    -5.361    -7.057
    138    C    4.803    -3.526    -8.052
    139    H    4.913    -3.290    -9.132
    140    O    3.459    -3.067    -7.672
    141    C    3.528    -2.061    -6.678
    142    H    2.705    -1.353    -6.929
    143    N    3.339    -2.539    -5.276
    144    C    3.168    -3.869    -4.961
    145    H    3.183    -4.556    -5.787
    146    C    2.968    -4.291    -3.713
    147    H    2.819    -5.338    -3.450
    148    C    3.288    -1.594    -4.252
    149    O    3.379    -0.387    -4.518
    150    N    3.158    -2.016    -2.982
    151    C    3.009    -3.318    -2.696
    152    N    2.921    -3.704    -1.438
    153    H    3.002    -2.933    -0.809
    154    H    2.172    -4.315    -1.185
    155    C    4.855    -1.391    -6.860
    156    H    5.234    -0.894    -5.940
    157    O    4.757    -0.439    -7.904
    158    H    5.657    -0.196    -8.163
    159    C    5.758    -2.559    -7.223
    160    H    6.048    -3.124    -6.316
    161    O    6.921    -2.141    -7.954
    162    P    8.077    -1.098    -7.615
    163    O    8.085    -0.091    -8.693
    164    O    9.300    -1.910    -7.448
    165    O    7.786    -0.295    -6.267
    166    C    8.820    0.620    -5.724
    167    H    8.859    1.514    -6.388
    168    H    9.832    0.157    -5.763
    169    C    8.640    1.225    -4.259
    170    H    8.518    2.325    -4.342
    171    O    7.403    0.727    -3.676
    172    C    7.672    0.011    -2.490
    173    H    6.947    0.387    -1.761
    174    N    7.429    -1.441    -2.584
    175    C    7.419    -2.102    -3.764
    176    H    7.704    -1.496    -4.591
    177    C    7.099    -2.083    -1.434
    178    O    7.030    -1.480    -0.383
    179    N    6.791    -3.412    -1.549
    180    H    6.624    -3.926    -0.702
    181    C    6.757    -4.141    -2.716
    182    O    6.429    -5.324    -2.703
    183    C    7.104    -3.396    -3.885
    184    H    7.123    -3.901    -4.845
    185    C    9.010    0.410    -1.935
    186    H    9.547    -0.434    -1.467
    187    O    8.797    1.410    -0.957
    188    H    8.748    2.257    -1.417
    189    C    9.754    0.953    -3.156
    190    H    10.401    0.171    -3.596
    191    O    10.534    2.133    -2.832
    192    P    11.826    2.172    -1.887
    193    O    12.366    3.545    -2.025
    194    O    12.714    1.068    -2.316
    195    O    11.518    1.985    -0.320
    196    C    12.688    1.605    0.490
    197    H    13.612    2.127    0.135
    198    H    12.873    0.515    0.381
    199    C    12.674    1.888    2.027
    200    H    13.716    1.794    2.401
    201    O    12.250    3.260    2.317
    202    C    11.248    3.279    3.314
    203    H    11.755    3.537    4.274
    204    N    10.167    4.261    2.955
    205    C    9.630    4.243    1.684
    206    H    10.097    3.537    0.989
    207    C    9.602    5.045    3.935
    208    O    9.980    5.022    5.101
    209    N    8.596    5.881    3.512
    210    H    8.180    6.473    4.207
    211    C    8.103    6.011    2.236
    212    O    7.353    6.947    1.963
    213    C    8.640    5.068    1.302
    214    H    8.307    5.129    0.272
    215    C    10.690    1.885    3.389
    216    H    9.850    1.878    2.663
    217    O    10.245    1.547    4.689
    218    H    9.989    0.604    4.672
    219    C    11.817    0.951    2.903
    220    H    11.409    0.203    2.192
    221    O    12.548    0.292    3.968
    222    P    12.849    -1.267    4.101
    223    O    13.303    -1.512    5.487
    224    O    13.820    -1.623    3.046
    225    O    11.545    -2.120    3.856
    226    C    11.223    -3.347    4.597
    227    H    11.011    -3.091    5.659
    228    H    12.087    -4.043    4.605
    229    C    9.953    -4.125    4.077
    230    H    9.149    -4.072    4.823
    231    O    9.489    -3.550    2.808
    232    C    9.813    -4.452    1.777
    233    H    8.867    -4.982    1.559
    234    N    10.262    -3.795    0.553
    235    C    10.996    -2.640    0.612
    236    H    11.229    -2.270    1.612
    237    C    11.370    -2.012    -0.508
    238    H    11.944    -1.088    -0.497
    239    C    9.842    -4.310    -0.670
    240    O    9.113    -5.314    -0.690
    241    N    10.221    -3.697    -1.811
    242    C    10.967    -2.583    -1.751
    243    N    11.324    -2.001    -2.886
    244    H    11.887    -1.173    -2.890
    245    H    11.016    -2.393    -3.752
    246    C    10.801    -5.391    2.417
    247    H    11.786    -4.887    2.581
    248    O    10.989    -6.609    1.736
    249    H    10.133    -7.060    1.742
    250    C    10.033    -5.626    3.703
    251    H    10.600    -6.201    4.461
    252    O    8.693    -6.130    3.487
    253    P    7.698    -7.294    3.749
    254    O    8.421    -8.468    4.276
    255    O    6.970    -7.525    2.479
    256    O    6.626    -6.842    4.822
    257    C    5.447    -5.960    4.760
    258    H    4.531    -6.588    4.729
    259    H    5.473    -5.355    3.834
    260    C    5.305    -4.970    6.001
    261    H    4.893    -5.537    6.861
    262    O    6.713    -4.731    6.315
    263    C    6.922    -3.455    6.810
    264    H    7.532    -3.612    7.730
    265    N    7.621    -2.569    5.889
    266    C    7.404    -2.233    4.561
    267    N    5.488    -2.339    1.674
    268    H    5.583    -1.895    0.788
    269    H    4.815    -3.056    1.848
    270    N    6.472    -2.726    3.709
    271    C    6.420    -2.089    2.571
    272    N    7.329    -1.164    2.212
    273    H    7.339    -0.841    1.262
    274    C    8.418    -0.825    2.945
    275    O    9.190    -0.109    2.355
    276    C    8.361    -1.296    4.279
    277    N    9.148    -1.019    5.393
    278    C    8.675    -1.809    6.318
    279    H    9.070    -1.905    7.333
    280    C    5.611    -2.873    7.145
    281    H    5.629    -1.765    7.099
    282    O    5.185    -3.306    8.423
    283    H    4.252    -3.045    8.498
    284    C    4.722    -3.442    6.072
    285    H    4.835    -2.996    5.098
    286    O    3.345    -3.179    6.384
    287    P    2.722    -1.697    6.716
    288    O    2.580    -1.677    8.189
    289    O    1.482    -1.646    5.916
    290    O    3.622    -0.391    6.325
    291    C    3.100    1.016    6.125
    292    H    2.763    1.402    7.111
    293    H    2.198    1.009    5.474
    294    C    4.098    2.157    5.503
    295    H    4.530    2.721    6.353
    296    O    5.155    1.371    4.929
    297    C    5.036    1.393    3.519
    298    H    6.047    1.123    3.137
    299    N    4.078    0.483    2.905
    300    C    4.020    0.385    1.558
    301    N    5.010    1.475    -1.536
    302    H    5.075    1.113    -2.461
    303    H    5.693    2.141    -1.246
    304    N    4.791    1.042    0.680
    305    C    4.486    0.773    -0.565
    306    N    3.529    -0.135    -0.915
    307    H    3.429    -0.403    -1.880
    308    C    2.721    -0.817    -0.014
    309    O    1.837    -1.610    -0.315
    310    C    3.020    -0.510    1.300
    311    N    2.449    -0.987    2.447
    312    C    3.100    -0.364    3.373
    313    H    2.832    -0.510    4.388
    314    C    4.712    2.775    3.138
    315    H    4.178    2.900    2.174
    316    O    5.941    3.474    3.078
    317    H    6.123    3.800    3.966
    318    C    3.793    3.226    4.258
    319    H    2.724    3.083    3.996
    320    O    4.046    4.647    4.465
    321    P    4.078    5.902    3.388
    322    O    5.121    6.823    3.926
    323    O    2.702    6.436    3.421
    324    O    4.409    5.639    1.800
    325    C    4.332    6.828    0.879
    326    H    5.107    7.565    1.193
    327    H    3.357    7.346    1.022
    328    C    4.490    6.779    -0.741
    329    H    5.190    7.592    -1.030
    330    O    5.092    5.539    -1.249
    331    C    4.217    4.944    -2.225
    332    H    4.853    4.440    -2.991
    333    N    3.274    3.985    -1.606
    334    C    3.186    3.907    -0.244
    335    H    4.077    4.243    0.265
    336    C    2.436    3.251    -2.408
    337    O    2.467    3.306    -3.632
    338    N    1.542    2.461    -1.733
    339    H    0.943    1.933    -2.344
    340    C    1.363    2.398    -0.354
    341    O    0.547    1.626    0.139
    342    C    2.240    3.226    0.397
    343    H    2.214    3.180    1.482
    344    C    3.451    6.066    -2.864
    345    H    2.475    5.744    -3.288
    346    O    4.213    6.676    -3.896
    347    H    3.726    7.459    -4.198
    348    C    3.204    6.969    -1.663
    349    H    2.356    6.575    -1.061
    350    O    2.976    8.332    -2.078
    351    P    1.528    8.860    -2.491
    352    O    1.718    10.244    -2.978
    353    O    0.654    8.688    -1.315
    354    O    0.881    8.013    -3.698
    355    C    -0.277    8.672    -4.350
    356    H    0.087    9.518    -4.979
    357    H    -0.963    9.119    -3.588
    358    C    -1.226    7.826    -5.276
    359    H    -1.222    8.232    -6.310
    360    O    -0.802    6.433    -5.370
    361    C    -1.942    5.581    -5.227
    362    H    -1.877    4.798    -6.017
    363    N    -1.976    4.964    -3.901
    364    C    -2.597    3.791    -3.563
    365    N    -4.433    0.968    -4.421
    366    H    -4.807    0.156    -3.972
    367    H    -4.573    1.088    -5.403
    368    N    -3.274    2.975    -4.396
    369    C    -3.741    1.889    -3.773
    370    N    -3.543    1.649    -2.442
    371    H    -3.915    0.794    -2.065
    372    C    -2.826    2.465    -1.578
    373    O    -2.676    2.166    -0.394
    374    C    -2.363    3.639    -2.213
    375    N    -1.646    4.714    -1.699
    376    C    -1.436    5.479    -2.740
    377    H    -0.884    6.423    -2.735
    378    C    -3.170    6.426    -5.443
    379    H    -4.073    6.021    -4.934
    380    O    -3.429    6.562    -6.827
    381    H    -4.180    7.168    -6.940
    382    C    -2.709    7.728    -4.806
    383    H    -2.646    7.591    -3.699
    384    O    -3.495    8.892    -5.186
    385    P    -4.598    9.354    -4.141
    386    O    -5.274    10.578    -4.622
    387    O    -3.968    9.423    -2.807
    388    O    -5.623    8.171    -4.106
    389    C    -7.021    8.368    -4.409
    390    H    -7.141    8.734    -5.457
    391    H    -7.464    9.129    -3.719
    392    C    -7.854    7.079    -4.268
    393    H    -8.646    7.039    -5.044
    394    O    -7.040    5.858    -4.379
    395    C    -7.586    4.876    -3.498
    396    H    -7.781    3.980    -4.132
    397    N    -6.684    4.518    -2.369
    398    C    -5.756    5.400    -1.881
    399    H    -5.639    6.332    -2.442
    400    C    -5.038    5.111    -0.787
    401    H    -4.317    5.805    -0.364
    402    C    -6.873    3.297    -1.742
    403    O    -7.728    2.534    -2.203
    404    N    -6.140    2.965    -0.650
    405    C    -5.286    3.869    -0.134
    406    N    -4.661    3.603    1.010
    407    H    -4.747    2.697    1.413
    408    H    -3.895    4.169    1.323
    409    C    -8.902    5.435    -2.977
    410    H    -9.184    5.034    -1.980
    411    O    -9.938    5.181    -3.912
    412    H    -10.757    5.576    -3.576
    413    C    -8.525    6.911    -2.902
    414    H    -7.701    7.063    -2.172
    415    O    -9.605    7.855    -2.701
    416    P    -9.958    8.233    -1.196
    417    O    -10.565    9.581    -1.120
    418    O    -8.804    7.977    -0.309
    419    O    -11.021    7.185    -0.849
    420    C    -12.360    7.362    -0.369
    421    H    -12.968    7.962    -1.086
    422    H    -12.352    7.917    0.597
    423    C    -13.051    5.991    -0.152
    424    H    -14.021    5.948    -0.689
    425    O    -12.212    4.907    -0.676
    426    C    -12.136    3.850    0.235
    427    H    -12.489    2.983    -0.367
    428    N    -10.757    3.588    0.743
    429    C    -9.898    4.614    1.084
    430    H    -10.256    5.631    0.904
    431    C    -8.676    4.353    1.583
    432    H    -7.980    5.137    1.877
    433    C    -10.353    2.265    0.904
    434    O    -11.124    1.354    0.566
    435    N    -9.147    1.992    1.448
    436    C    -8.317    2.986    1.782
    437    N    -7.166    2.658    2.366
    438    H    -6.921    1.702    2.510
    439    H    -6.508    3.361    2.639
    440    C    -13.136    4.101    1.348
    441    H    -12.741    3.781    2.338
    442    O    -14.346    3.415    1.073
    443    H    -15.025    3.691    1.716
    444    C    -13.295    5.624    1.320
    445    H    -12.485    6.099    1.917
    446    O    -14.586    6.096    1.753
    447    H    -14.764    5.810    2.668
 $END
