!*** FMO 5.3 (Gamess) INPUT generated by Facio 22.1.1.32 ***
 $CONTRL RUNTYP=ENERGY NPRINT=-5 ISPHER=1 MAXIT=200 $END
 $SYSTEM MWORDS=63 MEMDDI=63 $END
 $GDDI NGROUP=1 $END
 $SCF DIRSCF=.TRUE. NPUNCH=0 $END
!*** NumCPU : 2  MemPerNode : 512MB
 $PCM SOLVNT=WATER IEF=-10 ICOMP=2 ICAV=1 IDISP=1 IFMO=-1 $END
 $PCMCAV RADII=SUAHF $END
 $TESCAV NTSALL=60 $END
 $FMOPRP
    NAODIR=200
    NGRFMO(1)=1, 1, 0, 0, 0,   0, 0, 0, 0, 0
    IPIEDA=1
    NPRINT=9
 $END
 $FMO
      SCFTYP(1)=RHF
      MODGRD=10
      MODMUL=0
      MAXCAO=5
      MAXBND=16
      NLAYER=1
      MPLEVL(1)=2
      NFRAG=14
      ICHARG(1)=-1, -1, -1, -1, -1, -1, -1, -1, -1, -1, -1, -1, -1, 0
      FRGNAM(1)=F1, F2, F3, F4, F5, F6, F7, F8, F9, F10, F11, F12, F13, F14
      indat(1)=0
               1   -36   0
               37   -70   0
               71   -101   0
               102   -134   0
               135   -165   0
               166   -195   0
               196   -225   0
               226   -256   0
               257   -290   0
               291   -324   0
               325   -354   0
               355   -388   0
               389   -419   0
               420   -447   0
 $END

 $FMOBND
   -37   36       6-31G*    MINI
   -71   70       6-31G*    MINI
   -102   101       6-31G*    MINI
   -135   134       6-31G*    MINI
   -166   165       6-31G*    MINI
   -196   195       6-31G*    MINI
   -226   225       6-31G*    MINI
   -257   256       6-31G*    MINI
   -291   290       6-31G*    MINI
   -325   324       6-31G*    MINI
   -355   354       6-31G*    MINI
   -389   388       6-31G*    MINI
   -420   419       6-31G*    MINI
 $END
 $FMOHYB
 6-31G*      15   5
   1 0  -0.065034   0.288264   0.000000   0.000000   0.604412
         0.290129   0.000000   0.000000   0.319045  -0.017106
        -0.017106   0.057934   0.000000   0.000000   0.000000
   0 1  -0.065040   0.288293   0.569832   0.000000  -0.201456
         0.290147   0.300783   0.000000  -0.106342   0.049598
        -0.017106  -0.008771   0.000000  -0.027223   0.000000
   0 1  -0.065039   0.288293  -0.284916  -0.493490  -0.201455
         0.290145  -0.150392  -0.260486  -0.106340  -0.000427
         0.032923  -0.008771   0.033353   0.013612   0.023576
   0 1  -0.065039   0.288293  -0.284916   0.493490  -0.201455
         0.290145  -0.150392   0.260486  -0.106340  -0.000427
         0.032923  -0.008771  -0.033353   0.013612  -0.023576
   0 1   1.010938  -0.011975   0.000000   0.000000   0.000000
        -0.054085   0.000000   0.000000  -0.000000  -0.003174
        -0.003174  -0.003174   0.000000   0.000000   0.000000
 MINI         5   5
   1 0  -0.104883   0.308874   0.000000   0.000000   0.521806
   0 1  -0.104883   0.308874   0.491961   0.000000  -0.173934
   0 1  -0.104883   0.308876  -0.245980  -0.426050  -0.173933
   0 1  -0.104883   0.308876  -0.245980   0.426050  -0.173933
   0 1   0.988209   0.063992   0.000000   0.000000   0.000000
 $END
 
 $DATA
 FMO calculation
 C1 
 H.1-1    1
      N31 6
   
 O.1-1    8
      N31 6
      d 1
      1 0.800 1.0
   
 C.1-1    6
      N31 6
      d 1
      1 0.800 1.0
   
 N.1-1    7
      N31 6
      d 1
      1 0.800 1.0
   
 P.1-1   15
      N31 6
      d 1
      1 0.550 1.0
   
 $END
 $FMOXYZ
    1    H    -9.554    -3.016    6.896
    2    O    -9.920    -3.271    6.030
    3    C    -9.871    -4.704    5.962
    4    H    -10.094    -5.099    6.980
    5    H    -8.841    -5.029    5.695
    6    C    -10.895    -5.335    4.991
    7    H    -11.135    -6.359    5.337
    8    O    -12.119    -4.532    5.007
    9    C    -12.656    -4.351    3.711
    10    H    -13.681    -4.791    3.751
    11    N    -12.771    -2.970    3.266
    12    C    -13.351    -2.565    2.077
    13    N    -14.923    -3.313    -0.940
    14    H    -15.347    -2.825    -1.703
    15    H    -15.041    -4.304    -0.877
    16    N    -13.965    -3.352    1.165
    17    C    -14.350    -2.689    0.079
    18    N    -14.196    -1.335    -0.053
    19    H    -14.600    -0.893    -0.860
    20    C    -13.605    -0.493    0.887
    21    O    -13.515    0.724    0.701
    22    C    -13.138    -1.209    2.022
    23    N    -12.411    -0.776    3.132
    24    C    -12.199    -1.869    3.827
    25    H    -11.624    -1.948    4.752
    26    C    -11.806    -5.035    2.733
    27    H    -11.468    -4.324    1.981
    28    O    -12.641    -5.953    2.073
    29    H    -12.595    -6.800    2.560
    30    C    -10.503    -5.444    3.514
    31    H    -9.779    -4.612    3.367
    32    O    -9.807    -6.688    3.238
    33    P    -10.559    -7.927    2.650
    34    O    -9.796    -9.177    2.791
    35    O    -11.892    -7.972    3.303
    36    O    -10.649    -7.490    1.140
    37    C    -11.464    -8.067    0.122
    38    H    -12.539    -8.063    0.408
    39    H    -11.142    -9.119    -0.046
    40    C    -11.273    -7.312    -1.208
    41    H    -11.633    -7.959    -2.042
    42    O    -12.026    -6.044    -1.260
    43    C    -11.269    -5.082    -2.033
    44    H    -11.956    -4.650    -2.800
    45    N    -10.705    -4.012    -1.202
    46    C    -10.314    -2.736    -1.525
    47    N    -9.672    -0.245    -3.852
    48    H    -10.080    -0.615    -4.688
    49    H    -9.328    0.691    -3.858
    50    N    -10.372    -2.152    -2.737
    51    C    -9.764    -0.956    -2.746
    52    N    -9.273    -0.353    -1.615
    53    H    -8.797    0.529    -1.698
    54    C    -9.307    -0.912    -0.346
    55    O    -8.917    -0.328    0.658
    56    C    -9.819    -2.211    -0.351
    57    N    -9.826    -3.141    0.660
    58    C    -10.340    -4.196    0.093
    59    H    -10.517    -5.160    0.573
    60    C    -10.160    -5.868    -2.677
    61    H    -9.279    -5.246    -2.936
    62    O    -10.686    -6.482    -3.839
    63    H    -11.552    -6.856    -3.617
    64    C    -9.857    -6.846    -1.535
    65    H    -9.471    -6.272    -0.670
    66    O    -9.008    -7.952    -1.820
    67    P    -7.806    -8.348    -0.856
    68    O    -7.682    -9.822    -0.867
    69    O    -7.794    -7.656    0.447
    70    O    -6.574    -7.800    -1.628
    71    C    -6.464    -8.186    -3.011
    72    H    -7.356    -8.698    -3.449
    73    H    -5.635    -8.921    -3.091
    74    C    -6.177    -6.973    -3.869
    75    H    -6.373    -7.180    -4.942
    76    O    -6.922    -5.787    -3.512
    77    C    -6.107    -4.663    -3.770
    78    H    -6.627    -4.104    -4.581
    79    N    -5.990    -3.794    -2.585
    80    C    -6.011    -4.355    -1.323
    81    H    -6.108    -5.443    -1.269
    82    C    -5.985    -3.587    -0.232
    83    H    -6.067    -3.984    0.778
    84    C    -5.786    -2.425    -2.735
    85    O    -5.616    -1.950    -3.867
    86    N    -5.801    -1.639    -1.642
    87    C    -5.969    -2.192    -0.431
    88    N    -6.157    -1.404    0.593
    89    H    -6.038    -0.431    0.410
    90    H    -5.935    -1.715    1.519
    91    C    -4.775    -5.171    -4.292
    92    H    -3.920    -4.567    -3.925
    93    O    -4.771    -5.195    -5.707
    94    H    -3.863    -5.460    -5.938
    95    C    -4.746    -6.581    -3.705
    96    H    -4.519    -6.539    -2.614
    97    O    -4.009    -7.579    -4.397
    98    P    -2.783    -8.356    -3.835
    99    O    -2.813    -9.764    -4.284
    100    O    -2.581    -8.096    -2.392
    101    O    -1.676    -7.645    -4.645
    102    C    -1.882    -7.353    -6.051
    103    H    -2.943    -7.300    -6.405
    104    H    -1.379    -8.130    -6.666
    105    C    -1.252    -6.018    -6.317
    106    H    -1.231    -5.773    -7.402
    107    O    -2.001    -4.963    -5.622
    108    C    -1.098    -3.997    -5.145
    109    H    -1.386    -3.004    -5.568
    110    N    -1.041    -3.933    -3.652
    111    C    -0.685    -3.309    -1.564
    112    N    -1.052    -4.639    -1.515
    113    C    -1.233    -4.968    -2.766
    114    H    -1.534    -5.957    -3.098
    115    N    -0.064    -1.128    -0.908
    116    C    -0.056    -0.831    -2.216
    117    H    0.216    0.202    -2.464
    118    N    -0.341    -1.616    -3.269
    119    C    -0.661    -2.855    -2.870
    120    C    -0.363    -2.397    -0.544
    121    N    -0.368    -2.792    0.744
    122    H    -0.589    -3.743    0.984
    123    H    -0.146    -2.193    1.516
    124    C    0.234    -4.406    -5.695
    125    H    0.920    -4.032    -4.936
    126    O    0.507    -3.871    -6.972
    127    H    1.334    -4.297    -7.245
    128    C    0.161    -5.926    -5.741
    129    H    0.199    -6.321    -4.702
    130    O    1.090    -6.605    -6.615
    131    P    2.175    -7.662    -6.147
    132    O    2.606    -8.441    -7.332
    133    O    1.732    -8.437    -4.970
    134    O    3.408    -6.791    -5.725
    135    C    3.923    -5.840    -6.694
    136    H    3.291    -5.731    -7.611
    137    H    4.926    -6.170    -7.042
    138    C    4.026    -4.438    -6.101
    139    H    3.945    -3.678    -6.910
    140    O    2.980    -4.190    -5.193
    141    C    3.346    -3.282    -4.199
    142    H    2.642    -2.419    -4.294
    143    N    3.223    -3.869    -2.828
    144    C    2.972    -5.215    -2.640
    145    H    2.899    -5.825    -3.545
    146    C    2.854    -5.740    -1.412
    147    H    2.685    -6.802    -1.244
    148    C    3.262    -3.027    -1.726
    149    O    3.377    -1.809    -1.912
    150    N    3.181    -3.544    -0.478
    151    C    2.986    -4.861    -0.300
    152    N    2.947    -5.346    0.940
    153    H    3.151    -4.763    1.727
    154    H    2.814    -6.320    1.120
    155    C    4.740    -2.857    -4.571
    156    H    5.342    -2.608    -3.678
    157    O    4.658    -1.749    -5.455
    158    H    5.553    -1.555    -5.766
    159    C    5.232    -4.125    -5.283
    160    H    5.365    -4.953    -4.547
    161    O    6.306    -3.967    -6.205
    162    P    7.576    -4.874    -6.134
    163    O    8.221    -4.884    -7.467
    164    O    7.292    -6.190    -5.516
    165    O    8.443    -4.015    -5.159
    166    C    8.576    -2.593    -5.443
    167    H    7.747    -2.142    -6.035
    168    H    9.503    -2.429    -6.038
    169    C    8.663    -1.781    -4.161
    170    H    8.687    -0.692    -4.381
    171    O    7.565    -2.025    -3.247
    172    C    8.046    -1.937    -1.914
    173    H    7.467    -1.112    -1.437
    174    N    7.833    -3.220    -1.159
    175    C    7.594    -4.418    -1.801
    176    H    7.610    -4.379    -2.894
    177    C    7.836    -3.153    0.220
    178    O    8.025    -2.123    0.829
    179    N    7.598    -4.347    0.862
    180    H    7.629    -4.325    1.864
    181    C    7.375    -5.575    0.292
    182    O    7.214    -6.566    1.006
    183    C    7.365    -5.567    -1.140
    184    H    7.202    -6.510    -1.657
    185    C    9.520    -1.528    -2.019
    186    H    10.116    -1.944    -1.185
    187    O    9.636    -0.122    -2.053
    188    H    10.579    0.095    -2.113
    189    C    9.872    -2.159    -3.356
    190    H    9.831    -3.264    -3.253
    191    O    11.034    -1.819    -4.071
    192    P    12.201    -0.875    -4.367
    193    O    11.972    -0.236    -5.678
    194    O    13.421    -1.699    -4.242
    195    O    12.269    0.268    -3.269
    196    C    13.562    0.966    -3.346
    197    H    13.899    1.167    -4.398
    198    H    14.354    0.349    -2.854
    199    C    13.571    2.330    -2.665
    200    H    14.592    2.765    -2.718
    201    O    12.686    3.248    -3.362
    202    C    11.750    3.800    -2.466
    203    H    12.151    4.804    -2.206
    204    N    10.408    3.884    -3.118
    205    C    9.887    2.789    -3.772
    206    H    10.507    1.891    -3.740
    207    C    9.722    5.081    -3.078
    208    O    10.161    6.079    -2.535
    209    N    8.496    5.062    -3.700
    210    H    7.978    5.928    -3.675
    211    C    7.903    4.008    -4.357
    212    O    6.795    4.150    -4.875
    213    C    8.680    2.803    -4.366
    214    H    8.265    1.923    -4.850
    215    C    11.740    2.946    -1.208
    216    H    10.959    2.160    -1.294
    217    O    11.525    3.746    -0.062
    218    H    11.520    3.173    0.728
    219    C    13.127    2.267    -1.201
    220    H    12.936    1.192    -0.961
    221    O    14.144    2.839    -0.329
    222    P    15.223    1.842    0.291
    223    O    16.246    2.615    1.035
    224    O    15.740    0.974    -0.792
    225    O    14.438    0.928    1.291
    226    C    14.444    1.165    2.720
    227    H    13.804    2.047    2.935
    228    H    15.462    1.397    3.108
    229    C    13.877    -0.023    3.535
    230    H    13.390    0.367    4.450
    231    O    12.879    -0.751    2.774
    232    C    13.244    -2.100    2.703
    233    H    12.752    -2.574    3.582
    234    N    12.813    -2.712    1.443
    235    C    12.977    -2.008    0.279
    236    H    13.363    -0.990    0.386
    237    C    12.638    -2.546    -0.897
    238    H    12.749    -2.004    -1.831
    239    C    12.279    -3.993    1.430
    240    O    12.128    -4.595    2.505
    241    N    11.933    -4.560    0.250
    242    C    12.108    -3.873    -0.895
    243    N    11.776    -4.447    -2.046
    244    H    11.911    -3.979    -2.920
    245    H    11.444    -5.392    -2.049
    246    C    14.738    -2.129    2.884
    247    H    15.257    -1.772    1.967
    248    O    15.222    -3.401    3.277
    249    H    14.875    -3.547    4.171
    250    C    14.876    -1.109    3.994
    251    H    15.903    -0.676    3.989
    252    O    14.507    -1.675    5.268
    253    P    15.340    -1.550    6.579
    254    O    16.698    -1.055    6.268
    255    O    15.263    -2.844    7.294
    256    O    14.563    -0.479    7.428
    257    C    13.158    -0.662    7.749
    258    H    13.057    -1.120    8.759
    259    H    12.638    -1.338    7.026
    260    C    12.389    0.666    7.741
    261    H    12.661    1.274    8.629
    262    O    12.769    1.452    6.574
    263    C    11.704    2.297    6.211
    264    H    12.075    3.326    6.406
    265    N    11.358    2.182    4.779
    266    C    10.820    1.124    4.070
    267    N    9.662    -2.133    3.929
    268    H    9.378    -2.804    3.256
    269    H    9.812    -2.416    4.875
    270    N    10.464    -0.077    4.561
    271    C    10.018    -0.899    3.623
    272    N    9.893    -0.551    2.305
    273    H    9.506    -1.216    1.661
    274    C    10.233    0.682    1.776
    275    O    10.092    0.938    0.581
    276    C    10.736    1.567    2.764
    277    N    11.200    2.871    2.645
    278    C    11.556    3.195    3.864
    279    H    11.981    4.161    4.152
    280    C    10.541    2.001    7.143
    281    H    9.579    2.011    6.606
    282    O    10.526    2.951    8.195
    283    H    9.932    2.611    8.879
    284    C    10.855    0.591    7.659
    285    H    10.625    -0.178    6.902
    286    O    10.267    0.261    8.936
    287    P    8.916    -0.565    9.052
    288    O    8.376    -0.329    10.410
    289    O    9.163    -1.982    8.694
    290    O    7.905    0.049    8.036
    291    C    7.310    1.353    8.220
    292    H    8.007    2.054    8.736
    293    H    6.404    1.270    8.864
    294    C    6.897    2.025    6.895
    295    H    7.270    3.073    6.882
    296    O    7.490    1.347    5.747
    297    C    6.529    1.195    4.741
    298    H    7.027    1.473    3.789
    299    N    6.051    -0.186    4.660
    300    C    5.525    -0.789    3.557
    301    N    4.534    -0.643    0.261
    302    H    4.778    0.289    0.004
    303    H    4.090    -1.230    -0.423
    304    N    5.344    -0.212    2.357
    305    C    4.799    -1.048    1.485
    306    N    4.468    -2.345    1.782
    307    H    4.058    -2.895    1.044
    308    C    4.651    -2.970    3.007
    309    O    4.325    -4.148    3.193
    310    C    5.227    -2.083    3.951
    311    N    5.562    -2.288    5.281
    312    C    6.054    -1.134    5.658
    313    H    6.428    -0.908    6.654
    314    C    5.442    2.176    5.064
    315    H    4.473    1.941    4.578
    316    O    5.907    3.450    4.662
    317    H    6.711    3.639    5.164
    318    C    5.390    2.068    6.589
    319    H    4.947    1.096    6.910
    320    O    4.812    3.199    7.273
    321    P    3.254    3.380    7.385
    322    O    3.002    4.531    8.283
    323    O    2.636    2.095    7.776
    324    O    2.750    3.729    5.946
    325    C    3.226    4.900    5.251
    326    H    4.327    5.029    5.304
    327    H    2.790    5.810    5.717
    328    C    2.774    4.866    3.797
    329    H    3.123    5.769    3.251
    330    O    3.240    3.689    3.067
    331    C    2.227    3.307    2.150
    332    H    2.701    3.320    1.143
    333    N    1.681    1.958    2.452
    334    C    1.738    1.431    3.722
    335    H    2.239    2.051    4.464
    336    C    1.080    1.273    1.421
    337    O    0.995    1.719    0.294
    338    N    0.567    0.052    1.772
    339    H    0.182    -0.435    0.974
    340    C    0.569    -0.534    3.023
    341    O    0.041    -1.631    3.199
    342    C    1.217    0.237    4.038
    343    H    1.261    -0.159    5.049
    344    C    1.154    4.377    2.227
    345    H    0.143    3.978    1.998
    346    O    1.480    5.444    1.353
    347    H    0.667    5.968    1.270
    348    C    1.265    4.774    3.695
    349    H    0.943    3.921    4.334
    350    O    0.689    6.025    4.118
    351    P    -0.772    6.054    4.708
    352    O    -0.921    7.320    5.461
    353    O    -1.102    4.790    5.405
    354    O    -1.630    6.174    3.414
    355    C    -1.343    7.276    2.523
    356    H    -0.267    7.570    2.496
    357    H    -1.924    8.166    2.842
    358    C    -1.756    6.917    1.113
    359    H    -1.423    7.691    0.386
    360    O    -1.200    5.647    0.697
    361    C    -2.161    4.976    -0.091
    362    H    -1.665    4.719    -1.055
    363    N    -2.627    3.755    0.563
    364    C    -3.092    2.649    -0.080
    365    N    -3.820    0.928    -3.004
    366    H    -4.245    0.065    -3.270
    367    H    -3.605    1.596    -3.716
    368    N    -3.206    2.491    -1.413
    369    C    -3.641    1.275    -1.741
    370    N    -3.839    0.287    -0.811
    371    H    -4.268    -0.563    -1.130
    372    C    -3.690    0.431    0.569
    373    O    -3.851    -0.468    1.396
    374    C    -3.352    1.741    0.920
    375    N    -3.141    2.287    2.173
    376    C    -2.703    3.488    1.915
    377    H    -2.397    4.213    2.666
    378    C    -3.288    5.950    -0.325
    379    H    -4.259    5.443    -0.485
    380    O    -2.981    6.770    -1.432
    381    H    -3.721    7.387    -1.536
    382    C    -3.253    6.727    0.980
    383    H    -3.564    6.056    1.815
    384    O    -3.906    8.016    0.994
    385    P    -5.106    8.269    1.990
    386    O    -5.107    9.689    2.396
    387    O    -5.137    7.257    3.065
    388    O    -6.341    8.023    1.063
    389    C    -6.420    8.807    -0.154
    390    H    -5.433    9.177    -0.533
    391    H    -7.068    9.697    0.010
    392    C    -7.024    7.955    -1.256
    393    H    -7.074    8.547    -2.190
    394    O    -6.148    6.815    -1.530
    395    C    -6.939    5.729    -1.992
    396    H    -6.540    5.482    -3.002
    397    N    -6.874    4.514    -1.120
    398    C    -6.590    4.643    0.221
    399    H    -6.353    5.652    0.573
    400    C    -6.571    3.581    1.031
    401    H    -6.358    3.650    2.097
    402    C    -7.124    3.246    -1.656
    403    O    -7.337    3.144    -2.874
    404    N    -7.134    2.160    -0.840
    405    C    -6.890    2.321    0.472
    406    N    -6.971    1.287    1.285
    407    H    -7.516    0.517    0.929
    408    H    -7.062    1.431    2.268
    409    C    -8.355    6.270    -2.126
    410    H    -9.121    5.481    -2.001
    411    O    -8.501    6.918    -3.379
    412    H    -9.283    7.484    -3.297
    413    C    -8.395    7.294    -0.996
    414    H    -8.333    6.785    -0.009
    415    O    -9.490    8.243    -1.082
    416    P    -10.558    8.437    0.076
    417    O    -10.438    9.811    0.619
    418    O    -10.479    7.323    1.048
    419    O    -11.986    8.301    -0.554
    420    C    -12.597    9.117    -1.560
    421    H    -12.014    10.041    -1.760
    422    H    -13.607    9.428    -1.203
    423    C    -12.767    8.345    -2.874
    424    H    -12.856    9.033    -3.741
    425    O    -11.616    7.471    -3.080
    426    C    -12.051    6.190    -3.480
    427    H    -11.530    6.068    -4.458
    428    N    -11.644    5.085    -2.565
    429    C    -11.806    5.180    -1.200
    430    H    -12.203    6.114    -0.815
    431    C    -11.455    4.176    -0.386
    432    H    -11.540    4.236    0.697
    433    C    -11.181    3.892    -3.120
    434    O    -11.119    3.788    -4.356
    435    N    -10.838    2.861    -2.312
    436    C    -10.975    2.980    -0.982
    437    N    -10.678    1.947    -0.209
    438    H    -10.823    1.964    0.780
    439    H    -10.403    1.096    -0.635
    440    C    -13.545    6.235    -3.735
    441    H    -14.053    5.300    -3.406
    442    O    -13.779    6.462    -5.117
    443    H    -14.727    6.627    -5.261
    444    C    -13.985    7.410    -2.862
    445    H    -14.123    7.075    -1.811
    446    O    -15.161    8.096    -3.332
    447    H    -15.922    7.486    -3.364
 $END
