!*** FMO 5.3 (Gamess) INPUT generated by Facio 22.1.1.32 ***
 $CONTRL RUNTYP=ENERGY NPRINT=-5 ISPHER=1 MAXIT=200 $END
 $SYSTEM MWORDS=63 MEMDDI=63 $END
 $GDDI NGROUP=1 $END
 $SCF DIRSCF=.TRUE. NPUNCH=0 $END
!*** NumCPU : 2  MemPerNode : 512MB
 $PCM SOLVNT=WATER IEF=-10 ICOMP=2 ICAV=1 IDISP=1 IFMO=-1 $END
 $PCMCAV RADII=SUAHF $END
 $TESCAV NTSALL=60 $END
 $FMOPRP
    NAODIR=200
    NGRFMO(1)=1, 1, 0, 0, 0,   0, 0, 0, 0, 0
    IPIEDA=1
    NPRINT=9
 $END
 $FMO
      SCFTYP(1)=RHF
      MODGRD=10
      MODMUL=0
      MAXCAO=5
      MAXBND=16
      NLAYER=1
      MPLEVL(1)=2
      NFRAG=14
      ICHARG(1)=-1, -1, -1, -1, -1, -1, -1, -1, -1, -1, -1, -1, -1, 0
      FRGNAM(1)=F1, F2, F3, F4, F5, F6, F7, F8, F9, F10, F11, F12, F13, F14
      indat(1)=0
               1   -36   0
               37   -70   0
               71   -101   0
               102   -134   0
               135   -165   0
               166   -195   0
               196   -225   0
               226   -256   0
               257   -290   0
               291   -324   0
               325   -354   0
               355   -388   0
               389   -419   0
               420   -447   0
 $END

 $FMOBND
   -37   36       6-31G*    MINI
   -71   70       6-31G*    MINI
   -102   101       6-31G*    MINI
   -135   134       6-31G*    MINI
   -166   165       6-31G*    MINI
   -196   195       6-31G*    MINI
   -226   225       6-31G*    MINI
   -257   256       6-31G*    MINI
   -291   290       6-31G*    MINI
   -325   324       6-31G*    MINI
   -355   354       6-31G*    MINI
   -389   388       6-31G*    MINI
   -420   419       6-31G*    MINI
 $END
 $FMOHYB
 6-31G*      15   5
   1 0  -0.065034   0.288264   0.000000   0.000000   0.604412
         0.290129   0.000000   0.000000   0.319045  -0.017106
        -0.017106   0.057934   0.000000   0.000000   0.000000
   0 1  -0.065040   0.288293   0.569832   0.000000  -0.201456
         0.290147   0.300783   0.000000  -0.106342   0.049598
        -0.017106  -0.008771   0.000000  -0.027223   0.000000
   0 1  -0.065039   0.288293  -0.284916  -0.493490  -0.201455
         0.290145  -0.150392  -0.260486  -0.106340  -0.000427
         0.032923  -0.008771   0.033353   0.013612   0.023576
   0 1  -0.065039   0.288293  -0.284916   0.493490  -0.201455
         0.290145  -0.150392   0.260486  -0.106340  -0.000427
         0.032923  -0.008771  -0.033353   0.013612  -0.023576
   0 1   1.010938  -0.011975   0.000000   0.000000   0.000000
        -0.054085   0.000000   0.000000  -0.000000  -0.003174
        -0.003174  -0.003174   0.000000   0.000000   0.000000
 MINI         5   5
   1 0  -0.104883   0.308874   0.000000   0.000000   0.521806
   0 1  -0.104883   0.308874   0.491961   0.000000  -0.173934
   0 1  -0.104883   0.308876  -0.245980  -0.426050  -0.173933
   0 1  -0.104883   0.308876  -0.245980   0.426050  -0.173933
   0 1   0.988209   0.063992   0.000000   0.000000   0.000000
 $END
 
 $DATA
 FMO calculation
 C1 
 H.1-1    1
      N31 6
   
 O.1-1    8
      N31 6
      d 1
      1 0.800 1.0
   
 C.1-1    6
      N31 6
      d 1
      1 0.800 1.0
   
 N.1-1    7
      N31 6
      d 1
      1 0.800 1.0
   
 P.1-1   15
      N31 6
      d 1
      1 0.550 1.0
   
 $END
 $FMOXYZ
    1    H    -10.702    -7.150    9.579
    2    O    -10.689    -6.920    8.631
    3    C    -11.324    -8.007    7.944
    4    H    -12.302    -8.211    8.435
    5    H    -10.703    -8.926    8.038
    6    C    -11.597    -7.729    6.460
    7    H    -12.239    -8.535    6.041
    8    O    -12.327    -6.470    6.317
    9    C    -11.880    -5.826    5.133
    10    H    -12.782    -5.562    4.543
    11    N    -11.116    -4.610    5.424
    12    C    -10.809    -3.638    4.516
    13    N    -11.009    -2.359    1.307
    14    H    -11.552    -3.048    0.830
    15    H    -10.807    -1.497    0.839
    16    N    -11.170    -3.627    3.220
    17    C    -10.737    -2.545    2.584
    18    N    -9.982    -1.577    3.190
    19    H    -9.792    -0.749    2.651
    20    C    -9.598    -1.560    4.527
    21    O    -8.924    -0.643    5.007
    22    C    -10.069    -2.704    5.214
    23    N    -9.923    -3.076    6.544
    24    C    -10.553    -4.225    6.620
    25    H    -10.667    -4.829    7.522
    26    C    -11.041    -6.827    4.373
    27    H    -10.287    -6.335    3.723
    28    O    -11.878    -7.676    3.597
    29    H    -11.303    -8.310    3.149
    30    C    -10.376    -7.563    5.527
    31    H    -9.665    -6.890    6.060
    32    O    -9.785    -8.837    5.177
    33    P    -8.237    -8.916    4.835
    34    O    -7.835    -10.338    4.819
    35    O    -7.478    -8.052    5.768
    36    O    -8.088    -8.319    3.392
    37    C    -8.656    -8.959    2.232
    38    H    -9.687    -9.333    2.433
    39    H    -8.034    -9.829    1.924
    40    C    -8.741    -7.972    1.059
    41    H    -9.322    -8.423    0.226
    42    O    -9.436    -6.757    1.486
    43    C    -8.870    -5.640    0.806
    44    H    -9.717    -5.078    0.350
    45    N    -8.129    -4.747    1.713
    46    C    -7.724    -3.465    1.433
    47    N    -7.635    -0.721    -0.690
    48    H    -8.080    -1.064    -1.515
    49    H    -7.346    0.237    -0.657
    50    N    -7.950    -2.791    0.288
    51    C    -7.509    -1.536    0.340
    52    N    -6.889    -1.005    1.439
    53    H    -6.560    -0.059    1.365
    54    C    -6.578    -1.694    2.608
    55    O    -5.968    -1.144    3.530
    56    C    -7.067    -3.029    2.569
    57    N    -7.048    -4.021    3.540
    58    C    -7.699    -5.021    2.994
    59    H    -7.900    -5.983    3.470
    60    C    -7.976    -6.206    -0.271
    61    H    -7.171    -5.508    -0.586
    62    O    -8.784    -6.556    -1.385
    63    H    -8.217    -6.936    -2.073
    64    C    -7.426    -7.420    0.480
    65    H    -6.833    -7.084    1.364
    66    O    -6.729    -8.406    -0.320
    67    P    -5.139    -8.419    -0.288
    68    O    -4.640    -9.721    -0.783
    69    O    -4.644    -7.986    1.036
    70    O    -4.723    -7.318    -1.322
    71    C    -4.821    -7.635    -2.727
    72    H    -5.662    -8.334    -2.952
    73    H    -3.877    -8.140    -3.042
    74    C    -5.036    -6.388    -3.598
    75    H    -5.638    -6.636    -4.503
    76    O    -5.733    -5.322    -2.904
    77    C    -5.161    -4.079    -3.258
    78    H    -5.983    -3.553    -3.798
    79    N    -4.771    -3.274    -2.073
    80    C    -4.444    -3.886    -0.882
    81    H    -4.478    -4.979    -0.880
    82    C    -4.123    -3.164    0.203
    83    H    -3.883    -3.624    1.160
    84    C    -4.750    -1.887    -2.166
    85    O    -5.053    -1.346    -3.240
    86    N    -4.408    -1.148    -1.089
    87    C    -4.112    -1.744    0.076
    88    N    -3.832    -0.968    1.124
    89    H    -3.600    -0.008    0.946
    90    H    -3.592    -1.359    2.016
    91    C    -4.016    -4.318    -4.244
    92    H    -3.122    -3.707    -3.994
    93    O    -4.417    -4.040    -5.571
    94    H    -3.707    -4.376    -6.146
    95    C    -3.712    -5.807    -4.047
    96    H    -3.005    -5.937    -3.194
    97    O    -3.304    -6.554    -5.208
    98    P    -1.897    -6.386    -5.850
    99    O    -1.586    -7.607    -6.622
    100    O    -0.942    -5.973    -4.807
    101    O    -2.136    -5.183    -6.834
    102    C    -1.603    -5.177    -8.184
    103    H    -2.457    -5.329    -8.882
    104    H    -0.875    -6.002    -8.386
    105    C    -0.935    -3.845    -8.593
    106    H    -1.081    -3.675    -9.683
    107    O    -1.566    -2.726    -7.901
    108    C    -0.581    -1.801    -7.507
    109    H    -0.916    -0.808    -7.889
    110    N    -0.464    -1.760    -6.054
    111    C    -0.149    -1.061    -4.006
    112    N    -0.457    -2.402    -3.900
    113    C    -0.634    -2.772    -5.142
    114    H    -0.896    -3.777    -5.458
    115    N    0.352    1.168    -3.497
    116    C    0.354    1.413    -4.805
    117    H    0.572    2.447    -5.101
    118    N    0.108    0.570    -5.808
    119    C    -0.151    -0.654    -5.329
    120    C    0.133    -0.084    -3.039
    121    N    0.211    -0.357    -1.725
    122    H    0.114    -1.296    -1.387
    123    H    0.493    0.337    -1.053
    124    C    0.722    -2.188    -8.176
    125    H    1.610    -1.920    -7.568
    126    O    0.801    -1.552    -9.438
    127    H    1.563    -1.928    -9.906
    128    C    0.581    -3.703    -8.307
    129    H    0.766    -4.204    -7.329
    130    O    1.362    -4.271    -9.384
    131    P    2.736    -5.024    -9.174
    132    O    3.272    -5.373    -10.508
    133    O    2.512    -6.151    -8.241
    134    O    3.708    -3.994    -8.502
    135    C    4.770    -3.320    -9.229
    136    H    4.445    -3.058    -10.268
    137    H    5.667    -3.977    -9.312
    138    C    5.206    -1.995    -8.563
    139    H    5.571    -1.287    -9.338
    140    O    4.047    -1.369    -7.921
    141    C    4.449    -0.778    -6.701
    142    H    4.052    0.262    -6.736
    143    N    3.905    -1.459    -5.492
    144    C    3.338    -2.716    -5.532
    145    H    3.279    -3.181    -6.511
    146    C    2.865    -3.307    -4.423
    147    H    2.401    -4.290    -4.434
    148    C    3.994    -0.791    -4.280
    149    O    4.500    0.341    -4.249
    150    N    3.546    -1.380    -3.159
    151    C    2.983    -2.593    -3.196
    152    N    2.544    -3.099    -2.050
    153    H    2.620    -2.525    -1.233
    154    H    2.098    -3.993    -1.978
    155    C    5.965    -0.741    -6.703
    156    H    6.408    -0.752    -5.684
    157    O    6.397    0.412    -7.403
    158    H    7.353    0.335    -7.549
    159    C    6.291    -2.025    -7.455
    160    H    6.065    -2.909    -6.815
    161    O    7.630    -2.042    -8.006
    162    P    8.704    -3.131    -7.608
    163    O    9.851    -3.056    -8.542
    164    O    8.047    -4.451    -7.471
    165    O    9.201    -2.722    -6.172
    166    C    10.270    -1.789    -5.892
    167    H    10.161    -0.871    -6.518
    168    H    11.258    -2.247    -6.125
    169    C    10.290    -1.332    -4.406
    170    H    10.881    -0.396    -4.311
    171    O    8.930    -1.025    -3.974
    172    C    8.758    -1.394    -2.619
    173    H    8.436    -0.463    -2.102
    174    N    7.708    -2.447    -2.442
    175    C    7.300    -3.242    -3.491
    176    H    7.769    -3.027    -4.450
    177    C    7.139    -2.596    -1.198
    178    O    7.465    -1.897    -0.235
    179    N    6.171    -3.558    -1.099
    180    H    5.779    -3.722    -0.185
    181    C    5.749    -4.416    -2.092
    182    O    4.905    -5.277    -1.852
    183    C    6.362    -4.192    -3.366
    184    H    6.059    -4.817    -4.203
    185    C    10.124    -1.809    -2.082
    186    H    10.045    -2.611    -1.317
    187    O    10.809    -0.692    -1.539
    188    H    11.632    -1.041    -1.169
    189    C    10.834    -2.315    -3.335
    190    H    10.460    -3.322    -3.623
    191    O    12.286    -2.263    -3.252
    192    P    13.076    -3.369    -2.437
    193    O    14.421    -3.507    -3.040
    194    O    12.246    -4.595    -2.390
    195    O    13.238    -2.798    -0.956
    196    C    14.108    -3.569    -0.062
    197    H    14.987    -3.997    -0.601
    198    H    13.551    -4.426    0.379
    199    C    14.725    -2.758    1.097
    200    H    15.443    -3.411    1.640
    201    O    15.481    -1.631    0.572
    202    C    15.014    -0.432    1.142
    203    H    15.721    -0.203    1.976
    204    N    14.959    0.650    0.121
    205    C    14.317    0.432    -1.078
    206    H    13.964    -0.588    -1.232
    207    C    15.487    1.883    0.420
    208    O    16.006    2.135    1.509
    209    N    15.382    2.819    -0.575
    210    H    15.773    3.723    -0.361
    211    C    14.784    2.670    -1.809
    212    O    14.781    3.606    -2.609
    213    C    14.206    1.374    -2.027
    214    H    13.732    1.168    -2.984
    215    C    13.651    -0.715    1.720
    216    H    12.866    -0.610    0.941
    217    O    13.428    0.146    2.812
    218    H    12.527    0.000    3.156
    219    C    13.737    -2.185    2.134
    220    H    12.740    -2.649    1.944
    221    O    14.185    -2.390    3.498
    222    P    13.554    -3.519    4.399
    223    O    14.072    -3.358    5.775
    224    O    13.803    -4.818    3.738
    225    O    12.003    -3.291    4.392
    226    C    11.255    -2.842    5.546
    227    H    11.410    -1.746    5.671
    228    H    11.608    -3.327    6.486
    229    C    9.727    -3.085    5.429
    230    H    9.186    -2.293    5.989
    231    O    9.285    -3.043    4.043
    232    C    8.725    -4.286    3.687
    233    H    7.635    -4.152    3.852
    234    N    9.004    -4.642    2.279
    235    C    10.263    -4.420    1.784
    236    H    10.964    -3.945    2.471
    237    C    10.573    -4.729    0.519
    238    H    11.554    -4.542    0.095
    239    C    8.028    -5.223    1.471
    240    O    6.897    -5.432    1.939
    241    N    8.329    -5.552    0.192
    242    C    9.559    -5.316    -0.291
    243    N    9.835    -5.627    -1.556
    244    H    10.733    -5.383    -1.952
    245    H    9.166    -6.123    -2.109
    246    C    9.259    -5.291    4.685
    247    H    10.310    -5.568    4.443
    248    O    8.443    -6.442    4.804
    249    H    7.599    -6.142    5.177
    250    C    9.221    -4.446    5.955
    251    H    9.962    -4.846    6.685
    252    O    7.887    -4.351    6.511
    253    P    7.593    -4.383    8.057
    254    O    8.646    -5.139    8.771
    255    O    6.208    -4.858    8.258
    256    O    7.669    -2.886    8.521
    257    C    6.739    -1.884    8.042
    258    H    5.796    -1.906    8.638
    259    H    6.470    -2.055    6.971
    260    C    7.334    -0.468    8.133
    261    H    7.395    -0.129    9.189
    262    O    8.690    -0.480    7.622
    263    C    8.985    0.760    7.029
    264    H    9.764    1.212    7.691
    265    N    9.523    0.599    5.686
    266    C    8.954    0.113    4.522
    267    N    6.312    -1.302    2.780
    268    H    6.151    -1.693    1.882
    269    H    5.605    -1.342    3.481
    270    N    7.690    -0.333    4.350
    271    C    7.484    -0.796    3.123
    272    N    8.431    -0.779    2.137
    273    H    8.206    -1.187    1.246
    274    C    9.736    -0.351    2.295
    275    O    10.554    -0.388    1.375
    276    C    9.965    0.179    3.587
    277    N    11.111    0.736    4.131
    278    C    10.803    0.961    5.376
    279    H    11.475    1.380    6.127
    280    C    7.749    1.621    7.048
    281    H    7.577    2.141    6.079
    282    O    7.836    2.569    8.095
    283    H    6.948    2.941    8.205
    284    C    6.634    0.610    7.300
    285    H    6.339    0.111    6.350
    286    O    5.504    1.161    8.011
    287    P    4.333    1.782    7.157
    288    O    3.596    2.750    8.000
    289    O    3.554    0.655    6.604
    290    O    5.009    2.556    5.977
    291    C    5.230    3.982    5.876
    292    H    5.849    4.328    6.732
    293    H    4.264    4.531    5.931
    294    C    5.960    4.436    4.568
    295    H    6.761    5.160    4.823
    296    O    6.623    3.295    3.940
    297    C    6.351    3.278    2.554
    298    H    7.318    3.063    2.043
    299    N    5.369    2.244    2.200
    300    C    5.228    1.663    0.972
    301    N    6.205    1.320    -2.325
    302    H    6.912    2.015    -2.424
    303    H    5.816    0.884    -3.140
    304    N    5.967    1.930    -0.118
    305    C    5.599    1.193    -1.162
    306    N    4.597    0.259    -1.102
    307    H    4.343    -0.235    -1.947
    308    C    3.821    -0.043    0.005
    309    O    2.948    -0.918    0.002
    310    C    4.188    0.759    1.110
    311    N    3.670    0.791    2.389
    312    C    4.404    1.681    3.002
    313    H    4.286    1.955    4.041
    314    C    5.867    4.654    2.181
    315    H    5.213    4.650    1.283
    316    O    6.973    5.507    1.956
    317    H    6.642    6.418    1.996
    318    C    5.099    5.072    3.430
    319    H    4.098    4.580    3.463
    320    O    5.011    6.510    3.585
    321    P    3.914    7.355    2.822
    322    O    4.168    8.775    3.159
    323    O    2.606    6.785    3.196
    324    O    4.151    7.127    1.277
    325    C    4.241    8.212    0.315
    326    H    5.322    8.415    0.139
    327    H    3.772    9.156    0.682
    328    C    3.625    7.901    -1.077
    329    H    3.971    8.656    -1.820
    330    O    4.077    6.596    -1.555
    331    C    3.027    5.983    -2.288
    332    H    3.475    5.677    -3.265
    333    N    2.474    4.812    -1.562
    334    C    2.549    4.677    -0.188
    335    H    3.117    5.451    0.323
    336    C    1.856    3.858    -2.318
    337    O    1.811    3.921    -3.549
    338    N    1.326    2.835    -1.602
    339    H    0.882    2.124    -2.185
    340    C    1.346    2.619    -0.254
    341    O    0.828    1.609    0.219
    342    C    2.016    3.645    0.482
    343    H    2.106    3.544    1.559
    344    C    1.956    7.038    -2.513
    345    H    0.939    6.603    -2.620
    346    O    2.268    7.816    -3.660
    347    H    1.586    8.496    -3.774
    348    C    2.086    7.822    -1.210
    349    H    1.746    7.198    -0.354
    350    O    1.473    9.127    -1.226
    351    P    0.122    9.381    -0.435
    352    O    -0.086    10.846    -0.387
    353    O    0.127    8.650    0.848
    354    O    -0.983    8.767    -1.353
    355    C    -1.996    9.580    -1.988
    356    H    -1.534    10.208    -2.783
    357    H    -2.518    10.270    -1.280
    358    C    -3.056    8.712    -2.668
    359    H    -3.539    9.315    -3.472
    360    O    -2.439    7.519    -3.291
    361    C    -3.345    6.422    -3.177
    362    H    -3.399    5.922    -4.172
    363    N    -2.953    5.439    -2.150
    364    C    -3.293    4.113    -2.153
    365    N    -4.773    1.387    -3.697
    366    H    -5.072    1.757    -4.578
    367    H    -4.910    0.410    -3.506
    368    N    -3.980    3.474    -3.117
    369    C    -4.175    2.187    -2.833
    370    N    -3.757    1.611    -1.665
    371    H    -3.975    0.638    -1.507
    372    C    -3.073    2.250    -0.642
    373    O    -2.747    1.649    0.387
    374    C    -2.819    3.608    -0.958
    375    N    -2.162    4.587    -0.232
    376    C    -2.256    5.658    -0.981
    377    H    -1.849    6.641    -0.735
    378    C    -4.667    7.049    -2.827
    379    H    -5.356    6.311    -2.383
    380    O    -5.220    7.590    -4.021
    381    H    -4.508    8.019    -4.523
    382    C    -4.179    8.098    -1.810
    383    H    -3.673    7.603    -0.959
    384    O    -5.144    9.056    -1.325
    385    P    -5.526    9.183    0.225
    386    O    -5.948    10.577    0.491
    387    O    -4.483    8.627    1.117
    388    O    -6.810    8.309    0.428
    389    C    -7.974    8.548    -0.392
    390    H    -7.811    9.307    -1.196
    391    H    -8.790    8.945    0.254
    392    C    -8.464    7.262    -1.053
    393    H    -8.960    7.473    -2.024
    394    O    -7.387    6.320    -1.297
    395    C    -7.867    5.002    -1.166
    396    H    -7.778    4.569    -2.188
    397    N    -7.059    4.173    -0.214
    398    C    -6.292    4.772    0.764
    399    H    -6.311    5.867    0.790
    400    C    -5.558    4.040    1.617
    401    H    -4.937    4.493    2.390
    402    C    -7.054    2.782    -0.336
    403    O    -7.708    2.255    -1.248
    404    N    -6.340    2.025    0.533
    405    C    -5.615    2.620    1.498
    406    N    -4.946    1.856    2.362
    407    H    -4.315    2.264    3.027
    408    H    -4.975    0.864    2.302
    409    C    -9.345    5.097    -0.793
    410    H    -9.636    4.327    -0.054
    411    O    -10.154    4.983    -1.950
    412    H    -11.076    5.077    -1.661
    413    C    -9.429    6.497    -0.177
    414    H    -8.972    6.497    0.838
    415    O    -10.713    7.149    -0.234
    416    P    -11.628    7.309    1.030
    417    O    -12.380    8.581    0.967
    418    O    -10.889    7.022    2.280
    419    O    -12.625    6.143    0.870
    420    C    -13.775    6.091    0.022
    421    H    -13.650    6.692    -0.908
    422    H    -14.655    6.492    0.578
    423    C    -14.053    4.628    -0.333
    424    H    -14.752    4.530    -1.190
    425    O    -12.809    3.929    -0.658
    426    C    -12.846    2.623    -0.109
    427    H    -12.827    1.959    -1.005
    428    N    -11.673    2.322    0.758
    429    C    -11.208    3.259    1.656
    430    H    -11.700    4.231    1.646
    431    C    -10.153    3.004    2.442
    432    H    -9.741    3.743    3.127
    433    C    -11.106    1.048    0.740
    434    O    -11.598    0.176    0.005
    435    N    -10.039    0.774    1.528
    436    C    -9.557    1.717    2.357
    437    N    -8.512    1.428    3.129
    438    H    -8.249    0.477    3.262
    439    H    -8.229    2.054    3.858
    440    C    -14.181    2.427    0.604
    441    H    -14.057    1.886    1.570
    442    O    -15.082    1.714    -0.227
    443    H    -15.970    1.742    0.170
    444    C    -14.635    3.864    0.858
    445    H    -14.150    4.262    1.776
    446    O    -16.062    4.045    0.913
    447    H    -16.427    3.590    1.692
 $END
