!*** FMO 5.3 (Gamess) INPUT generated by Facio 22.1.1.32 ***
 $CONTRL RUNTYP=ENERGY NPRINT=-5 ISPHER=1 MAXIT=200 $END
 $SYSTEM MWORDS=63 MEMDDI=63 $END
 $GDDI NGROUP=1 $END
 $SCF DIRSCF=.TRUE. NPUNCH=0 $END
!*** NumCPU : 2  MemPerNode : 512MB
 $PCM SOLVNT=WATER IEF=-10 ICOMP=2 ICAV=1 IDISP=1 IFMO=-1 $END
 $PCMCAV RADII=SUAHF $END
 $TESCAV NTSALL=60 $END
 $FMOPRP
    NAODIR=200
    NGRFMO(1)=1, 1, 0, 0, 0,   0, 0, 0, 0, 0
    IPIEDA=1
    NPRINT=9
 $END
 $FMO
      SCFTYP(1)=RHF
      MODGRD=10
      MODMUL=0
      MAXCAO=5
      MAXBND=16
      NLAYER=1
      MPLEVL(1)=2
      NFRAG=14
      ICHARG(1)=-1, -1, -1, -1, -1, -1, -1, -1, -1, -1, -1, -1, -1, 0
      FRGNAM(1)=F1, F2, F3, F4, F5, F6, F7, F8, F9, F10, F11, F12, F13, F14
      indat(1)=0
               1   -36   0
               37   -70   0
               71   -101   0
               102   -134   0
               135   -165   0
               166   -195   0
               196   -225   0
               226   -256   0
               257   -290   0
               291   -324   0
               325   -354   0
               355   -388   0
               389   -419   0
               420   -447   0
 $END

 $FMOBND
   -37   36       6-31G*    MINI
   -71   70       6-31G*    MINI
   -102   101       6-31G*    MINI
   -135   134       6-31G*    MINI
   -166   165       6-31G*    MINI
   -196   195       6-31G*    MINI
   -226   225       6-31G*    MINI
   -257   256       6-31G*    MINI
   -291   290       6-31G*    MINI
   -325   324       6-31G*    MINI
   -355   354       6-31G*    MINI
   -389   388       6-31G*    MINI
   -420   419       6-31G*    MINI
 $END
 $FMOHYB
 6-31G*      15   5
   1 0  -0.065034   0.288264   0.000000   0.000000   0.604412
         0.290129   0.000000   0.000000   0.319045  -0.017106
        -0.017106   0.057934   0.000000   0.000000   0.000000
   0 1  -0.065040   0.288293   0.569832   0.000000  -0.201456
         0.290147   0.300783   0.000000  -0.106342   0.049598
        -0.017106  -0.008771   0.000000  -0.027223   0.000000
   0 1  -0.065039   0.288293  -0.284916  -0.493490  -0.201455
         0.290145  -0.150392  -0.260486  -0.106340  -0.000427
         0.032923  -0.008771   0.033353   0.013612   0.023576
   0 1  -0.065039   0.288293  -0.284916   0.493490  -0.201455
         0.290145  -0.150392   0.260486  -0.106340  -0.000427
         0.032923  -0.008771  -0.033353   0.013612  -0.023576
   0 1   1.010938  -0.011975   0.000000   0.000000   0.000000
        -0.054085   0.000000   0.000000  -0.000000  -0.003174
        -0.003174  -0.003174   0.000000   0.000000   0.000000
 MINI         5   5
   1 0  -0.104883   0.308874   0.000000   0.000000   0.521806
   0 1  -0.104883   0.308874   0.491961   0.000000  -0.173934
   0 1  -0.104883   0.308876  -0.245980  -0.426050  -0.173933
   0 1  -0.104883   0.308876  -0.245980   0.426050  -0.173933
   0 1   0.988209   0.063992   0.000000   0.000000   0.000000
 $END
 
 $DATA
 FMO calculation
 C1 
 H.1-1    1
      N31 6
   
 O.1-1    8
      N31 6
      d 1
      1 0.800 1.0
   
 C.1-1    6
      N31 6
      d 1
      1 0.800 1.0
   
 N.1-1    7
      N31 6
      d 1
      1 0.800 1.0
   
 P.1-1   15
      N31 6
      d 1
      1 0.550 1.0
   
 $END
 $FMOXYZ
    1    H    -11.610    -4.986    9.792
    2    O    -11.775    -4.916    8.833
    3    C    -12.309    -6.179    8.410
    4    H    -13.211    -6.405    9.020
    5    H    -11.558    -6.973    8.608
    6    C    -12.698    -6.218    6.927
    7    H    -13.320    -7.112    6.704
    8    O    -13.472    -5.028    6.555
    9    C    -13.071    -4.617    5.253
    10    H    -13.991    -4.566    4.627
    11    N    -12.425    -3.289    5.267
    12    C    -12.208    -2.480    4.182
    13    N    -12.515    -1.878    0.790
    14    H    -12.987    -2.695    0.467
    15    H    -12.307    -1.147    0.134
    16    N    -12.553    -2.758    2.914
    17    C    -12.229    -1.779    2.074
    18    N    -11.608    -0.623    2.469
    19    H    -11.439    0.084    1.772
    20    C    -11.248    -0.303    3.774
    21    O    -10.697    0.770    4.042
    22    C    -11.590    -1.347    4.677
    23    N    -11.413    -1.442    6.053
    24    C    -11.920    -2.617    6.357
    25    H    -11.966    -3.046    7.360
    26    C    -12.146    -5.675    4.703
    27    H    -11.381    -5.241    4.029
    28    O    -12.880    -6.678    4.029
    29    H    -12.215    -7.275    3.663
    30    C    -11.502    -6.223    5.966
    31    H    -10.781    -5.480    6.378
    32    O    -10.951    -7.564    5.839
    33    P    -9.405    -7.704    5.534
    34    O    -8.991    -9.107    5.755
    35    O    -8.667    -6.675    6.295
    36    O    -9.274    -7.381    4.001
    37    C    -9.944    -8.187    3.003
    38    H    -10.961    -8.507    3.332
    39    H    -9.358    -9.115    2.809
    40    C    -10.109    -7.422    1.679
    41    H    -10.784    -7.966    0.984
    42    O    -10.702    -6.117    1.927
    43    C    -10.077    -5.140    1.108
    44    H    -10.901    -4.630    0.555
    45    N    -9.345    -4.127    1.900
    46    C    -8.910    -2.903    1.453
    47    N    -8.607    -0.595    -1.102
    48    H    -9.025    -1.078    -1.868
    49    H    -8.234    0.325    -1.256
    50    N    -9.058    -2.422    0.210
    51    C    -8.574    -1.191    0.075
    52    N    -8.008    -0.488    1.106
    53    H    -7.660    0.436    0.908
    54    C    -7.847    -0.954    2.408
    55    O    -7.325    -0.249    3.279
    56    C    -8.330    -2.287    2.546
    57    N    -8.367    -3.121    3.657
    58    C    -8.984    -4.198    3.229
    59    H    -9.214    -5.075    3.834
    60    C    -9.195    -5.881    0.123
    61    H    -8.300    -5.299    -0.182
    62    O    -9.955    -6.231    -1.020
    63    H    -9.407    -6.817    -1.560
    64    C    -8.807    -7.114    0.933
    65    H    -8.068    -6.839    1.721
    66    O    -8.410    -8.257    0.142
    67    P    -6.885    -8.629    0.012
    68    O    -6.786    -9.969    -0.606
    69    O    -6.188    -8.443    1.304
    70    O    -6.349    -7.558    -1.008
    71    C    -6.504    -7.825    -2.427
    72    H    -7.542    -8.162    -2.667
    73    H    -5.806    -8.634    -2.743
    74    C    -6.227    -6.590    -3.304
    75    H    -6.666    -6.723    -4.317
    76    O    -6.827    -5.395    -2.737
    77    C    -5.957    -4.293    -2.933
    78    H    -6.549    -3.591    -3.565
    79    N    -5.602    -3.595    -1.672
    80    C    -5.603    -4.275    -0.475
    81    H    -5.882    -5.329    -0.524
    82    C    -5.310    -3.655    0.677
    83    H    -5.338    -4.161    1.640
    84    C    -5.234    -2.253    -1.706
    85    O    -5.177    -1.663    -2.797
    86    N    -4.948    -1.612    -0.551
    87    C    -4.993    -2.270    0.619
    88    N    -4.771    -1.600    1.745
    89    H    -4.461    -0.645    1.705
    90    H    -4.779    -2.051    2.640
    91    C    -4.749    -4.760    -3.735
    92    H    -3.804    -4.302    -3.372
    93    O    -4.928    -4.453    -5.105
    94    H    -4.123    -4.761    -5.571
    95    C    -4.741    -6.274    -3.483
    96    H    -4.253    -6.497    -2.507
    97    O    -4.220    -7.111    -4.539
    98    P    -2.714    -7.073    -4.967
    99    O    -2.449    -8.213    -5.864
    100    O    -1.877    -6.948    -3.755
    101    O    -2.631    -5.741    -5.781
    102    C    -2.205    -5.611    -7.152
    103    H    -3.085    -5.711    -7.829
    104    H    -1.467    -6.400    -7.445
    105    C    -1.561    -4.240    -7.440
    106    H    -1.729    -3.933    -8.491
    107    O    -2.125    -3.199    -6.579
    108    C    -1.093    -2.356    -6.120
    109    H    -1.384    -1.314    -6.386
    110    N    -0.911    -2.456    -4.663
    111    C    -0.473    -2.037    -2.548
    112    N    -0.840    -3.370    -2.610
    113    C    -1.085    -3.570    -3.877
    114    H    -1.390    -4.526    -4.299
    115    N    0.214    0.072    -1.740
    116    C    0.163    0.486    -3.010
    117    H    0.440    1.532    -3.166
    118    N    -0.198    -0.187    -4.110
    119    C    -0.509    -1.457    -3.805
    120    C    -0.088    -1.222    -1.469
    121    N    -0.017    -1.696    -0.212
    122    H    -0.220    -2.656    0.000
    123    H    0.251    -1.102    0.553
    124    C    0.159    -2.730    -6.869
    125    H    1.043    -2.620    -6.221
    126    O    0.291    -1.957    -8.046
    127    H    1.149    -2.194    -8.423
    128    C    -0.047    -4.203    -7.185
    129    H    0.138    -4.829    -6.283
    130    O    0.673    -4.689    -8.342
    131    P    2.171    -5.179    -8.275
    132    O    2.673    -5.390    -9.650
    133    O    2.256    -6.342    -7.365
    134    O    2.982    -4.002    -7.631
    135    C    3.730    -3.032    -8.409
    136    H    3.204    -2.777    -9.363
    137    H    4.728    -3.449    -8.688
    138    C    3.962    -1.698    -7.651
    139    H    3.971    -0.852    -8.370
    140    O    2.888    -1.439    -6.716
    141    C    3.384    -0.892    -5.513
    142    H    2.785    0.035    -5.350
    143    N    3.210    -1.789    -4.327
    144    C    2.881    -3.124    -4.448
    145    H    2.764    -3.500    -5.462
    146    C    2.702    -3.903    -3.370
    147    H    2.422    -4.954    -3.445
    148    C    3.387    -1.241    -3.062
    149    O    3.677    -0.041    -2.959
    150    N    3.245    -2.019    -1.970
    151    C    2.895    -3.307    -2.089
    152    N    2.735    -4.015    -0.976
    153    H    2.866    -3.546    -0.099
    154    H    2.488    -4.989    -0.981
    155    C    4.826    -0.527    -5.766
    156    H    5.460    -0.599    -4.856
    157    O    4.894    0.785    -6.296
    158    H    5.786    0.905    -6.656
    159    C    5.228    -1.574    -6.797
    160    H    5.374    -2.559    -6.296
    161    O    6.337    -1.166    -7.618
    162    P    7.671    -1.981    -7.657
    163    O    8.488    -1.482    -8.781
    164    O    7.364    -3.426    -7.647
    165    O    8.373    -1.595    -6.302
    166    C    8.848    -0.239    -6.099
    167    H    8.138    0.521    -6.503
    168    H    9.824    -0.103    -6.619
    169    C    9.062    0.079    -4.611
    170    H    9.336    1.148    -4.476
    171    O    7.844    -0.149    -3.857
    172    C    8.168    -0.654    -2.573
    173    H    7.762    0.091    -1.849
    174    N    7.544    -1.988    -2.330
    175    C    7.112    -2.768    -3.381
    176    H    7.263    -2.341    -4.373
    177    C    7.380    -2.412    -1.030
    178    O    7.723    -1.741    -0.063
    179    N    6.780    -3.638    -0.886
    180    H    6.684    -3.994    0.053
    181    C    6.342    -4.475    -1.889
    182    O    5.828    -5.556    -1.611
    183    C    6.527    -3.962    -3.212
    184    H    6.191    -4.563    -4.056
    185    C    9.690    -0.674    -2.462
    186    H    10.057    -1.538    -1.872
    187    O    10.155    0.528    -1.888
    188    H    11.115    0.461    -1.834
    189    C    10.126    -0.770    -3.918
    190    H    10.006    -1.811    -4.295
    191    O    11.426    -0.214    -4.206
    192    P    12.726    -1.053    -4.007
    193    O    13.730    -0.542    -4.966
    194    O    12.384    -2.493    -4.052
    195    O    13.190    -0.670    -2.543
    196    C    14.545    -1.043    -2.160
    197    H    15.262    -1.012    -3.020
    198    H    14.551    -2.076    -1.752
    199    C    15.149    -0.131    -1.083
    200    H    16.193    -0.458    -0.890
    201    O    15.211    1.237    -1.569
    202    C    14.589    2.097    -0.648
    203    H    15.422    2.493    -0.020
    204    N    13.851    3.175    -1.354
    205    C    12.980    2.862    -2.374
    206    H    12.925    1.801    -2.629
    207    C    14.026    4.476    -0.945
    208    O    14.778    4.790    -0.028
    209    N    13.300    5.405    -1.644
    210    H    13.435    6.361    -1.357
    211    C    12.421    5.176    -2.681
    212    O    11.838    6.121    -3.215
    213    C    12.279    3.795    -3.038
    214    H    11.607    3.535    -3.852
    215    C    13.682    1.264    0.234
    216    H    12.678    1.147    -0.228
    217    O    13.596    1.877    1.506
    218    H    13.042    1.342    2.106
    219    C    14.388    -0.102    0.264
    220    H    13.596    -0.887    0.211
    221    O    15.278    -0.295    1.397
    222    P    15.436    -1.732    2.032
    223    O    16.338    -1.657    3.205
    224    O    15.834    -2.673    0.966
    225    O    14.007    -2.144    2.520
    226    C    13.575    -2.000    3.895
    227    H    13.365    -0.926    4.099
    228    H    14.355    -2.338    4.615
    229    C    12.273    -2.787    4.196
    230    H    11.760    -2.326    5.066
    231    O    11.367    -2.742    3.060
    232    C    11.076    -4.055    2.641
    233    H    10.148    -4.330    3.190
    234    N    10.888    -4.143    1.180
    235    C    11.757    -3.448    0.381
    236    H    12.492    -2.833    0.905
    237    C    11.661    -3.498    -0.951
    238    H    12.333    -2.945    -1.602
    239    C    9.893    -4.939    0.617
    240    O    9.126    -5.569    1.363
    241    N    9.790    -5.014    -0.735
    242    C    10.635    -4.313    -1.513
    243    N    10.512    -4.369    -2.838
    244    H    11.154    -3.859    -3.423
    245    H    9.889    -5.037    -3.247
    246    C    12.219    -4.909    3.136
    247    H    13.124    -4.773    2.504
    248    O    11.875    -6.274    3.240
    249    H    11.234    -6.322    3.968
    250    C    12.430    -4.292    4.509
    251    H    13.482    -4.481    4.829
    252    O    11.442    -4.763    5.468
    253    P    11.828    -5.102    6.953
    254    O    13.272    -5.416    7.031
    255    O    10.925    -6.159    7.469
    256    O    11.555    -3.784    7.770
    257    C    10.224    -3.213    7.809
    258    H    9.616    -3.702    8.606
    259    H    9.687    -3.354    6.839
    260    C    10.280    -1.696    8.052
    261    H    10.592    -1.477    9.090
    262    O    11.278    -1.102    7.181
    263    C    10.913    0.216    6.867
    264    H    11.673    0.853    7.372
    265    N    10.967    0.451    5.426
    266    C    10.236    -0.101    4.388
    267    N    7.734    -2.170    3.177
    268    H    7.387    -2.461    2.294
    269    H    7.418    -2.613    4.011
    270    N    9.242    -1.014    4.476
    271    C    8.735    -1.318    3.288
    272    N    9.178    -0.777    2.112
    273    H    8.753    -1.081    1.253
    274    C    10.219    0.127    1.993
    275    O    10.571    0.582    0.904
    276    C    10.751    0.486    3.249
    277    N    11.762    1.378    3.558
    278    C    11.856    1.326    4.858
    279    H    12.562    1.902    5.461
    280    C    9.548    0.497    7.458
    281    H    8.879    1.019    6.742
    282    O    9.688    1.260    8.638
    283    H    8.847    1.195    9.114
    284    C    9.004    -0.902    7.746
    285    H    8.602    -1.336    6.812
    286    O    8.054    -0.982    8.836
    287    P    6.508    -0.800    8.526
    288    O    5.858    -0.333    9.770
    289    O    5.988    -2.063    7.957
    290    O    6.397    0.306    7.432
    291    C    6.223    1.713    7.690
    292    H    6.986    2.067    8.419
    293    H    5.219    1.896    8.141
    294    C    6.360    2.596    6.416
    295    H    6.993    3.482    6.643
    296    O    7.023    1.872    5.329
    297    C    6.318    2.082    4.121
    298    H    7.078    2.307    3.337
    299    N    5.536    0.898    3.732
    300    C    5.134    0.564    2.468
    301    N    5.047    1.205    -0.934
    302    H    5.561    2.055    -1.029
    303    H    4.644    0.776    -1.746
    304    N    5.383    1.264    1.348
    305    C    4.895    0.670    0.262
    306    N    4.197    -0.511    0.302
    307    H    3.869    -0.907    -0.565
    308    C    3.915    -1.250    1.444
    309    O    3.288    -2.313    1.401
    310    C    4.436    -0.622    2.601
    311    N    4.374    -1.011    3.927
    312    C    5.041    -0.082    4.562
    313    H    5.204    -0.061    5.634
    314    C    5.436    3.278    4.340
    315    H    4.550    3.282    3.672
    316    O    6.184    4.463    4.147
    317    H    5.628    5.184    4.466
    318    C    5.040    3.110    5.801
    319    H    4.283    2.302    5.925
    320    O    4.647    4.336    6.449
    321    P    3.196    4.923    6.340
    322    O    3.157    6.169    7.134
    323    O    2.269    3.837    6.726
    324    O    2.987    5.243    4.813
    325    C    3.514    6.412    4.147
    326    H    4.624    6.446    4.206
    327    H    3.138    7.342    4.632
    328    C    3.124    6.468    2.656
    329    H    3.619    7.324    2.150
    330    O    3.565    5.265    1.964
    331    C    2.588    4.885    1.008
    332    H    3.119    4.876    0.025
    333    N    2.028    3.535    1.296
    334    C    2.023    3.018    2.571
    335    H    2.484    3.645    3.329
    336    C    1.485    2.828    0.250
    337    O    1.439    3.271    -0.892
    338    N    0.991    1.593    0.579
    339    H    0.648    1.055    -0.211
    340    C    0.975    1.002    1.826
    341    O    0.509    -0.125    1.976
    342    C    1.540    1.803    2.865
    343    H    1.583    1.393    3.872
    344    C    1.513    5.958    0.983
    345    H    0.501    5.529    0.819
    346    O    1.770    6.925    -0.018
    347    H    0.978    7.486    -0.037
    348    C    1.617    6.562    2.381
    349    H    1.116    5.904    3.127
    350    O    1.189    7.935    2.503
    351    P    -0.331    8.326    2.518
    352    O    -0.446    9.800    2.582
    353    O    -1.004    7.552    3.579
    354    O    -0.883    7.833    1.139
    355    C    -1.098    8.709    0.012
    356    H    -0.144    9.198    -0.293
    357    H    -1.821    9.515    0.275
    358    C    -1.666    7.948    -1.204
    359    H    -1.425    8.476    -2.153
    360    O    -1.104    6.603    -1.277
    361    C    -2.118    5.685    -1.643
    362    H    -1.749    5.155    -2.550
    363    N    -2.390    4.705    -0.582
    364    C    -2.897    3.449    -0.772
    365    N    -4.070    0.963    -2.887
    366    H    -3.997    1.389    -3.788
    367    H    -4.471    0.047    -2.810
    368    N    -3.230    2.902    -1.955
    369    C    -3.697    1.664    -1.831
    370    N    -3.813    1.031    -0.624
    371    H    -4.199    0.100    -0.616
    372    C    -3.483    1.569    0.612
    373    O    -3.631    0.915    1.646
    374    C    -2.992    2.894    0.489
    375    N    -2.567    3.792    1.462
    376    C    -2.222    4.856    0.777
    377    H    -1.832    5.777    1.208
    378    C    -3.353    6.476    -1.996
    379    H    -4.288    5.939    -1.736
    380    O    -3.346    6.784    -3.375
    381    H    -4.152    7.290    -3.542
    382    C    -3.191    7.731    -1.146
    383    H    -3.437    7.519    -0.080
    384    O    -3.881    8.897    -1.651
    385    P    -5.387    9.171    -1.265
    386    O    -5.815    10.417    -1.944
    387    O    -5.512    9.131    0.207
    388    O    -6.195    7.972    -1.867
    389    C    -6.583    7.972    -3.259
    390    H    -5.724    8.262    -3.914
    391    H    -7.399    8.714    -3.427
    392    C    -7.111    6.588    -3.694
    393    H    -7.107    6.500    -4.801
    394    O    -6.279    5.520    -3.157
    395    C    -7.082    4.409    -2.798
    396    H    -6.721    3.586    -3.458
    397    N    -6.910    3.979    -1.374
    398    C    -6.449    4.853    -0.417
    399    H    -6.228    5.865    -0.763
    400    C    -6.282    4.468    0.859
    401    H    -5.905    5.140    1.627
    402    C    -7.237    2.675    -1.011
    403    O    -7.670    1.902    -1.876
    404    N    -7.075    2.264    0.270
    405    C    -6.606    3.118    1.194
    406    N    -6.438    2.677    2.440
    407    H    -6.656    1.729    2.668
    408    H    -6.097    3.267    3.174
    409    C    -8.528    4.730    -3.160
    410    H    -9.241    4.369    -2.391
    411    O    -8.862    4.157    -4.409
    412    H    -9.775    4.426    -4.609
    413    C    -8.524    6.265    -3.208
    414    H    -8.582    6.676    -2.178
    415    O    -9.477    6.895    -4.088
    416    P    -11.010    6.960    -3.765
    417    O    -11.633    7.982    -4.640
    418    O    -11.213    7.087    -2.305
    419    O    -11.481    5.544    -4.224
    420    C    -12.785    5.277    -4.785
    421    H    -12.713    5.326    -5.892
    422    H    -13.543    6.039    -4.483
    423    C    -13.339    3.882    -4.403
    424    H    -13.771    3.373    -5.291
    425    O    -12.290    3.019    -3.871
    426    C    -12.799    2.233    -2.814
    427    H    -12.698    1.189    -3.187
    428    N    -12.027    2.388    -1.553
    429    C    -11.565    3.628    -1.174
    430    H    -11.755    4.449    -1.873
    431    C    -10.881    3.790    -0.031
    432    H    -10.506    4.759    0.288
    433    C    -11.807    1.282    -0.733
    434    O    -12.236    0.171    -1.086
    435    N    -11.135    1.432    0.432
    436    C    -10.682    2.644    0.798
    437    N    -10.056    2.765    1.970
    438    H    -10.062    1.993    2.607
    439    H    -9.732    3.647    2.313
    440    C    -14.281    2.539    -2.640
    441    H    -14.564    2.615    -1.567
    442    O    -15.057    1.535    -3.274
    443    H    -15.997    1.787    -3.263
    444    C    -14.413    3.908    -3.312
    445    H    -14.130    4.712    -2.600
    446    O    -15.711    4.170    -3.879
    447    H    -16.399    4.125    -3.189
 $END
