!*** FMO 5.3 (Gamess) INPUT generated by Facio 22.1.1.32 ***
 $CONTRL RUNTYP=ENERGY NPRINT=-5 ISPHER=1 MAXIT=200 $END
 $SYSTEM MWORDS=63 MEMDDI=63 $END
 $GDDI NGROUP=1 $END
 $SCF DIRSCF=.TRUE. NPUNCH=0 $END
!*** NumCPU : 2  MemPerNode : 512MB
 $PCM SOLVNT=WATER IEF=-10 ICOMP=2 ICAV=1 IDISP=1 IFMO=-1 $END
 $PCMCAV RADII=SUAHF $END
 $TESCAV NTSALL=60 $END
 $FMOPRP
    NAODIR=200
    NGRFMO(1)=1, 1, 0, 0, 0,   0, 0, 0, 0, 0
    IPIEDA=1
    NPRINT=9
 $END
 $FMO
      SCFTYP(1)=RHF
      MODGRD=10
      MODMUL=0
      MAXCAO=5
      MAXBND=16
      NLAYER=1
      MPLEVL(1)=2
      NFRAG=14
      ICHARG(1)=-1, -1, -1, -1, -1, -1, -1, -1, -1, -1, -1, -1, -1, 0
      FRGNAM(1)=F1, F2, F3, F4, F5, F6, F7, F8, F9, F10, F11, F12, F13, F14
      indat(1)=0
               1   -36   0
               37   -70   0
               71   -101   0
               102   -134   0
               135   -165   0
               166   -195   0
               196   -225   0
               226   -256   0
               257   -290   0
               291   -324   0
               325   -354   0
               355   -388   0
               389   -419   0
               420   -447   0
 $END

 $FMOBND
   -37   36       6-31G*    MINI
   -71   70       6-31G*    MINI
   -102   101       6-31G*    MINI
   -135   134       6-31G*    MINI
   -166   165       6-31G*    MINI
   -196   195       6-31G*    MINI
   -226   225       6-31G*    MINI
   -257   256       6-31G*    MINI
   -291   290       6-31G*    MINI
   -325   324       6-31G*    MINI
   -355   354       6-31G*    MINI
   -389   388       6-31G*    MINI
   -420   419       6-31G*    MINI
 $END
 $FMOHYB
 6-31G*      15   5
   1 0  -0.065034   0.288264   0.000000   0.000000   0.604412
         0.290129   0.000000   0.000000   0.319045  -0.017106
        -0.017106   0.057934   0.000000   0.000000   0.000000
   0 1  -0.065040   0.288293   0.569832   0.000000  -0.201456
         0.290147   0.300783   0.000000  -0.106342   0.049598
        -0.017106  -0.008771   0.000000  -0.027223   0.000000
   0 1  -0.065039   0.288293  -0.284916  -0.493490  -0.201455
         0.290145  -0.150392  -0.260486  -0.106340  -0.000427
         0.032923  -0.008771   0.033353   0.013612   0.023576
   0 1  -0.065039   0.288293  -0.284916   0.493490  -0.201455
         0.290145  -0.150392   0.260486  -0.106340  -0.000427
         0.032923  -0.008771  -0.033353   0.013612  -0.023576
   0 1   1.010938  -0.011975   0.000000   0.000000   0.000000
        -0.054085   0.000000   0.000000  -0.000000  -0.003174
        -0.003174  -0.003174   0.000000   0.000000   0.000000
 MINI         5   5
   1 0  -0.104883   0.308874   0.000000   0.000000   0.521806
   0 1  -0.104883   0.308874   0.491961   0.000000  -0.173934
   0 1  -0.104883   0.308876  -0.245980  -0.426050  -0.173933
   0 1  -0.104883   0.308876  -0.245980   0.426050  -0.173933
   0 1   0.988209   0.063992   0.000000   0.000000   0.000000
 $END
 
 $DATA
 FMO calculation
 C1 
 H.1-1    1
      N31 6
   
 O.1-1    8
      N31 6
      d 1
      1 0.800 1.0
   
 C.1-1    6
      N31 6
      d 1
      1 0.800 1.0
   
 N.1-1    7
      N31 6
      d 1
      1 0.800 1.0
   
 P.1-1   15
      N31 6
      d 1
      1 0.550 1.0
   
 $END
 $FMOXYZ
    1    H    -12.625    -0.201    8.255
    2    O    -12.951    -0.439    7.367
    3    C    -13.728    -1.642    7.503
    4    H    -14.443    -1.498    8.343
    5    H    -13.052    -2.480    7.781
    6    C    -14.542    -2.056    6.255
    7    H    -15.457    -2.604    6.568
    8    O    -14.977    -0.872    5.521
    9    C    -14.850    -1.080    4.128
    10    H    -15.856    -0.862    3.695
    11    N    -13.870    -0.159    3.511
    12    C    -13.707    0.084    2.169
    13    N    -14.639    -0.476    -1.113
    14    H    -14.406    -0.145    -2.025
    15    H    -15.406    -1.108    -1.003
    16    N    -14.406    -0.488    1.174
    17    C    -14.037    -0.040    -0.026
    18    N    -13.043    0.886    -0.217
    19    H    -12.829    1.175    -1.152
    20    C    -12.310    1.495    0.793
    21    O    -11.433    2.324    0.534
    22    C    -12.711    1.039    2.079
    23    N    -12.265    1.407    3.342
    24    C    -12.983    0.671    4.160
    25    H    -12.916    0.690    5.251
    26    C    -14.524    -2.546    3.912
    27    H    -13.875    -2.704    3.028
    28    O    -15.726    -3.275    3.738
    29    H    -15.501    -4.216    3.804
    30    C    -13.815    -2.941    5.210
    31    H    -12.753    -2.608    5.202
    32    O    -13.961    -4.338    5.536
    33    P    -12.893    -5.491    5.462
    34    O    -13.540    -6.728    5.946
    35    O    -11.670    -5.053    6.167
    36    O    -12.535    -5.676    3.951
    37    C    -12.872    -6.769    3.078
    38    H    -13.905    -7.129    3.280
    39    H    -12.179    -7.621    3.254
    40    C    -12.800    -6.392    1.572
    41    H    -13.493    -7.027    0.979
    42    O    -13.213    -5.002    1.394
    43    C    -12.285    -4.312    0.575
    44    H    -12.891    -3.795    -0.206
    45    N    -11.527    -3.286    1.325
    46    C    -10.826    -2.251    0.784
    47    N    -9.841    -0.530    -1.993
    48    H    -10.124    -1.161    -2.707
    49    H    -9.107    0.129    -2.181
    50    N    -10.704    -2.003    -0.517
    51    C    -10.004    -0.912    -0.755
    52    N    -9.438    -0.129    0.228
    53    H    -8.905    0.670    -0.058
    54    C    -9.537    -0.374    1.599
    55    O    -9.005    0.343    2.452
    56    C    -10.313    -1.536    1.852
    57    N    -10.700    -2.104    3.049
    58    C    -11.416    -3.128    2.681
    59    H    -11.939    -3.758    3.373
    60    C    -11.405    -5.346    -0.099
    61    H    -10.372    -4.974    -0.278
    62    O    -11.987    -5.732    -1.336
    63    H    -11.460    -6.469    -1.676
    64    C    -11.399    -6.496    0.914
    65    H    -10.655    -6.297    1.719
    66    O    -11.230    -7.800    0.321
    67    P    -9.850    -8.513    0.103
    68    O    -10.062    -9.683    -0.777
    69    O    -9.255    -8.758    1.432
    70    O    -8.949    -7.481    -0.632
    71    C    -8.497    -7.697    -1.990
    72    H    -9.364    -7.761    -2.688
    73    H    -7.917    -8.645    -2.079
    74    C    -7.609    -6.546    -2.460
    75    H    -7.611    -6.471    -3.566
    76    O    -8.128    -5.290    -1.937
    77    C    -7.057    -4.454    -1.615
    78    H    -7.266    -3.534    -2.216
    79    N    -7.003    -4.031    -0.224
    80    C    -7.596    -4.736    0.780
    81    H    -8.112    -5.646    0.474
    82    C    -7.566    -4.281    2.040
    83    H    -8.063    -4.800    2.856
    84    C    -6.235    -2.923    0.052
    85    O    -5.602    -2.413    -0.878
    86    N    -6.199    -2.426    1.312
    87    C    -6.878    -3.052    2.287
    88    N    -6.911    -2.498    3.494
    89    H    -6.415    -1.656    3.676
    90    H    -7.402    -2.929    4.253
    91    C    -5.804    -5.113    -2.077
    92    H    -4.909    -4.881    -1.458
    93    O    -5.656    -4.617    -3.372
    94    H    -4.845    -4.073    -3.298
    95    C    -6.135    -6.601    -2.031
    96    H    -6.110    -6.965    -0.981
    97    O    -5.410    -7.490    -2.913
    98    P    -3.853    -7.651    -3.091
    99    O    -3.600    -8.379    -4.353
    100    O    -3.238    -8.229    -1.874
    101    O    -3.271    -6.242    -3.269
    102    C    -3.338    -5.475    -4.483
    103    H    -4.332    -5.487    -4.994
    104    H    -2.638    -5.896    -5.237
    105    C    -2.923    -4.050    -4.146
    106    H    -3.306    -3.289    -4.861
    107    O    -3.215    -3.613    -2.751
    108    C    -2.072    -3.010    -2.203
    109    H    -2.355    -1.963    -1.929
    110    N    -1.561    -3.694    -1.001
    111    C    -0.662    -4.192    0.952
    112    N    -1.152    -5.379    0.438
    113    C    -1.668    -5.028    -0.715
    114    H    -2.156    -5.712    -1.403
    115    N    0.403    -2.621    2.356
    116    C    0.161    -1.725    1.391
    117    H    0.539    -0.714    1.568
    118    N    -0.551    -1.872    0.271
    119    C    -0.897    -3.145    0.078
    120    C    -0.005    -3.892    2.164
    121    N    0.210    -4.797    3.134
    122    H    -0.075    -5.755    3.032
    123    H    0.660    -4.518    3.981
    124    C    -1.094    -3.001    -3.321
    125    H    -0.065    -3.173    -2.978
    126    O    -1.311    -1.842    -4.071
    127    H    -2.115    -1.980    -4.576
    128    C    -1.434    -4.149    -4.193
    129    H    -1.099    -5.112    -3.737
    130    O    -1.035    -4.049    -5.564
    131    P    0.419    -3.981    -6.122
    132    O    0.330    -3.447    -7.499
    133    O    1.009    -5.329    -5.987
    134    O    1.256    -2.978    -5.222
    135    C    1.136    -1.537    -5.382
    136    H    0.145    -1.247    -5.796
    137    H    1.867    -1.184    -6.140
    138    C    1.348    -0.686    -4.082
    139    H    0.732    0.231    -4.115
    140    O    1.007    -1.332    -2.861
    141    C    1.925    -1.181    -1.878
    142    H    1.325    -0.751    -1.045
    143    N    2.512    -2.465    -1.442
    144    C    2.323    -3.655    -2.101
    145    H    1.807    -3.594    -3.059
    146    C    2.793    -4.803    -1.596
    147    H    2.658    -5.758    -2.099
    148    C    3.100    -2.458    -0.201
    149    O    3.044    -1.411    0.444
    150    N    3.682    -3.576    0.293
    151    C    3.504    -4.738    -0.358
    152    N    3.995    -5.849    0.178
    153    H    4.483    -5.793    1.046
    154    H    3.873    -6.748    -0.246
    155    C    2.903    -0.179    -2.364
    156    H    3.930    -0.422    -2.043
    157    O    2.542    1.088    -1.879
    158    H    1.747    1.418    -2.357
    159    C    2.748    -0.294    -3.878
    160    H    3.330    -1.175    -4.237
    161    O    2.929    0.917    -4.632
    162    P    4.206    1.011    -5.486
    163    O    4.194    2.276    -6.250
    164    O    4.373    -0.238    -6.259
    165    O    5.297    1.069    -4.363
    166    C    5.237    2.151    -3.393
    167    H    4.222    2.312    -2.975
    168    H    5.536    3.103    -3.886
    169    C    6.194    1.909    -2.217
    170    H    6.202    2.775    -1.525
    171    O    5.850    0.744    -1.433
    172    C    7.024    0.063    -1.039
    173    H    7.027    0.097    0.074
    174    N    7.008    -1.364    -1.490
    175    C    6.180    -1.767    -2.514
    176    H    5.625    -0.965    -3.005
    177    C    7.759    -2.283    -0.800
    178    O    8.484    -1.973    0.135
    179    N    7.610    -3.582    -1.200
    180    H    8.221    -4.258    -0.768
    181    C    6.815    -4.057    -2.217
    182    O    6.799    -5.257    -2.480
    183    C    6.039    -3.051    -2.878
    184    H    5.360    -3.356    -3.674
    185    C    8.210    0.871    -1.552
    186    H    9.042    0.224    -1.904
    187    O    8.659    1.767    -0.558
    188    H    9.521    2.081    -0.865
    189    C    7.602    1.654    -2.701
    190    H    7.530    0.995    -3.592
    191    O    8.201    2.935    -2.980
    192    P    9.224    3.080    -4.134
    193    O    9.068    4.437    -4.708
    194    O    9.142    1.944    -5.078
    195    O    10.566    2.969    -3.329
    196    C    11.815    3.222    -4.010
    197    H    11.713    3.999    -4.808
    198    H    12.185    2.287    -4.489
    199    C    12.872    3.731    -3.025
    200    H    13.778    4.057    -3.580
    201    O    12.336    4.902    -2.331
    202    C    12.563    4.792    -0.952
    203    H    13.529    5.318    -0.775
    204    N    11.433    5.395    -0.172
    205    C    10.116    5.098    -0.474
    206    H    9.974    4.394    -1.297
    207    C    11.736    6.277    0.843
    208    O    12.883    6.616    1.113
    209    N    10.661    6.767    1.533
    210    H    10.883    7.382    2.297
    211    C    9.328    6.531    1.291
    212    O    8.470    7.100    1.967
    213    C    9.079    5.626    0.204
    214    H    8.047    5.389    -0.044
    215    C    12.754    3.326    -0.631
    216    H    11.780    2.859    -0.390
    217    O    13.672    3.202    0.438
    218    H    13.601    2.292    0.797
    219    C    13.293    2.717    -1.938
    220    H    12.707    1.788    -2.141
    221    O    14.725    2.469    -1.960
    222    P    15.319    1.045    -2.300
    223    O    16.771    1.067    -2.023
    224    O    14.936    0.707    -3.687
    225    O    14.648    0.003    -1.331
    226    C    15.431    -0.781    -0.384
    227    H    15.750    -0.117    0.450
    228    H    16.352    -1.189    -0.857
    229    C    14.675    -1.972    0.283
    230    H    14.812    -1.939    1.385
    231    O    13.247    -1.920    -0.023
    232    C    12.917    -3.032    -0.828
    233    H    12.555    -3.797    -0.107
    234    N    11.884    -2.737    -1.831
    235    C    11.903    -1.525    -2.472
    236    H    12.709    -0.853    -2.179
    237    C    10.962    -1.205    -3.371
    238    H    10.938    -0.237    -3.869
    239    C    10.869    -3.654    -2.080
    240    O    10.803    -4.696    -1.400
    241    N    9.968    -3.384    -3.057
    242    C    9.952    -2.175    -3.644
    243    N    8.961    -1.887    -4.488
    244    H    8.954    -1.040    -5.021
    245    H    8.321    -2.611    -4.736
    246    C    14.219    -3.496    -1.430
    247    H    14.567    -2.797    -2.224
    248    O    14.167    -4.825    -1.904
    249    H    14.021    -5.382    -1.124
    250    C    15.081    -3.392    -0.191
    251    H    16.164    -3.400    -0.467
    252    O    14.728    -4.403    0.795
    253    P    15.743    -5.315    1.555
    254    O    17.074    -5.183    0.913
    255    O    15.205    -6.694    1.637
    256    O    15.838    -4.788    3.050
    257    C    14.744    -4.682    4.025
    258    H    14.764    -5.565    4.701
    259    H    13.756    -4.673    3.513
    260    C    14.816    -3.407    4.947
    261    H    15.615    -3.559    5.704
    262    O    15.308    -2.354    4.068
    263    C    14.829    -1.112    4.486
    264    H    15.746    -0.498    4.644
    265    N    13.980    -0.474    3.496
    266    C    12.802    -0.865    2.874
    267    N    10.183    -3.098    2.443
    268    H    9.354    -3.161    1.898
    269    H    10.487    -3.874    2.991
    270    N    12.128    -2.023    3.019
    271    C    10.992    -2.055    2.349
    272    N    10.567    -1.024    1.563
    273    H    9.722    -1.148    1.032
    274    C    11.279    0.138    1.328
    275    O    10.884    1.023    0.580
    276    C    12.451    0.210    2.102
    277    N    13.371    1.231    2.222
    278    C    14.261    0.783    3.051
    279    H    15.145    1.332    3.383
    280    C    14.099    -1.282    5.781
    281    H    13.265    -0.555    5.906
    282    O    15.023    -1.153    6.848
    283    H    14.605    -1.517    7.645
    284    C    13.574    -2.696    5.678
    285    H    12.713    -2.806    5.020
    286    O    13.173    -3.201    6.960
    287    P    11.957    -2.693    7.896
    288    O    12.558    -2.497    9.230
    289    O    10.917    -3.740    7.835
    290    O    11.248    -1.296    7.516
    291    C    10.106    -0.768    8.339
    292    H    10.492    -0.424    9.324
    293    H    9.387    -1.584    8.587
    294    C    9.257    0.455    7.721
    295    H    9.682    1.407    8.102
    296    O    9.555    0.417    6.291
    297    C    8.364    0.230    5.565
    298    H    8.522    0.694    4.564
    299    N    7.983    -1.193    5.409
    300    C    7.048    -1.619    4.525
    301    N    5.073    -0.865    1.890
    302    H    4.437    -1.312    1.254
    303    H    4.983    0.117    2.006
    304    N    6.396    -0.834    3.679
    305    C    5.659    -1.518    2.838
    306    N    5.470    -2.880    2.897
    307    H    4.853    -3.306    2.226
    308    C    6.079    -3.720    3.830
    309    O    5.883    -4.940    3.854
    310    C    6.941    -2.986    4.696
    311    N    7.805    -3.420    5.688
    312    C    8.423    -2.325    6.059
    313    H    9.226    -2.311    6.785
    314    C    7.320    0.997    6.309
    315    H    6.286    0.716    6.009
    316    O    7.513    2.391    6.110
    317    H    6.847    2.830    6.653
    318    C    7.628    0.591    7.748
    319    H    7.217    -0.423    7.951
    320    O    7.098    1.553    8.722
    321    P    5.527    1.948    8.870
    322    O    5.467    3.100    9.796
    323    O    4.804    0.738    9.317
    324    O    4.898    2.450    7.488
    325    C    3.803    3.443    7.399
    326    H    4.194    4.444    7.684
    327    H    2.985    3.188    8.110
    328    C    3.138    3.609    5.970
    329    H    3.749    4.309    5.369
    330    O    3.279    2.321    5.309
    331    C    2.077    1.869    4.761
    332    H    2.398    1.639    3.713
    333    N    1.601    0.591    5.296
    334    C    2.181    0.020    6.399
    335    H    2.934    0.635    6.902
    336    C    0.694    -0.099    4.526
    337    O    0.206    0.362    3.500
    338    N    0.374    -1.344    4.989
    339    H    -0.095    -1.913    4.302
    340    C    0.940    -2.004    6.058
    341    O    0.599    -3.156    6.322
    342    C    1.885    -1.223    6.803
    343    H    2.347    -1.661    7.684
    344    C    1.075    2.991    4.761
    345    H    0.040    2.680    5.028
    346    O    1.173    3.465    3.451
    347    H    0.362    3.299    2.937
    348    C    1.619    4.031    5.754
    349    H    1.120    3.894    6.741
    350    O    1.482    5.423    5.323
    351    P    0.269    6.268    4.695
    352    O    0.766    7.652    4.519
    353    O    -0.910    6.118    5.576
    354    O    -0.165    5.733    3.279
    355    C    -0.423    6.222    1.931
    356    H    0.202    7.109    1.694
    357    H    -1.489    6.535    1.854
    358    C    -0.163    5.128    0.808
    359    H    0.895    5.196    0.482
    360    O    -0.340    3.839    1.413
    361    C    -1.565    3.313    1.090
    362    H    -1.284    2.332    0.631
    363    N    -2.470    3.097    2.222
    364    C    -3.418    2.148    2.110
    365    N    -4.790    -0.203    0.162
    366    H    -5.493    -0.922    0.149
    367    H    -4.152    -0.177    -0.610
    368    N    -3.584    1.391    1.037
    369    C    -4.544    0.540    1.174
    370    N    -5.318    0.408    2.300
    371    H    -6.024    -0.301    2.301
    372    C    -5.173    1.200    3.443
    373    O    -5.882    1.044    4.442
    374    C    -4.147    2.177    3.270
    375    N    -3.700    3.206    4.091
    376    C    -2.710    3.753    3.407
    377    H    -2.119    4.609    3.732
    378    C    -2.220    4.198    0.109
    379    H    -2.980    4.874    0.555
    380    O    -2.822    3.361    -0.795
    381    H    -3.069    2.536    -0.332
    382    C    -1.080    5.000    -0.475
    383    H    -1.450    6.019    -0.712
    384    O    -0.416    4.495    -1.661
    385    P    -0.496    3.508    -2.914
    386    O    0.636    2.580    -2.778
    387    O    -0.469    4.356    -4.133
    388    O    -1.818    2.643    -3.116
    389    C    -1.788    1.443    -3.950
    390    H    -1.095    0.724    -3.458
    391    H    -1.375    1.652    -4.970
    392    C    -3.114    0.607    -4.104
    393    H    -2.824    -0.395    -4.381
    394    O    -3.772    0.375    -2.857
    395    C    -5.158    0.559    -2.989
    396    H    -5.591    -0.349    -2.499
    397    N    -5.604    1.742    -2.287
    398    C    -4.869    2.862    -2.450
    399    H    -3.893    2.700    -2.863
    400    C    -5.189    4.009    -1.854
    401    H    -4.479    4.831    -1.795
    402    C    -6.882    1.869    -1.793
    403    O    -7.700    0.976    -2.018
    404    N    -7.208    2.978    -1.091
    405    C    -6.362    4.022    -1.082
    406    N    -6.627    5.086    -0.344
    407    H    -7.519    5.156    0.104
    408    H    -5.940    5.788    -0.171
    409    C    -5.535    0.619    -4.421
    410    H    -6.186    1.481    -4.655
    411    O    -6.233    -0.575    -4.691
    412    H    -6.440    -0.633    -5.644
    413    C    -4.198    0.843    -5.152
    414    H    -4.109    1.912    -5.456
    415    O    -3.964    -0.074    -6.237
    416    P    -4.910    -0.269    -7.416
    417    O    -4.152    -0.867    -8.523
    418    O    -5.535    1.060    -7.575
    419    O    -6.125    -1.240    -7.157
    420    C    -7.007    -1.415    -8.318
    421    H    -6.973    -2.486    -8.615
    422    H    -6.696    -0.857    -9.243
    423    C    -8.487    -1.040    -8.087
    424    H    -9.139    -1.806    -8.557
    425    O    -8.844    -0.987    -6.681
    426    C    -9.962    -0.131    -6.529
    427    H    -10.802    -0.822    -6.289
    428    N    -9.803    0.849    -5.437
    429    C    -8.616    1.517    -5.312
    430    H    -7.806    1.158    -5.953
    431    C    -8.461    2.480    -4.391
    432    H    -7.519    3.007    -4.246
    433    C    -10.902    1.231    -4.669
    434    O    -12.008    0.719    -4.903
    435    N    -10.753    2.164    -3.706
    436    C    -9.581    2.795    -3.565
    437    N    -9.486    3.736    -2.634
    438    H    -10.275    3.827    -2.030
    439    H    -8.592    3.900    -2.220
    440    C    -10.245    0.545    -7.864
    441    H    -10.417    1.640    -7.749
    442    O    -11.370    -0.056    -8.482
    443    H    -11.462    0.303    -9.381
    444    C    -8.944    0.311    -8.637
    445    H    -8.172    1.059    -8.353
    446    O    -9.110    0.256    -10.067
    447    H    -9.425    1.117    -10.392
 $END
