!*** FMO 5.3 (Gamess) INPUT generated by Facio 22.1.1.32 ***
 $CONTRL RUNTYP=ENERGY NPRINT=-5 ISPHER=1 MAXIT=200 $END
 $SYSTEM MWORDS=63 MEMDDI=63 $END
 $GDDI NGROUP=1 $END
 $SCF DIRSCF=.TRUE. NPUNCH=0 $END
!*** NumCPU : 2  MemPerNode : 512MB
 $PCM SOLVNT=WATER IEF=-10 ICOMP=2 ICAV=1 IDISP=1 IFMO=-1 $END
 $PCMCAV RADII=SUAHF $END
 $TESCAV NTSALL=60 $END
 $FMOPRP
    NAODIR=200
    NGRFMO(1)=1, 1, 0, 0, 0,   0, 0, 0, 0, 0
    IPIEDA=1
    NPRINT=9
 $END
 $FMO
      SCFTYP(1)=RHF
      MODGRD=10
      MODMUL=0
      MAXCAO=5
      MAXBND=16
      NLAYER=1
      MPLEVL(1)=2
      NFRAG=14
      ICHARG(1)=-1, -1, -1, -1, -1, -1, -1, -1, -1, -1, -1, -1, -1, 0
      FRGNAM(1)=F1, F2, F3, F4, F5, F6, F7, F8, F9, F10, F11, F12, F13, F14
      indat(1)=0
               1   -36   0
               37   -70   0
               71   -101   0
               102   -134   0
               135   -165   0
               166   -195   0
               196   -225   0
               226   -256   0
               257   -290   0
               291   -324   0
               325   -354   0
               355   -388   0
               389   -419   0
               420   -447   0
 $END

 $FMOBND
   -37   36       6-31G*    MINI
   -71   70       6-31G*    MINI
   -102   101       6-31G*    MINI
   -135   134       6-31G*    MINI
   -166   165       6-31G*    MINI
   -196   195       6-31G*    MINI
   -226   225       6-31G*    MINI
   -257   256       6-31G*    MINI
   -291   290       6-31G*    MINI
   -325   324       6-31G*    MINI
   -355   354       6-31G*    MINI
   -389   388       6-31G*    MINI
   -420   419       6-31G*    MINI
 $END
 $FMOHYB
 6-31G*      15   5
   1 0  -0.065034   0.288264   0.000000   0.000000   0.604412
         0.290129   0.000000   0.000000   0.319045  -0.017106
        -0.017106   0.057934   0.000000   0.000000   0.000000
   0 1  -0.065040   0.288293   0.569832   0.000000  -0.201456
         0.290147   0.300783   0.000000  -0.106342   0.049598
        -0.017106  -0.008771   0.000000  -0.027223   0.000000
   0 1  -0.065039   0.288293  -0.284916  -0.493490  -0.201455
         0.290145  -0.150392  -0.260486  -0.106340  -0.000427
         0.032923  -0.008771   0.033353   0.013612   0.023576
   0 1  -0.065039   0.288293  -0.284916   0.493490  -0.201455
         0.290145  -0.150392   0.260486  -0.106340  -0.000427
         0.032923  -0.008771  -0.033353   0.013612  -0.023576
   0 1   1.010938  -0.011975   0.000000   0.000000   0.000000
        -0.054085   0.000000   0.000000  -0.000000  -0.003174
        -0.003174  -0.003174   0.000000   0.000000   0.000000
 MINI         5   5
   1 0  -0.104883   0.308874   0.000000   0.000000   0.521806
   0 1  -0.104883   0.308874   0.491961   0.000000  -0.173934
   0 1  -0.104883   0.308876  -0.245980  -0.426050  -0.173933
   0 1  -0.104883   0.308876  -0.245980   0.426050  -0.173933
   0 1   0.988209   0.063992   0.000000   0.000000   0.000000
 $END
 
 $DATA
 FMO calculation
 C1 
 H.1-1    1
      N31 6
   
 O.1-1    8
      N31 6
      d 1
      1 0.800 1.0
   
 C.1-1    6
      N31 6
      d 1
      1 0.800 1.0
   
 N.1-1    7
      N31 6
      d 1
      1 0.800 1.0
   
 P.1-1   15
      N31 6
      d 1
      1 0.550 1.0
   
 $END
 $FMOXYZ
    1    H    -11.363    -4.870    9.800
    2    O    -11.554    -4.794    8.847
    3    C    -12.090    -6.059    8.429
    4    H    -12.979    -6.291    9.056
    5    H    -11.333    -6.849    8.613
    6    C    -12.502    -6.093    6.952
    7    H    -13.127    -6.987    6.737
    8    O    -13.285    -4.903    6.605
    9    C    -12.920    -4.482    5.297
    10    H    -13.858    -4.427    4.698
    11    N    -12.269    -3.158    5.300
    12    C    -12.084    -2.344    4.213
    13    N    -12.501    -1.713    0.836
    14    H    -12.979    -2.528    0.518
    15    H    -12.332    -0.965    0.189
    16    N    -12.465    -2.615    2.954
    17    C    -12.175    -1.627    2.111
    18    N    -11.540    -0.475    2.495
    19    H    -11.393    0.237    1.797
    20    C    -11.132    -0.166    3.787
    21    O    -10.571    0.904    4.043
    22    C    -11.448    -1.215    4.695
    23    N    -11.222    -1.321    6.063
    24    C    -11.722    -2.498    6.375
    25    H    -11.737    -2.934    7.377
    26    C    -12.014    -5.543    4.719
    27    H    -11.272    -5.109    4.021
    28    O    -12.779    -6.541    4.073
    29    H    -12.145    -7.155    3.680
    30    C    -11.329    -6.089    5.963
    31    H    -10.602    -5.340    6.359
    32    O    -10.769    -7.425    5.817
    33    P    -9.226    -7.559    5.495
    34    O    -8.806    -8.959    5.724
    35    O    -8.479    -6.524    6.239
    36    O    -9.112    -7.245    3.954
    37    C    -9.833    -8.054    2.992
    38    H    -10.833    -8.370    3.372
    39    H    -9.256    -8.981    2.772
    40    C    -10.075    -7.301    1.674
    41    H    -10.787    -7.854    1.025
    42    O    -10.657    -5.999    1.935
    43    C    -10.076    -5.031    1.078
    44    H    -10.929    -4.536    0.555
    45    N    -9.324    -4.006    1.832
    46    C    -8.918    -2.787    1.356
    47    N    -8.723    -0.496    -1.231
    48    H    -9.167    -0.982    -1.981
    49    H    -8.345    0.418    -1.399
    50    N    -9.110    -2.324    0.111
    51    C    -8.636    -1.093    -0.057
    52    N    -8.042    -0.374    0.946
    53    H    -7.701    0.547    0.724
    54    C    -7.830    -0.821    2.246
    55    O    -7.281    -0.099    3.082
    56    C    -8.304    -2.153    2.421
    57    N    -8.297    -2.972    3.544
    58    C    -8.917    -4.060    3.148
    59    H    -9.116    -4.934    3.769
    60    C    -9.230    -5.773    0.064
    61    H    -8.341    -5.195    -0.267
    62    O    -10.023    -6.117    -1.058
    63    H    -9.500    -6.724    -1.600
    64    C    -8.819    -7.006    0.861
    65    H    -8.031    -6.738    1.602
    66    O    -8.495    -8.162    0.063
    67    P    -6.994    -8.560    -0.163
    68    O    -6.950    -9.893    -0.806
    69    O    -6.230    -8.401    1.097
    70    O    -6.503    -7.482    -1.195
    71    C    -6.659    -7.756    -2.611
    72    H    -7.700    -8.068    -2.853
    73    H    -5.976    -8.582    -2.921
    74    C    -6.345    -6.533    -3.486
    75    H    -6.750    -6.662    -4.513
    76    O    -6.936    -5.323    -2.942
    77    C    -6.045    -4.238    -3.152
    78    H    -6.613    -3.536    -3.805
    79    N    -5.692    -3.532    -1.894
    80    C    -5.713    -4.211    -0.696
    81    H    -6.003    -5.262    -0.745
    82    C    -5.426    -3.598    0.459
    83    H    -5.466    -4.103    1.422
    84    C    -5.305    -2.194    -1.924
    85    O    -5.226    -1.601    -3.012
    86    N    -5.025    -1.560    -0.763
    87    C    -5.090    -2.220    0.405
    88    N    -4.852    -1.566    1.533
    89    H    -4.556    -0.606    1.488
    90    H    -4.777    -2.032    2.414
    91    C    -4.833    -4.749    -3.928
    92    H    -3.886    -4.288    -3.575
    93    O    -4.988    -4.504    -5.315
    94    H    -4.178    -4.830    -5.745
    95    C    -4.851    -6.251    -3.610
    96    H    -4.408    -6.434    -2.602
    97    O    -4.300    -7.140    -4.613
    98    P    -2.746    -7.243    -4.786
    99    O    -2.422    -8.456    -5.572
    100    O    -2.072    -7.068    -3.487
    101    O    -2.495    -5.980    -5.651
    102    C    -2.070    -5.962    -7.025
    103    H    -2.949    -6.102    -7.695
    104    H    -1.338    -6.778    -7.257
    105    C    -1.424    -4.614    -7.380
    106    H    -1.560    -4.376    -8.458
    107    O    -2.020    -3.523    -6.598
    108    C    -1.006    -2.651    -6.161
    109    H    -1.290    -1.626    -6.494
    110    N    -0.861    -2.664    -4.701
    111    C    -0.466    -2.115    -2.617
    112    N    -0.823    -3.450    -2.603
    113    C    -1.039    -3.731    -3.856
    114    H    -1.331    -4.712    -4.220
    115    N    0.204    0.042    -1.913
    116    C    0.146    0.384    -3.206
    117    H    0.408    1.423    -3.428
    118    N    -0.173    -0.363    -4.273
    119    C    -0.479    -1.614    -3.900
    120    C    -0.100    -1.241    -1.585
    121    N    -0.068    -1.682    -0.324
    122    H    0.341    -1.136    0.412
    123    H    -0.534    -2.525    -0.052
    124    C    0.266    -3.070    -6.848
    125    H    1.124    -2.922    -6.174
    126    O    0.429    -2.366    -8.064
    127    H    1.295    -2.626    -8.410
    128    C    0.082    -4.563    -7.075
    129    H    0.242    -5.130    -6.130
    130    O    0.842    -5.116    -8.175
    131    P    2.330    -5.625    -8.065
    132    O    2.825    -5.892    -9.436
    133    O    2.394    -6.739    -7.097
    134    O    3.142    -4.423    -7.466
    135    C    3.905    -3.495    -8.277
    136    H    3.437    -3.345    -9.278
    137    H    4.926    -3.901    -8.468
    138    C    4.063    -2.099    -7.620
    139    H    4.048    -1.311    -8.403
    140    O    2.960    -1.809    -6.729
    141    C    3.403    -1.172    -5.550
    142    H    2.763    -0.262    -5.465
    143    N    3.227    -1.992    -4.310
    144    C    2.932    -3.340    -4.357
    145    H    2.841    -3.780    -5.348
    146    C    2.753    -4.060    -3.240
    147    H    2.503    -5.118    -3.254
    148    C    3.378    -1.370    -3.072
    149    O    3.663    -0.163    -3.025
    150    N    3.218    -2.088    -1.942
    151    C    2.906    -3.390    -1.995
    152    N    2.755    -4.049    -0.853
    153    H    2.875    -3.529    -0.001
    154    H    2.496    -5.016    -0.805
    155    C    4.836    -0.774    -5.790
    156    H    5.451    -0.775    -4.865
    157    O    4.864    0.512    -6.385
    158    H    5.750    0.633    -6.761
    159    C    5.301    -1.858    -6.756
    160    H    5.497    -2.809    -6.208
    161    O    6.388    -1.426    -7.587
    162    P    7.763    -2.164    -7.624
    163    O    8.486    -1.635    -8.802
    164    O    7.529    -3.623    -7.588
    165    O    8.467    -1.696    -6.296
    166    C    8.876    -0.314    -6.127
    167    H    8.138    0.403    -6.550
    168    H    9.847    -0.143    -6.646
    169    C    9.058    0.056    -4.648
    170    H    9.293    1.139    -4.540
    171    O    7.839    -0.190    -3.900
    172    C    8.164    -0.649    -2.600
    173    H    7.723    0.099    -1.901
    174    N    7.587    -1.997    -2.327
    175    C    7.192    -2.820    -3.359
    176    H    7.329    -2.411    -4.362
    177    C    7.431    -2.396    -1.018
    178    O    7.752    -1.690    -0.068
    179    N    6.867    -3.632    -0.844
    180    H    6.773    -3.971    0.104
    181    C    6.453    -4.503    -1.824
    182    O    5.957    -5.585    -1.519
    183    C    6.635    -4.023    -3.159
    184    H    6.303    -4.649    -3.983
    185    C    9.685    -0.615    -2.471
    186    H    10.077    -1.450    -1.855
    187    O    10.098    0.620    -1.925
    188    H    11.061    0.594    -1.886
    189    C    10.140    -0.735    -3.920
    190    H    10.059    -1.787    -4.273
    191    O    11.419    -0.138    -4.212
    192    P    12.745    -0.936    -4.013
    193    O    13.729    -0.408    -4.986
    194    O    12.449    -2.386    -4.040
    195    O    13.206    -0.519    -2.558
    196    C    14.568    -0.857    -2.176
    197    H    15.283    -0.816    -3.035
    198    H    14.594    -1.892    -1.768
    199    C    15.142    0.083    -1.107
    200    H    16.195    -0.213    -0.901
    201    O    15.174    1.453    -1.598
    202    C    14.498    2.298    -0.697
    203    H    15.299    2.735    -0.056
    204    N    13.728    3.341    -1.424
    205    C    12.879    2.983    -2.446
    206    H    12.858    1.917    -2.682
    207    C    13.885    4.661    -1.067
    208    O    14.660    5.030    -0.186
    209    N    13.118    5.549    -1.771
    210    H    13.229    6.514    -1.507
    211    C    12.255    5.273    -2.808
    212    O    11.653    6.188    -3.372
    213    C    12.155    3.880    -3.135
    214    H    11.504    3.584    -3.953
    215    C    13.614    1.441    0.183
    216    H    12.619    1.281    -0.287
    217    O    13.495    2.053    1.454
    218    H    12.951    1.500    2.044
    219    C    14.369    0.103    0.230
    220    H    13.603    -0.708    0.181
    221    O    15.259    -0.045    1.368
    222    P    15.461    -1.479    1.997
    223    O    16.379    -1.394    3.156
    224    O    15.867    -2.412    0.924
    225    O    14.050    -1.920    2.502
    226    C    13.607    -1.771    3.872
    227    H    13.346    -0.705    4.056
    228    H    14.397    -2.057    4.608
    229    C    12.339    -2.613    4.174
    230    H    11.812    -2.187    5.051
    231    O    11.415    -2.609    3.046
    232    C    11.200    -3.934    2.616
    233    H    10.294    -4.264    3.168
    234    N    11.010    -4.031    1.159
    235    C    11.868    -3.328    0.355
    236    H    12.583    -2.684    0.872
    237    C    11.777    -3.398    -0.976
    238    H    12.435    -2.833    -1.632
    239    C    10.040    -4.865    0.604
    240    O    9.291    -5.512    1.357
    241    N    9.930    -4.942    -0.746
    242    C    10.764    -4.232    -1.531
    243    N    10.635    -4.294    -2.854
    244    H    11.259    -3.764    -3.441
    245    H    10.020    -4.971    -3.261
    246    C    12.385    -4.728    3.097
    247    H    13.277    -4.539    2.457
    248    O    12.125    -6.116    3.194
    249    H    11.483    -6.202    3.919
    250    C    12.582    -4.108    4.467
    251    H    13.645    -4.246    4.766
    252    O    11.644    -4.640    5.433
    253    P    12.056    -4.979    6.907
    254    O    13.521    -5.174    6.989
    255    O    11.224    -6.109    7.373
    256    O    11.673    -3.710    7.740
    257    C    10.330    -3.177    7.759
    258    H    9.733    -3.663    8.566
    259    H    9.799    -3.349    6.790
    260    C    10.340    -1.660    8.006
    261    H    10.649    -1.436    9.045
    262    O    11.313    -1.014    7.140
    263    C    10.884    0.295    6.854
    264    H    11.609    0.960    7.373
    265    N    10.933    0.569    5.418
    266    C    10.213    0.018    4.377
    267    N    7.835    -2.184    3.178
    268    H    7.493    -2.495    2.300
    269    H    7.553    -2.640    4.018
    270    N    9.245    -0.912    4.464
    271    C    8.770    -1.262    3.279
    272    N    9.182    -0.700    2.101
    273    H    8.788    -1.038    1.239
    274    C    10.187    0.247    1.982
    275    O    10.524    0.721    0.895
    276    C    10.705    0.625    3.242
    277    N    11.698    1.537    3.557
    278    C    11.796    1.475    4.858
    279    H    12.486    2.068    5.461
    280    C    9.502    0.502    7.451
    281    H    8.811    1.000    6.740
    282    O    9.600    1.263    8.641
    283    H    8.768    1.133    9.118
    284    C    9.019    -0.922    7.725
    285    H    8.628    -1.378    6.788
    286    O    8.084    -1.037    8.835
    287    P    6.530    -1.117    8.507
    288    O    5.767    -0.818    9.739
    289    O    6.250    -2.424    7.872
    290    O    6.259    0.011    7.451
    291    C    6.081    1.408    7.764
    292    H    6.845    1.743    8.501
    293    H    5.076    1.563    8.218
    294    C    6.176    2.356    6.537
    295    H    6.766    3.262    6.803
    296    O    6.868    1.709    5.422
    297    C    6.167    1.955    4.221
    298    H    6.919    2.247    3.452
    299    N    5.438    0.758    3.778
    300    C    5.069    0.457    2.496
    301    N    4.982    1.194    -0.894
    302    H    5.468    2.063    -0.966
    303    H    4.606    0.765    -1.719
    304    N    5.308    1.203    1.401
    305    C    4.842    0.627    0.291
    306    N    4.178    -0.571    0.293
    307    H    3.866    -0.952    -0.587
    308    C    3.906    -1.350    1.407
    309    O    3.301    -2.422    1.340
    310    C    4.403    -0.752    2.583
    311    N    4.344    -1.200    3.888
    312    C    4.979    -0.279    4.563
    313    H    5.115    -0.302    5.638
    314    C    5.238    3.108    4.500
    315    H    4.365    3.129    3.816
    316    O    5.955    4.324    4.409
    317    H    5.363    5.018    4.721
    318    C    4.826    2.823    5.943
    319    H    4.138    1.949    5.990
    320    O    4.320    3.968    6.675
    321    P    2.785    4.349    6.604
    322    O    2.525    5.489    7.506
    323    O    1.969    3.134    6.834
    324    O    2.569    4.830    5.129
    325    C    3.116    6.070    4.627
    326    H    4.214    6.123    4.794
    327    H    2.667    6.938    5.160
    328    C    2.851    6.245    3.117
    329    H    3.382    7.142    2.735
    330    O    3.361    5.102    2.372
    331    C    2.468    4.776    1.317
    332    H    3.072    4.843    0.383
    333    N    1.913    3.403    1.459
    334    C    1.847    2.804    2.693
    335    H    2.258    3.380    3.512
    336    C    1.456    2.751    0.336
    337    O    1.477    3.269    -0.778
    338    N    0.978    1.481    0.554
    339    H    0.653    0.993    -0.275
    340    C    0.916    0.820    1.772
    341    O    0.490    -0.322    1.853
    342    C    1.393    1.566    2.881
    343    H    1.387    1.090    3.860
    344    C    1.380    5.837    1.282
    345    H    0.388    5.404    1.029
    346    O    1.687    6.866    0.358
    347    H    0.895    7.427    0.341
    348    C    1.376    6.362    2.719
    349    H    0.815    5.669    3.386
    350    O    0.951    7.732    2.876
    351    P    -0.554    8.155    2.774
    352    O    -0.647    9.627    2.887
    353    O    -1.311    7.357    3.759
    354    O    -1.025    7.730    1.336
    355    C    -1.175    8.662    0.243
    356    H    -0.203    9.159    0.010
    357    H    -1.910    9.458    0.508
    358    C    -1.680    7.973    -1.044
    359    H    -1.393    8.566    -1.940
    360    O    -1.103    6.637    -1.175
    361    C    -2.098    5.736    -1.634
    362    H    -1.686    5.244    -2.543
    363    N    -2.414    4.711    -0.634
    364    C    -2.909    3.465    -0.899
    365    N    -3.965    1.062    -3.170
    366    H    -3.879    1.538    -4.044
    367    H    -4.388    0.153    -3.147
    368    N    -3.190    2.968    -2.117
    369    C    -3.651    1.718    -2.062
    370    N    -3.806    1.037    -0.886
    371    H    -4.194    0.106    -0.924
    372    C    -3.530    1.532    0.385
    373    O    -3.700    0.865    1.404
    374    C    -3.049    2.859    0.331
    375    N    -2.671    3.713    1.358
    376    C    -2.303    4.803    0.734
    377    H    -1.934    5.701    1.223
    378    C    -3.317    6.540    -2.012
    379    H    -4.263    5.991    -1.821
    380    O    -3.248    6.910    -3.375
    381    H    -4.030    7.450    -3.546
    382    C    -3.204    7.756    -1.099
    383    H    -3.522    7.506    -0.062
    384    O    -3.851    8.943    -1.606
    385    P    -5.364    9.254    -1.301
    386    O    -5.732    10.510    -1.993
    387    O    -5.550    9.203    0.164
    388    O    -6.169    8.066    -1.935
    389    C    -6.558    8.079    -3.327
    390    H    -5.696    8.357    -3.978
    391    H    -7.361    8.834    -3.495
    392    C    -7.101    6.710    -3.781
    393    H    -7.097    6.637    -4.889
    394    O    -6.278    5.629    -3.262
    395    C    -7.090    4.515    -2.938
    396    H    -6.738    3.707    -3.621
    397    N    -6.921    4.050    -1.526
    398    C    -6.448    4.905    -0.555
    399    H    -6.222    5.923    -0.884
    400    C    -6.277    4.498    0.712
    401    H    -5.891    5.155    1.490
    402    C    -7.254    2.741    -1.184
    403    O    -7.690    1.979    -2.060
    404    N    -7.094    2.314    0.091
    405    C    -6.611    3.148    1.028
    406    N    -6.443    2.690    2.269
    407    H    -6.673    1.742    2.490
    408    H    -6.093    3.270    3.007
    409    C    -8.536    4.861    -3.287
    410    H    -9.250    4.488    -2.524
    411    O    -8.890    4.332    -4.551
    412    H    -9.803    4.618    -4.723
    413    C    -8.519    6.396    -3.295
    414    H    -8.573    6.781    -2.251
    415    O    -9.480    7.043    -4.164
    416    P    -10.988    7.153    -3.725
    417    O    -11.669    8.184    -4.541
    418    O    -11.077    7.281    -2.255
    419    O    -11.548    5.755    -4.134
    420    C    -12.898    5.555    -4.622
    421    H    -12.897    5.632    -5.731
    422    H    -13.610    6.335    -4.248
    423    C    -13.477    4.169    -4.239
    424    H    -13.954    3.684    -5.114
    425    O    -12.430    3.273    -3.760
    426    C    -12.911    2.487    -2.692
    427    H    -12.851    1.446    -3.083
    428    N    -12.073    2.606    -1.470
    429    C    -11.558    3.828    -1.099
    430    H    -11.756    4.663    -1.779
    431    C    -10.820    3.956    0.015
    432    H    -10.404    4.911    0.328
    433    C    -11.861    1.488    -0.667
    434    O    -12.365    0.403    -0.995
    435    N    -11.127    1.602    0.464
    436    C    -10.617    2.794    0.820
    437    N    -9.932    2.881    1.962
    438    H    -9.933    2.101    2.589
    439    H    -9.574    3.751    2.303
    440    C    -14.375    2.828    -2.446
    441    H    -14.603    2.906    -1.360
    442    O    -15.206    1.844    -3.042
    443    H    -16.132    2.138    -3.014
    444    C    -14.507    4.204    -3.104
    445    H    -14.185    4.999    -2.397
    446    O    -15.821    4.490    -3.620
    447    H    -16.478    4.470    -2.901
 $END
