!*** FMO 5.3 (Gamess) INPUT generated by Facio 22.1.1.32 ***
 $CONTRL RUNTYP=ENERGY NPRINT=-5 ISPHER=1 MAXIT=200 $END
 $SYSTEM MWORDS=63 MEMDDI=63 $END
 $GDDI NGROUP=1 $END
 $SCF DIRSCF=.TRUE. NPUNCH=0 $END
!*** NumCPU : 2  MemPerNode : 512MB
 $PCM SOLVNT=WATER IEF=-10 ICOMP=2 ICAV=1 IDISP=1 IFMO=-1 $END
 $PCMCAV RADII=SUAHF $END
 $TESCAV NTSALL=60 $END
 $FMOPRP
    NAODIR=200
    NGRFMO(1)=1, 1, 0, 0, 0,   0, 0, 0, 0, 0
    IPIEDA=1
    NPRINT=9
 $END
 $FMO
      SCFTYP(1)=RHF
      MODGRD=10
      MODMUL=0
      MAXCAO=5
      MAXBND=16
      NLAYER=1
      MPLEVL(1)=2
      NFRAG=14
      ICHARG(1)=-1, -1, -1, -1, -1, -1, -1, -1, -1, -1, -1, -1, -1, 0
      FRGNAM(1)=F1, F2, F3, F4, F5, F6, F7, F8, F9, F10, F11, F12, F13, F14
      indat(1)=0
               1   -36   0
               37   -70   0
               71   -101   0
               102   -134   0
               135   -165   0
               166   -195   0
               196   -225   0
               226   -256   0
               257   -290   0
               291   -324   0
               325   -354   0
               355   -388   0
               389   -419   0
               420   -447   0
 $END

 $FMOBND
   -37   36       6-31G*    MINI
   -71   70       6-31G*    MINI
   -102   101       6-31G*    MINI
   -135   134       6-31G*    MINI
   -166   165       6-31G*    MINI
   -196   195       6-31G*    MINI
   -226   225       6-31G*    MINI
   -257   256       6-31G*    MINI
   -291   290       6-31G*    MINI
   -325   324       6-31G*    MINI
   -355   354       6-31G*    MINI
   -389   388       6-31G*    MINI
   -420   419       6-31G*    MINI
 $END
 $FMOHYB
 6-31G*      15   5
   1 0  -0.065034   0.288264   0.000000   0.000000   0.604412
         0.290129   0.000000   0.000000   0.319045  -0.017106
        -0.017106   0.057934   0.000000   0.000000   0.000000
   0 1  -0.065040   0.288293   0.569832   0.000000  -0.201456
         0.290147   0.300783   0.000000  -0.106342   0.049598
        -0.017106  -0.008771   0.000000  -0.027223   0.000000
   0 1  -0.065039   0.288293  -0.284916  -0.493490  -0.201455
         0.290145  -0.150392  -0.260486  -0.106340  -0.000427
         0.032923  -0.008771   0.033353   0.013612   0.023576
   0 1  -0.065039   0.288293  -0.284916   0.493490  -0.201455
         0.290145  -0.150392   0.260486  -0.106340  -0.000427
         0.032923  -0.008771  -0.033353   0.013612  -0.023576
   0 1   1.010938  -0.011975   0.000000   0.000000   0.000000
        -0.054085   0.000000   0.000000  -0.000000  -0.003174
        -0.003174  -0.003174   0.000000   0.000000   0.000000
 MINI         5   5
   1 0  -0.104883   0.308874   0.000000   0.000000   0.521806
   0 1  -0.104883   0.308874   0.491961   0.000000  -0.173934
   0 1  -0.104883   0.308876  -0.245980  -0.426050  -0.173933
   0 1  -0.104883   0.308876  -0.245980   0.426050  -0.173933
   0 1   0.988209   0.063992   0.000000   0.000000   0.000000
 $END
 
 $DATA
 FMO calculation
 C1 
 H.1-1    1
      N31 6
   
 O.1-1    8
      N31 6
      d 1
      1 0.800 1.0
   
 C.1-1    6
      N31 6
      d 1
      1 0.800 1.0
   
 N.1-1    7
      N31 6
      d 1
      1 0.800 1.0
   
 P.1-1   15
      N31 6
      d 1
      1 0.550 1.0
   
 $END
 $FMOXYZ
    1    H    -10.159    -5.030    10.160
    2    O    -10.411    -4.990    9.219
    3    C    -11.003    -6.258    8.891
    4    H    -11.793    -6.499    9.638
    5    H    -10.222    -7.048    8.950
    6    C    -11.629    -6.302    7.489
    7    H    -12.286    -7.193    7.381
    8    O    -12.443    -5.118    7.237
    9    C    -12.251    -4.700    5.894
    10    H    -13.262    -4.644    5.428
    11    N    -11.610    -3.378    5.817
    12    C    -11.575    -2.579    4.707
    13    N    -12.442    -2.017    1.412
    14    H    -12.923    -2.855    1.169
    15    H    -12.296    -1.320    0.703
    16    N    -12.115    -2.874    3.515
    17    C    -11.952    -1.899    2.629
    18    N    -11.299    -0.725    2.909
    19    H    -11.257    -0.027    2.184
    20    C    -10.737    -0.386    4.135
    21    O    -10.175    0.704    4.295
    22    C    -10.907    -1.431    5.090
    23    N    -10.521    -1.510    6.423
    24    C    -10.945    -2.694    6.812
    25    H    -10.830    -3.114    7.814
    26    C    -11.434    -5.762    5.197
    27    H    -10.782    -5.340    4.407
    28    O    -12.273    -6.756    4.639
    29    H    -11.684    -7.417    4.252
    30    C    -10.609    -6.320    6.345
    31    H    -9.801    -5.608    6.634
    32    O    -10.140    -7.664    6.135
    33    P    -8.706    -7.938    5.565
    34    O    -8.432    -9.385    5.691
    35    O    -7.760    -7.020    6.233
    36    O    -8.804    -7.536    4.046
    37    C    -9.532    -8.319    3.077
    38    H    -10.523    -8.646    3.472
    39    H    -8.958    -9.237    2.821
    40    C    -9.776    -7.524    1.779
    41    H    -10.483    -8.064    1.113
    42    O    -10.384    -6.236    2.090
    43    C    -9.826    -5.236    1.246
    44    H    -10.687    -4.723    0.758
    45    N    -9.055    -4.236    2.015
    46    C    -8.660    -3.001    1.572
    47    N    -8.531    -0.648    -0.951
    48    H    -8.984    -1.124    -1.701
    49    H    -8.184    0.282    -1.106
    50    N    -8.890    -2.499    0.352
    51    C    -8.421    -1.265    0.209
    52    N    -7.795    -0.576    1.216
    53    H    -7.481    0.360    1.017
    54    C    -7.552    -1.063    2.497
    55    O    -6.982    -0.368    3.345
    56    C    -8.018    -2.403    2.640
    57    N    -7.978    -3.262    3.732
    58    C    -8.609    -4.336    3.315
    59    H    -8.785    -5.235    3.905
    60    C    -8.995    -5.943    0.191
    61    H    -8.134    -5.335    -0.164
    62    O    -9.821    -6.291    -0.907
    63    H    -9.304    -6.870    -1.484
    64    C    -8.525    -7.180    0.950
    65    H    -7.735    -6.905    1.685
    66    O    -8.154    -8.297    0.111
    67    P    -6.644    -8.611    -0.213
    68    O    -6.580    -9.927    -0.894
    69    O    -5.825    -8.458    1.012
    70    O    -6.236    -7.479    -1.232
    71    C    -6.347    -7.688    -2.663
    72    H    -7.366    -8.059    -2.924
    73    H    -5.603    -8.442    -3.004
    74    C    -6.102    -6.412    -3.499
    75    H    -6.588    -6.505    -4.495
    76    O    -6.697    -5.263    -2.847
    77    C    -5.885    -4.125    -3.051
    78    H    -6.536    -3.422    -3.620
    79    N    -5.489    -3.461    -1.786
    80    C    -5.455    -4.174    -0.609
    81    H    -5.726    -5.230    -0.681
    82    C    -5.133    -3.586    0.552
    83    H    -5.116    -4.129    1.497
    84    C    -5.128    -2.115    -1.795
    85    O    -5.114    -1.492    -2.868
    86    N    -4.809    -1.507    -0.631
    87    C    -4.816    -2.199    0.520
    88    N    -4.539    -1.563    1.653
    89    H    -4.271    -0.594    1.625
    90    H    -4.534    -2.028    2.540
    91    C    -4.706    -4.511    -3.927
    92    H    -3.755    -4.040    -3.596
    93    O    -4.976    -4.147    -5.268
    94    H    -4.201    -4.434    -5.786
    95    C    -4.630    -6.034    -3.752
    96    H    -4.077    -6.294    -2.821
    97    O    -4.123    -6.781    -4.887
    98    P    -2.649    -6.614    -5.416
    99    O    -2.366    -7.694    -6.386
    100    O    -1.753    -6.517    -4.245
    101    O    -2.639    -5.234    -6.169
    102    C    -2.163    -5.057    -7.525
    103    H    -3.025    -5.161    -8.221
    104    H    -1.410    -5.831    -7.820
    105    C    -1.540    -3.663    -7.790
    106    H    -1.744    -3.332    -8.830
    107    O    -2.104    -2.657    -6.891
    108    C    -1.080    -1.810    -6.416
    109    H    -1.395    -0.765    -6.635
    110    N    -0.891    -1.969    -4.969
    111    C    -0.462    -1.610    -2.846
    112    N    -0.840    -2.939    -2.943
    113    C    -1.083    -3.104    -4.216
    114    H    -1.393    -4.044    -4.667
    115    N    0.218    0.481    -1.984
    116    C    0.171    0.926    -3.242
    117    H    0.445    1.973    -3.368
    118    N    -0.165    0.274    -4.361
    119    C    -0.485    -1.000    -4.086
    120    C    -0.082    -0.820    -1.746
    121    N    -0.008    -1.324    -0.503
    122    H    -0.203    -2.291    -0.312
    123    H    0.279    -0.750    0.271
    124    C    0.172    -2.124    -7.196
    125    H    1.077    -2.001    -6.573
    126    O    0.265    -1.300    -8.343
    127    H    1.113    -1.513    -8.752
    128    C    -0.015    -3.591    -7.572
    129    H    0.216    -4.257    -6.710
    130    O    0.675    -3.991    -8.777
    131    P    2.198    -4.383    -8.776
    132    O    2.676    -4.493    -10.172
    133    O    2.332    -5.586    -7.930
    134    O    2.951    -3.217    -8.052
    135    C    3.871    -2.321    -8.711
    136    H    3.465    -2.000    -9.699
    137    H    4.845    -2.835    -8.911
    138    C    4.143    -1.043    -7.879
    139    H    4.259    -0.171    -8.555
    140    O    3.025    -0.730    -6.985
    141    C    3.524    -0.298    -5.726
    142    H    2.987    0.658    -5.521
    143    N    3.262    -1.241    -4.598
    144    C    2.888    -2.552    -4.798
    145    H    2.793    -2.871    -5.834
    146    C    2.638    -3.370    -3.763
    147    H    2.313    -4.401    -3.896
    148    C    3.424    -0.764    -3.301
    149    O    3.760    0.416    -3.132
    150    N    3.216    -1.583    -2.251
    151    C    2.815    -2.845    -2.448
    152    N    2.588    -3.600    -1.381
    153    H    2.697    -3.184    -0.478
    154    H    2.285    -4.555    -1.452
    155    C    4.998    -0.018    -5.907
    156    H    5.588    -0.158    -4.976
    157    O    5.174    1.303    -6.391
    158    H    6.096    1.389    -6.677
    159    C    5.368    -1.064    -6.949
    160    H    5.382    -2.077    -6.478
    161    O    6.568    -0.740    -7.680
    162    P    7.793    -1.725    -7.676
    163    O    8.735    -1.309    -8.734
    164    O    7.312    -3.124    -7.730
    165    O    8.482    -1.476    -6.285
    166    C    9.195    -0.237    -6.038
    167    H    8.637    0.645    -6.432
    168    H    10.190    -0.251    -6.542
    169    C    9.412    -0.005    -4.534
    170    H    9.862    0.996    -4.355
    171    O    8.130    -0.037    -3.838
    172    C    8.306    -0.621    -2.557
    173    H    7.968    0.155    -1.832
    174    N    7.494    -1.865    -2.382
    175    C    7.038    -2.578    -3.468
    176    H    7.274    -2.149    -4.441
    177    C    7.220    -2.291    -1.101
    178    O    7.619    -1.694    -0.105
    179    N    6.459    -3.427    -1.010
    180    H    6.295    -3.786    -0.079
    181    C    5.999    -4.206    -2.050
    182    O    5.360    -5.232    -1.827
    183    C    6.315    -3.701    -3.351
    184    H    5.959    -4.249    -4.221
    185    C    9.798    -0.862    -2.373
    186    H    10.011    -1.756    -1.752
    187    O    10.413    0.276    -1.805
    188    H    11.315    0.011    -1.586
    189    C    10.273    -1.052    -3.804
    190    H    9.957    -2.043    -4.197
    191    O    11.682    -0.787    -4.011
    192    P    12.749    -1.908    -3.722
    193    O    13.880    -1.683    -4.649
    194    O    12.099    -3.239    -3.770
    195    O    13.231    -1.625    -2.244
    196    C    14.440    -2.310    -1.801
    197    H    15.167    -2.501    -2.642
    198    H    14.174    -3.303    -1.372
    199    C    15.184    -1.516    -0.708
    200    H    16.114    -2.063    -0.441
    201    O    15.575    -0.210    -1.218
    202    C    15.096    0.804    -0.364
    203    H    15.945    1.037    0.322
    204    N    14.655    1.985    -1.144
    205    C    13.784    1.820    -2.196
    206    H    13.520    0.784    -2.418
    207    C    15.107    3.234    -0.787
    208    O    15.874    3.419    0.153
    209    N    14.639    4.264    -1.566
    210    H    14.963    5.188    -1.317
    211    C    13.787    4.177    -2.647
    212    O    13.475    5.192    -3.269
    213    C    13.348    2.845    -2.945
    214    H    12.692    2.696    -3.802
    215    C    13.965    0.217    0.453
    216    H    13.003    0.266    -0.100
    217    O    13.873    0.897    1.691
    218    H    13.112    0.578    2.211
    219    C    14.387    -1.250    0.594
    220    H    13.464    -1.874    0.557
    221    O    15.183    -1.507    1.774
    222    P    15.028    -2.861    2.560
    223    O    15.830    -2.817    3.805
    224    O    15.345    -3.975    1.636
    225    O    13.510    -2.967    2.936
    226    C    13.023    -2.657    4.263
    227    H    13.001    -1.550    4.393
    228    H    13.674    -3.079    5.067
    229    C    11.587    -3.170    4.502
    230    H    11.115    -2.578    5.315
    231    O    10.771    -3.030    3.308
    232    C    10.286    -4.293    2.917
    233    H    9.284    -4.365    3.389
    234    N    10.195    -4.423    1.449
    235    C    11.237    -3.958    0.690
    236    H    12.040    -3.464    1.240
    237    C    11.219    -4.058    -0.644
    238    H    12.022    -3.675    -1.267
    239    C    9.117    -5.066    0.845
    240    O    8.208    -5.525    1.554
    241    N    9.085    -5.175    -0.506
    242    C    10.096    -4.691    -1.248
    243    N    10.048    -4.794    -2.576
    244    H    10.779    -4.388    -3.141
    245    H    9.318    -5.319    -3.010
    246    C    11.205    -5.316    3.537
    247    H    12.151    -5.401    2.958
    248    O    10.583    -6.576    3.684
    249    H    9.905    -6.464    4.370
    250    C    11.485    -4.660    4.883
    251    H    12.488    -5.007    5.230
    252    O    10.430    -4.896    5.850
    253    P    10.775    -5.157    7.361
    254    O    12.169    -5.638    7.500
    255    O    9.728    -6.052    7.912
    256    O    10.674    -3.754    8.077
    257    C    9.457    -2.971    8.004
    258    H    8.747    -3.279    8.804
    259    H    8.939    -3.103    7.023
    260    C    9.721    -1.466    8.166
    261    H    10.005    -1.215    9.209
    262    O    10.819    -1.057    7.312
    263    C    10.628    0.277    6.904
    264    H    11.429    0.852    7.423
    265    N    10.795    0.423    5.464
    266    C    10.038    -0.071    4.419
    267    N    7.354    -1.900    3.205
    268    H    7.025    -2.236    2.330
    269    H    6.949    -2.244    4.050
    270    N    8.912    -0.809    4.504
    271    C    8.443    -1.158    3.312
    272    N    9.025    -0.779    2.131
    273    H    8.626    -1.113    1.271
    274    C    10.187    -0.031    2.021
    275    O    10.684    0.274    0.936
    276    C    10.693    0.353    3.282
    277    N    11.812    1.111    3.599
    278    C    11.834    1.126    4.905
    279    H    12.584    1.635    5.514
    280    C    9.277    0.752    7.397
    281    H    8.706    1.298    6.616
    282    O    9.444    1.571    8.537
    283    H    8.581    1.623    8.973
    284    C    8.566    -0.557    7.738
    285    H    8.161    -1.013    6.811
    286    O    7.571    -0.454    8.781
    287    P    6.057    -0.258    8.382
    288    O    5.351    0.328    9.544
    289    O    5.542    -1.547    7.867
    290    O    6.071    0.794    7.223
    291    C    6.048    2.222    7.449
    292    H    6.832    2.513    8.185
    293    H    5.069    2.521    7.878
    294    C    6.277    3.073    6.169
    295    H    6.931    3.942    6.405
    296    O    6.951    2.300    5.126
    297    C    6.298    2.516    3.887
    298    H    7.093    2.686    3.124
    299    N    5.468    1.361    3.497
    300    C    5.122    1.010    2.223
    301    N    5.281    1.559    -1.180
    302    H    5.842    2.381    -1.253
    303    H    4.850    1.174    -2.001
    304    N    5.483    1.658    1.106
    305    C    5.005    1.075    0.012
    306    N    4.217    -0.050    0.036
    307    H    3.888    -0.431    -0.838
    308    C    3.834    -0.744    1.176
    309    O    3.140    -1.764    1.124
    310    C    4.339    -0.122    2.346
    311    N    4.172    -0.462    3.674
    312    C    4.860    0.443    4.322
    313    H    4.947    0.489    5.401
    314    C    5.466    3.762    4.048
    315    H    4.612    3.803    3.339
    316    O    6.277    4.910    3.883
    317    H    5.775    5.661    4.226
    318    C    5.000    3.616    5.489
    319    H    4.230    2.815    5.579
    320    O    4.593    4.857    6.103
    321    P    3.076    5.279    6.146
    322    O    2.966    6.469    7.023
    323    O    2.264    4.099    6.508
    324    O    2.712    5.667    4.663
    325    C    3.295    6.805    3.996
    326    H    4.407    6.781    4.053
    327    H    2.956    7.749    4.481
    328    C    2.897    6.880    2.514
    329    H    3.353    7.767    2.027
    330    O    3.394    5.712    1.800
    331    C    2.426    5.322    0.837
    332    H    2.966    5.334    -0.137
    333    N    1.897    3.959    1.096
    334    C    1.924    3.411    2.357
    335    H    2.382    4.029    3.127
    336    C    1.412    3.247    0.024
    337    O    1.413    3.695    -1.119
    338    N    0.949    1.993    0.330
    339    H    0.624    1.452    -0.465
    340    C    0.956    1.375    1.564
    341    O    0.532    0.229    1.689
    342    C    1.494    2.171    2.619
    343    H    1.555    1.738    3.615
    344    C    1.331    6.374    0.815
    345    H    0.332    5.937    0.602
    346    O    1.618    7.385    -0.136
    347    H    0.840    7.959    -0.143
    348    C    1.388    6.919    2.239
    349    H    0.914    6.206    2.951
    350    O    0.900    8.267    2.421
    351    P    -0.640    8.576    2.496
    352    O    -0.825    10.039    2.596
    353    O    -1.251    7.752    3.559
    354    O    -1.206    8.094    1.120
    355    C    -1.580    9.000    0.063
    356    H    -0.696    9.583    -0.274
    357    H    -2.348    9.728    0.415
    358    C    -2.154    8.251    -1.159
    359    H    -1.989    8.839    -2.088
    360    O    -1.494    6.954    -1.330
    361    C    -2.460    5.979    -1.681
    362    H    -2.089    5.494    -2.615
    363    N    -2.633    4.954    -0.636
    364    C    -3.057    3.670    -0.849
    365    N    -4.137    1.177    -3.006
    366    H    -4.123    1.636    -3.894
    367    H    -4.499    0.243    -2.942
    368    N    -3.382    3.134    -2.039
    369    C    -3.782    1.869    -1.937
    370    N    -3.842    1.202    -0.744
    371    H    -4.181    0.252    -0.750
    372    C    -3.511    1.725    0.498
    373    O    -3.605    1.036    1.517
    374    C    -3.088    3.077    0.399
    375    N    -2.691    3.975    1.386
    376    C    -2.433    5.077    0.722
    377    H    -2.086    6.008    1.170
    378    C    -3.752    6.706    -1.977
    379    H    -4.641    6.095    -1.719
    380    O    -3.799    7.078    -3.342
    381    H    -4.643    7.528    -3.465
    382    C    -3.658    7.933    -1.074
    383    H    -3.866    7.663    -0.014
    384    O    -4.430    9.077    -1.515
    385    P    -5.948    9.244    -1.120
    386    O    -6.491    10.464    -1.762
    387    O    -6.058    9.172    0.352
    388    O    -6.681    7.992    -1.720
    389    C    -7.150    7.975    -3.089
    390    H    -6.368    8.367    -3.784
    391    H    -8.040    8.634    -3.189
    392    C    -7.540    6.555    -3.568
    393    H    -7.449    6.491    -4.672
    394    O    -6.633    5.572    -3.013
    395    C    -7.323    4.388    -2.680
    396    H    -6.865    3.620    -3.347
    397    N    -7.113    3.960    -1.268
    398    C    -6.710    4.855    -0.304
    399    H    -6.574    5.888    -0.635
    400    C    -6.485    4.461    0.959
    401    H    -6.137    5.146    1.730
    402    C    -7.326    2.627    -0.928
    403    O    -7.697    1.836    -1.804
    404    N    -7.117    2.212    0.344
    405    C    -6.695    3.084    1.275
    406    N    -6.465    2.637    2.509
    407    H    -6.586    1.668    2.721
    408    H    -6.147    3.240    3.242
    409    C    -8.787    4.548    -3.055
    410    H    -9.462    4.173    -2.259
    411    O    -9.058    3.858    -4.261
    412    H    -10.000    4.015    -4.462
    413    C    -8.950    6.068    -3.205
    414    H    -9.187    6.526    -2.216
    415    O    -9.873    6.507    -4.226
    416    P    -11.415    6.258    -4.182
    417    O    -12.035    7.064    -5.256
    418    O    -11.863    6.496    -2.797
    419    O    -11.641    4.736    -4.525
    420    C    -12.925    4.281    -5.045
    421    H    -12.817    4.132    -6.142
    422    H    -13.743    5.036    -4.906
    423    C    -13.433    2.936    -4.467
    424    H    -13.812    2.282    -5.288
    425    O    -12.355    2.210    -3.815
    426    C    -12.853    1.531    -2.682
    427    H    -12.698    0.455    -2.927
    428    N    -12.111    1.879    -1.444
    429    C    -11.713    3.174    -1.217
    430    H    -11.924    3.891    -2.018
    431    C    -11.053    3.508    -0.096
    432    H    -10.710    4.522    0.096
    433    C    -11.892    0.902    -0.477
    434    O    -12.323    -0.243    -0.674
    435    N    -11.224    1.215    0.660
    436    C    -10.809    2.478    0.866
    437    N    -10.182    2.766    2.007
    438    H    -10.091    2.063    2.713
    439    H    -9.937    3.707    2.248
    440    C    -14.351    1.789    -2.565
    441    H    -14.644    1.992    -1.511
    442    O    -15.080    0.672    -3.049
    443    H    -16.027    0.891    -3.069
    444    C    -14.542    3.048    -3.413
    445    H    -14.323    3.955    -2.808
    446    O    -15.840    3.153    -4.037
    447    H    -16.543    3.203    -3.361
 $END
