!*** FMO 5.3 (Gamess) INPUT generated by Facio 22.1.1.32 ***
 $CONTRL RUNTYP=ENERGY NPRINT=-5 ISPHER=1 MAXIT=200 $END
 $SYSTEM MWORDS=63 MEMDDI=63 $END
 $GDDI NGROUP=1 $END
 $SCF DIRSCF=.TRUE. NPUNCH=0 $END
!*** NumCPU : 2  MemPerNode : 512MB
 $PCM SOLVNT=WATER IEF=-10 ICOMP=2 ICAV=1 IDISP=1 IFMO=-1 $END
 $PCMCAV RADII=SUAHF $END
 $TESCAV NTSALL=60 $END
 $FMOPRP
    NAODIR=200
    NGRFMO(1)=1, 1, 0, 0, 0,   0, 0, 0, 0, 0
    IPIEDA=1
    NPRINT=9
 $END
 $FMO
      SCFTYP(1)=RHF
      MODGRD=10
      MODMUL=0
      MAXCAO=5
      MAXBND=16
      NLAYER=1
      MPLEVL(1)=2
      NFRAG=14
      ICHARG(1)=-1, -1, -1, -1, -1, -1, -1, -1, -1, -1, -1, -1, -1, 0
      FRGNAM(1)=F1, F2, F3, F4, F5, F6, F7, F8, F9, F10, F11, F12, F13, F14
      indat(1)=0
               1   -36   0
               37   -70   0
               71   -101   0
               102   -134   0
               135   -165   0
               166   -195   0
               196   -225   0
               226   -256   0
               257   -290   0
               291   -324   0
               325   -354   0
               355   -388   0
               389   -419   0
               420   -447   0
 $END

 $FMOBND
   -37   36       6-31G*    MINI
   -71   70       6-31G*    MINI
   -102   101       6-31G*    MINI
   -135   134       6-31G*    MINI
   -166   165       6-31G*    MINI
   -196   195       6-31G*    MINI
   -226   225       6-31G*    MINI
   -257   256       6-31G*    MINI
   -291   290       6-31G*    MINI
   -325   324       6-31G*    MINI
   -355   354       6-31G*    MINI
   -389   388       6-31G*    MINI
   -420   419       6-31G*    MINI
 $END
 $FMOHYB
 6-31G*      15   5
   1 0  -0.065034   0.288264   0.000000   0.000000   0.604412
         0.290129   0.000000   0.000000   0.319045  -0.017106
        -0.017106   0.057934   0.000000   0.000000   0.000000
   0 1  -0.065040   0.288293   0.569832   0.000000  -0.201456
         0.290147   0.300783   0.000000  -0.106342   0.049598
        -0.017106  -0.008771   0.000000  -0.027223   0.000000
   0 1  -0.065039   0.288293  -0.284916  -0.493490  -0.201455
         0.290145  -0.150392  -0.260486  -0.106340  -0.000427
         0.032923  -0.008771   0.033353   0.013612   0.023576
   0 1  -0.065039   0.288293  -0.284916   0.493490  -0.201455
         0.290145  -0.150392   0.260486  -0.106340  -0.000427
         0.032923  -0.008771  -0.033353   0.013612  -0.023576
   0 1   1.010938  -0.011975   0.000000   0.000000   0.000000
        -0.054085   0.000000   0.000000  -0.000000  -0.003174
        -0.003174  -0.003174   0.000000   0.000000   0.000000
 MINI         5   5
   1 0  -0.104883   0.308874   0.000000   0.000000   0.521806
   0 1  -0.104883   0.308874   0.491961   0.000000  -0.173934
   0 1  -0.104883   0.308876  -0.245980  -0.426050  -0.173933
   0 1  -0.104883   0.308876  -0.245980   0.426050  -0.173933
   0 1   0.988209   0.063992   0.000000   0.000000   0.000000
 $END
 
 $DATA
 FMO calculation
 C1 
 H.1-1    1
      N31 6
   
 O.1-1    8
      N31 6
      d 1
      1 0.800 1.0
   
 C.1-1    6
      N31 6
      d 1
      1 0.800 1.0
   
 N.1-1    7
      N31 6
      d 1
      1 0.800 1.0
   
 P.1-1   15
      N31 6
      d 1
      1 0.550 1.0
   
 $END
 $FMOXYZ
    1    H    -10.670    -5.130    10.138
    2    O    -10.875    -5.081    9.185
    3    C    -11.371    -6.371    8.797
    4    H    -12.220    -6.636    9.465
    5    H    -10.566    -7.125    8.941
    6    C    -11.865    -6.429    7.344
    7    H    -12.474    -7.343    7.171
    8    O    -12.703    -5.272    7.038
    9    C    -12.426    -4.834    5.718
    10    H    -13.400    -4.808    5.176
    11    N    -11.829    -3.488    5.697
    12    C    -11.732    -2.678    4.598
    13    N    -12.291    -2.130    1.230
    14    H    -12.765    -2.958    0.943
    15    H    -12.214    -1.370    0.579
    16    N    -12.163    -2.981    3.362
    17    C    -11.940    -2.000    2.494
    18    N    -11.347    -0.811    2.837
    19    H    -11.257    -0.104    2.126
    20    C    -10.907    -0.463    4.110
    21    O    -10.392    0.640    4.330
    22    C    -11.134    -1.514    5.040
    23    N    -10.846    -1.593    6.398
    24    C    -11.270    -2.788    6.746
    25    H    -11.220    -3.212    7.752
    26    C    -11.520    -5.863    5.083
    27    H    -10.837    -5.413    4.336
    28    O    -12.289    -6.885    4.477
    29    H    -11.656    -7.504    4.092
    30    C    -10.750    -6.392    6.286
    31    H    -9.998    -5.648    6.638
    32    O    -10.194    -7.711    6.111
    33    P    -8.741    -7.933    5.551
    34    O    -8.424    -9.372    5.654
    35    O    -7.810    -7.007    6.232
    36    O    -8.807    -7.532    4.034
    37    C    -9.486    -8.338    3.043
    38    H    -10.452    -8.738    3.434
    39    H    -8.850    -9.211    2.766
    40    C    -9.803    -7.543    1.754
    41    H    -10.558    -8.081    1.139
    42    O    -10.381    -6.253    2.092
    43    C    -9.847    -5.247    1.245
    44    H    -10.724    -4.730    0.793
    45    N    -9.063    -4.250    2.004
    46    C    -8.676    -3.016    1.556
    47    N    -8.602    -0.663    -0.965
    48    H    -9.077    -1.137    -1.703
    49    H    -8.272    0.273    -1.125
    50    N    -8.920    -2.516    0.337
    51    C    -8.467    -1.279    0.191
    52    N    -7.837    -0.582    1.190
    53    H    -7.536    0.358    0.989
    54    C    -7.574    -1.068    2.469
    55    O    -7.002    -0.367    3.310
    56    C    -8.029    -2.411    2.617
    57    N    -7.981    -3.267    3.713
    58    C    -8.610    -4.344    3.303
    59    H    -8.782    -5.240    3.900
    60    C    -9.055    -5.937    0.152
    61    H    -8.180    -5.343    -0.189
    62    O    -9.898    -6.223    -0.948
    63    H    -9.408    -6.826    -1.525
    64    C    -8.609    -7.219    0.845
    65    H    -7.755    -7.004    1.522
    66    O    -8.364    -8.325    -0.051
    67    P    -6.916    -8.628    -0.577
    68    O    -6.935    -9.898    -1.338
    69    O    -5.994    -8.572    0.577
    70    O    -6.570    -7.434    -1.554
    71    C    -6.666    -7.606    -2.993
    72    H    -7.699    -7.916    -3.278
    73    H    -5.964    -8.395    -3.346
    74    C    -6.340    -6.315    -3.782
    75    H    -6.812    -6.350    -4.787
    76    O    -6.891    -5.161    -3.101
    77    C    -6.018    -4.062    -3.243
    78    H    -6.627    -3.309    -3.793
    79    N    -5.612    -3.474    -1.945
    80    C    -5.613    -4.227    -0.794
    81    H    -5.923    -5.268    -0.904
    82    C    -5.274    -3.686    0.387
    83    H    -5.282    -4.255    1.314
    84    C    -5.207    -2.148    -1.908
    85    O    -5.177    -1.497    -2.962
    86    N    -4.864    -1.587    -0.729
    87    C    -4.896    -2.312    0.402
    88    N    -4.587    -1.716    1.554
    89    H    -4.295    -0.757    1.556
    90    H    -4.582    -2.213    2.424
    91    C    -4.842    -4.467    -4.118
    92    H    -3.878    -4.056    -3.749
    93    O    -5.061    -4.034    -5.449
    94    H    -4.288    -4.328    -5.966
    95    C    -4.845    -5.998    -3.999
    96    H    -4.327    -6.307    -3.064
    97    O    -4.343    -6.729    -5.146
    98    P    -2.850    -6.614    -5.640
    99    O    -2.593    -7.695    -6.617
    100    O    -1.977    -6.552    -4.450
    101    O    -2.768    -5.225    -6.372
    102    C    -2.224    -5.015    -7.698
    103    H    -3.064    -5.048    -8.428
    104    H    -1.498    -5.811    -7.995
    105    C    -1.526    -3.644    -7.882
    106    H    -1.680    -3.257    -8.909
    107    O    -2.077    -2.653    -6.958
    108    C    -1.034    -1.864    -6.432
    109    H    -1.304    -0.800    -6.625
    110    N    -0.884    -2.078    -4.987
    111    C    -0.482    -1.798    -2.846
    112    N    -0.896    -3.115    -2.990
    113    C    -1.123    -3.231    -4.274
    114    H    -1.460    -4.144    -4.764
    115    N    0.253    0.244    -1.917
    116    C    0.251    0.727    -3.161
    117    H    0.568    1.770    -3.255
    118    N    -0.099    0.122    -4.302
    119    C    -0.465    -1.149    -4.069
    120    C    -0.097    -1.050    -1.717
    121    N    -0.062    -1.572    -0.475
    122    H    -0.288    -2.535    -0.296
    123    H    0.237    -1.012    0.303
    124    C    0.226    -2.202    -7.189
    125    H    1.115    -2.139    -6.537
    126    O    0.380    -1.346    -8.305
    127    H    1.232    -1.572    -8.700
    128    C    -0.007    -3.646    -7.615
    129    H    0.165    -4.340    -6.763
    130    O    0.716    -4.047    -8.803
    131    P    2.213    -4.545    -8.740
    132    O    2.741    -4.649    -10.118
    133    O    2.246    -5.785    -7.937
    134    O    3.014    -3.443    -7.970
    135    C    3.918    -2.535    -8.638
    136    H    3.502    -2.207    -9.625
    137    H    4.891    -3.055    -8.838
    138    C    4.191    -1.259    -7.805
    139    H    4.303    -0.384    -8.477
    140    O    3.076    -0.950    -6.912
    141    C    3.568    -0.530    -5.649
    142    H    3.029    0.423    -5.441
    143    N    3.295    -1.482    -4.529
    144    C    2.901    -2.783    -4.738
    145    H    2.804    -3.095    -5.775
    146    C    2.642    -3.607    -3.711
    147    H    2.308    -4.633    -3.854
    148    C    3.444    -1.012    -3.229
    149    O    3.774    0.169    -3.056
    150    N    3.233    -1.836    -2.182
    151    C    2.823    -3.095    -2.391
    152    N    2.587    -3.862    -1.335
    153    H    2.704    -3.462    -0.426
    154    H    2.283    -4.814    -1.423
    155    C    5.043    -0.250    -5.823
    156    H    5.629    -0.401    -4.890
    157    O    5.220    1.075    -6.292
    158    H    6.146    1.167    -6.563
    159    C    5.415    -1.283    -6.878
    160    H    5.440    -2.301    -6.420
    161    O    6.604    -0.945    -7.620
    162    P    7.853    -1.897    -7.608
    163    O    8.776    -1.478    -8.681
    164    O    7.434    -3.318    -7.619
    165    O    8.538    -1.600    -6.225
    166    C    9.168    -0.318    -5.979
    167    H    8.553    0.528    -6.372
    168    H    10.164    -0.274    -6.475
    169    C    9.374    -0.076    -4.477
    170    H    9.774    0.945    -4.298
    171    O    8.100    -0.176    -3.781
    172    C    8.309    -0.734    -2.498
    173    H    7.942    0.034    -1.779
    174    N    7.551    -2.005    -2.305
    175    C    7.097    -2.732    -3.384
    176    H    7.319    -2.305    -4.362
    177    C    7.296    -2.424    -1.017
    178    O    7.678    -1.807    -0.028
    179    N    6.567    -3.582    -0.914
    180    H    6.415    -3.935    0.021
    181    C    6.107    -4.371    -1.946
    182    O    5.492    -5.408    -1.709
    183    C    6.396    -3.867    -3.254
    184    H    6.040    -4.425    -4.119
    185    C    9.813    -0.898    -2.317
    186    H    10.070    -1.779    -1.692
    187    O    10.380    0.273    -1.759
    188    H    11.286    0.022    -1.536
    189    C    10.289    -1.075    -3.750
    190    H    10.026    -2.086    -4.130
    191    O    11.674    -0.735    -3.978
    192    P    12.827    -1.762    -3.686
    193    O    13.944    -1.437    -4.600
    194    O    12.310    -3.154    -3.751
    195    O    13.277    -1.427    -2.203
    196    C    14.531    -2.014    -1.744
    197    H    15.278    -2.138    -2.570
    198    H    14.342    -3.023    -1.314
    199    C    15.241    -1.166    -0.677
    200    H    16.211    -1.651    -0.425
    201    O    15.543    0.153    -1.213
    202    C    15.021    1.144    -0.361
    203    H    15.870    1.432    0.302
    204    N    14.498    2.294    -1.143
    205    C    13.628    2.074    -2.184
    206    H    13.420    1.023    -2.399
    207    C    14.888    3.568    -0.801
    208    O    15.663    3.798    0.121
    209    N    14.354    4.567    -1.575
    210    H    14.648    5.505    -1.345
    211    C    13.490    4.426    -2.642
    212    O    13.110    5.420    -3.260
    213    C    13.121    3.071    -2.927
    214    H    12.454    2.880    -3.764
    215    C    13.947    0.496    0.490
    216    H    12.972    0.485    -0.044
    217    O    13.841    1.174    1.728
    218    H    13.091    0.835    2.255
    219    C    14.461    -0.940    0.635
    220    H    13.572    -1.616    0.611
    221    O    15.299    -1.151    1.803
    222    P    15.199    -2.517    2.578
    223    O    16.029    -2.459    3.805
    224    O    15.529    -3.620    1.645
    225    O    13.690    -2.677    2.980
    226    C    13.196    -2.387    4.310
    227    H    13.110    -1.283    4.433
    228    H    13.882    -2.766    5.111
    229    C    11.794    -2.989    4.572
    230    H    11.296    -2.419    5.386
    231    O    10.951    -2.909    3.391
    232    C    10.521    -4.201    3.023
    233    H    9.531    -4.328    3.515
    234    N    10.417    -4.352    1.554
    235    C    11.420    -3.831    0.774
    236    H    12.203    -3.289    1.309
    237    C    11.393    -3.948    -0.558
    238    H    12.166    -3.529    -1.197
    239    C    9.371    -5.063    0.967
    240    O    8.493    -5.559    1.690
    241    N    9.328    -5.186    -0.382
    242    C    10.301    -4.652    -1.143
    243    N    10.237    -4.766    -2.469
    244    H    10.957    -4.365    -3.048
    245    H    9.539    -5.353    -2.881
    246    C    11.506    -5.164    3.636
    247    H    12.440    -5.199    3.035
    248    O    10.972    -6.460    3.815
    249    H    10.300    -6.381    4.511
    250    C    11.786    -4.481    4.970
    251    H    12.815    -4.770    5.291
    252    O    10.776    -4.770    5.967
    253    P    11.165    -4.956    7.482
    254    O    12.601    -5.307    7.600
    255    O    10.209    -5.900    8.120
    256    O    10.973    -3.534    8.118
    257    C    9.714    -2.826    8.089
    258    H    9.064    -3.155    8.930
    259    H    9.166    -3.012    7.135
    260    C    9.891    -1.308    8.219
    261    H    10.169    -1.026    9.257
    262    O    10.961    -0.850    7.355
    263    C    10.690    0.461    6.931
    264    H    11.463    1.091    7.424
    265    N    10.826    0.585    5.482
    266    C    10.078    0.033    4.458
    267    N    7.501    -1.996    3.324
    268    H    7.182    -2.371    2.461
    269    H    7.132    -2.347    4.181
    270    N    8.992    -0.758    4.576
    271    C    8.535    -1.174    3.399
    272    N    9.080    -0.791    2.201
    273    H    8.706    -1.189    1.356
    274    C    10.198    0.016    2.060
    275    O    10.670    0.318    0.964
    276    C    10.695    0.462    3.303
    277    N    11.779    1.282    3.584
    278    C    11.826    1.318    4.888
    279    H    12.559    1.875    5.478
    280    C    9.318    0.864    7.440
    281    H    8.714    1.379    6.664
    282    O    9.451    1.689    8.580
    283    H    8.585    1.713    9.012
    284    C    8.676    -0.479    7.794
    285    H    8.288    -0.969    6.877
    286    O    7.685    -0.431    8.848
    287    P    6.154    -0.279    8.480
    288    O    5.455    0.304    9.650
    289    O    5.648    -1.579    7.984
    290    O    6.119    0.750    7.304
    291    C    6.047    2.178    7.488
    292    H    6.822    2.515    8.214
    293    H    5.059    2.454    7.919
    294    C    6.260    3.000    6.190
    295    H    6.913    3.876    6.403
    296    O    6.924    2.207    5.157
    297    C    6.261    2.389    3.923
    298    H    7.050    2.551    3.154
    299    N    5.450    1.215    3.558
    300    C    5.099    0.837    2.293
    301    N    5.235    1.329    -1.117
    302    H    5.766    2.168    -1.207
    303    H    4.803    0.924    -1.927
    304    N    5.436    1.475    1.163
    305    C    4.975    0.856    0.082
    306    N    4.212    -0.285    0.127
    307    H    3.894    -0.692    -0.738
    308    C    3.839    -0.960    1.282
    309    O    3.166    -1.995    1.248
    310    C    4.344    -0.314    2.439
    311    N    4.201    -0.638    3.776
    312    C    4.877    0.292    4.402
    313    H    4.992    0.355    5.478
    314    C    5.417    3.628    4.067
    315    H    4.552    3.639    3.369
    316    O    6.209    4.780    3.854
    317    H    5.670    5.531    4.130
    318    C    4.975    3.524    5.519
    319    H    4.204    2.730    5.642
    320    O    4.584    4.780    6.117
    321    P    3.090    5.263    6.027
    322    O    2.967    6.525    6.785
    323    O    2.224    4.135    6.429
    324    O    2.854    5.549    4.501
    325    C    3.400    6.701    3.823
    326    H    4.510    6.719    3.896
    327    H    3.024    7.644    4.284
    328    C    3.017    6.731    2.330
    329    H    3.497    7.591    1.818
    330    O    3.476    5.523    1.657
    331    C    2.500    5.113    0.710
    332    H    3.035    5.087    -0.271
    333    N    1.941    3.769    1.032
    334    C    1.936    3.271    2.317
    335    H    2.402    3.907    3.063
    336    C    1.422    3.036    -0.007
    337    O    1.405    3.446    -1.161
    338    N    0.941    1.803    0.341
    339    H    0.617    1.241    -0.440
    340    C    0.953    1.214    1.587
    341    O    0.539    0.066    1.737
    342    C    1.486    2.044    2.621
    343    H    1.549    1.640    3.629
    344    C    1.420    6.178    0.660
    345    H    0.410    5.745    0.489
    346    O    1.692    7.134    -0.348
    347    H    0.916    7.711    -0.371
    348    C    1.507    6.796    2.052
    349    H    1.012    6.139    2.801
    350    O    1.056    8.162    2.160
    351    P    -0.469    8.533    2.158
    352    O    -0.603    10.008    2.203
    353    O    -1.136    7.764    3.228
    354    O    -1.002    8.007    0.783
    355    C    -1.375    8.858    -0.319
    356    H    -0.492    9.420    -0.695
    357    H    -2.134    9.610    -0.001
    358    C    -1.965    8.059    -1.501
    359    H    -1.783    8.587    -2.465
    360    O    -1.357    6.735    -1.588
    361    C    -2.355    5.783    -1.901
    362    H    -1.998    5.252    -2.813
    363    N    -2.552    4.811    -0.817
    364    C    -3.012    3.537    -0.978
    365    N    -4.179    1.031    -3.044
    366    H    -4.156    1.471    -3.942
    367    H    -4.551    0.103    -2.961
    368    N    -3.361    2.973    -2.145
    369    C    -3.792    1.731    -1.997
    370    N    -3.852    1.094    -0.784
    371    H    -4.207    0.153    -0.761
    372    C    -3.493    1.647    0.441
    373    O    -3.587    0.994    1.484
    374    C    -3.044    2.986    0.288
    375    N    -2.613    3.908    1.236
    376    C    -2.336    4.980    0.531
    377    H    -1.963    5.922    0.938
    378    C    -3.624    6.532    -2.230
    379    H    -4.536    5.966    -1.947
    380    O    -3.656    6.837    -3.611
    381    H    -4.472    7.333    -3.757
    382    C    -3.478    7.793    -1.386
    383    H    -3.677    7.576    -0.311
    384    O    -4.221    8.936    -1.868
    385    P    -5.711    9.179    -1.413
    386    O    -6.219    10.394    -2.092
    387    O    -5.756    9.175    0.065
    388    O    -6.507    7.922    -1.929
    389    C    -7.033    7.875    -3.276
    390    H    -6.256    8.171    -4.019
    391    H    -7.875    8.594    -3.377
    392    C    -7.550    6.478    -3.674
    393    H    -7.591    6.375    -4.782
    394    O    -6.658    5.452    -3.164
    395    C    -7.399    4.330    -2.740
    396    H    -7.051    3.510    -3.409
    397    N    -7.114    3.930    -1.331
    398    C    -6.603    4.825    -0.420
    399    H    -6.435    5.839    -0.790
    400    C    -6.329    4.452    0.841
    401    H    -5.914    5.138    1.576
    402    C    -7.377    2.622    -0.939
    403    O    -7.849    1.835    -1.768
    404    N    -7.113    2.225    0.327
    405    C    -6.599    3.098    1.208
    406    N    -6.341    2.671    2.443
    407    H    -6.503    1.716    2.683
    408    H    -5.963    3.273    3.151
    409    C    -8.875    4.592    -3.012
    410    H    -9.521    4.238    -2.183
    411    O    -9.273    3.961    -4.215
    412    H    -10.198    4.212    -4.377
    413    C    -8.933    6.123    -3.119
    414    H    -8.971    6.574    -2.101
    415    O    -9.955    6.673    -3.988
    416    P    -11.465    6.633    -3.559
    417    O    -12.192    7.628    -4.376
    418    O    -11.568    6.741    -2.089
    419    O    -11.916    5.202    -4.008
    420    C    -13.286    4.899    -4.383
    421    H    -13.361    4.900    -5.494
    422    H    -14.012    5.669    -4.022
    423    C    -13.783    3.519    -3.878
    424    H    -14.275    2.955    -4.701
    425    O    -12.677    2.705    -3.393
    426    C    -13.082    1.961    -2.264
    427    H    -13.001    0.904    -2.606
    428    N    -12.196    2.176    -1.093
    429    C    -11.707    3.430    -0.808
    430    H    -11.968    4.222    -1.519
    431    C    -10.923    3.641    0.261
    432    H    -10.520    4.622    0.503
    433    C    -11.907    1.109    -0.247
    434    O    -12.390    -0.005    -0.498
    435    N    -11.125    1.302    0.838
    436    C    -10.635    2.525    1.106
    437    N    -9.903    2.686    2.208
    438    H    -9.851    1.934    2.865
    439    H    -9.581    3.588    2.501
    440    C    -14.544    2.261    -1.965
    441    H    -14.724    2.393    -0.874
    442    O    -15.368    1.217    -2.460
    443    H    -16.299    1.492    -2.412
    444    C    -14.758    3.588    -2.695
    445    H    -14.432    4.433    -2.051
    446    O    -16.103    3.797    -3.163
    447    H    -16.719    3.807    -2.411
 $END
