!*** FMO 5.3 (Gamess) INPUT generated by Facio 22.1.1.32 ***
 $CONTRL RUNTYP=ENERGY NPRINT=-5 ISPHER=1 MAXIT=200 $END
 $SYSTEM MWORDS=63 MEMDDI=63 $END
 $GDDI NGROUP=1 $END
 $SCF DIRSCF=.TRUE. NPUNCH=0 $END
!*** NumCPU : 2  MemPerNode : 512MB
 $PCM SOLVNT=WATER IEF=-10 ICOMP=2 ICAV=1 IDISP=1 IFMO=-1 $END
 $PCMCAV RADII=SUAHF $END
 $TESCAV NTSALL=60 $END
 $FMOPRP
    NAODIR=200
    NGRFMO(1)=1, 1, 0, 0, 0,   0, 0, 0, 0, 0
    IPIEDA=1
    NPRINT=9
 $END
 $FMO
      SCFTYP(1)=RHF
      MODGRD=10
      MODMUL=0
      MAXCAO=5
      MAXBND=16
      NLAYER=1
      MPLEVL(1)=2
      NFRAG=14
      ICHARG(1)=-1, -1, -1, -1, -1, -1, -1, -1, -1, -1, -1, -1, -1, 0
      FRGNAM(1)=F1, F2, F3, F4, F5, F6, F7, F8, F9, F10, F11, F12, F13, F14
      indat(1)=0
               1   -36   0
               37   -70   0
               71   -101   0
               102   -134   0
               135   -165   0
               166   -195   0
               196   -225   0
               226   -256   0
               257   -290   0
               291   -324   0
               325   -354   0
               355   -388   0
               389   -419   0
               420   -447   0
 $END

 $FMOBND
   -37   36       6-31G*    MINI
   -71   70       6-31G*    MINI
   -102   101       6-31G*    MINI
   -135   134       6-31G*    MINI
   -166   165       6-31G*    MINI
   -196   195       6-31G*    MINI
   -226   225       6-31G*    MINI
   -257   256       6-31G*    MINI
   -291   290       6-31G*    MINI
   -325   324       6-31G*    MINI
   -355   354       6-31G*    MINI
   -389   388       6-31G*    MINI
   -420   419       6-31G*    MINI
 $END
 $FMOHYB
 6-31G*      15   5
   1 0  -0.065034   0.288264   0.000000   0.000000   0.604412
         0.290129   0.000000   0.000000   0.319045  -0.017106
        -0.017106   0.057934   0.000000   0.000000   0.000000
   0 1  -0.065040   0.288293   0.569832   0.000000  -0.201456
         0.290147   0.300783   0.000000  -0.106342   0.049598
        -0.017106  -0.008771   0.000000  -0.027223   0.000000
   0 1  -0.065039   0.288293  -0.284916  -0.493490  -0.201455
         0.290145  -0.150392  -0.260486  -0.106340  -0.000427
         0.032923  -0.008771   0.033353   0.013612   0.023576
   0 1  -0.065039   0.288293  -0.284916   0.493490  -0.201455
         0.290145  -0.150392   0.260486  -0.106340  -0.000427
         0.032923  -0.008771  -0.033353   0.013612  -0.023576
   0 1   1.010938  -0.011975   0.000000   0.000000   0.000000
        -0.054085   0.000000   0.000000  -0.000000  -0.003174
        -0.003174  -0.003174   0.000000   0.000000   0.000000
 MINI         5   5
   1 0  -0.104883   0.308874   0.000000   0.000000   0.521806
   0 1  -0.104883   0.308874   0.491961   0.000000  -0.173934
   0 1  -0.104883   0.308876  -0.245980  -0.426050  -0.173933
   0 1  -0.104883   0.308876  -0.245980   0.426050  -0.173933
   0 1   0.988209   0.063992   0.000000   0.000000   0.000000
 $END
 
 $DATA
 FMO calculation
 C1 
 H.1-1    1
      N31 6
   
 O.1-1    8
      N31 6
      d 1
      1 0.800 1.0
   
 C.1-1    6
      N31 6
      d 1
      1 0.800 1.0
   
 N.1-1    7
      N31 6
      d 1
      1 0.800 1.0
   
 P.1-1   15
      N31 6
      d 1
      1 0.550 1.0
   
 $END
 $FMOXYZ
    1    H    -10.893    -4.916    10.082
    2    O    -11.099    -4.885    9.127
    3    C    -11.606    -6.177    8.764
    4    H    -12.478    -6.413    9.415
    5    H    -10.826    -6.946    8.951
    6    C    -12.061    -6.267    7.299
    7    H    -12.672    -7.180    7.132
    8    O    -12.884    -5.108    6.953
    9    C    -12.579    -4.702    5.629
    10    H    -13.542    -4.684    5.068
    11    N    -11.977    -3.359    5.588
    12    C    -11.867    -2.567    4.476
    13    N    -12.398    -2.059    1.095
    14    H    -12.861    -2.895    0.811
    15    H    -12.294    -1.314    0.429
    16    N    -12.283    -2.887    3.240
    17    C    -12.051    -1.917    2.359
    18    N    -11.457    -0.727    2.692
    19    H    -11.354    -0.031    1.971
    20    C    -11.030    -0.362    3.963
    21    O    -10.513    0.741    4.174
    22    C    -11.271    -1.398    4.907
    23    N    -10.994    -1.458    6.267
    24    C    -11.420    -2.648    6.629
    25    H    -11.387    -3.053    7.644
    26    C    -11.669    -5.750    5.034
    27    H    -10.971    -5.319    4.289
    28    O    -12.438    -6.778    4.439
    29    H    -11.807    -7.407    4.065
    30    C    -10.925    -6.261    6.260
    31    H    -10.183    -5.507    6.614
    32    O    -10.364    -7.591    6.110
    33    P    -8.872    -7.762    5.628
    34    O    -8.458    -9.170    5.816
    35    O    -8.042    -6.755    6.319
    36    O    -8.889    -7.422    4.094
    37    C    -9.572    -8.252    3.128
    38    H    -10.556    -8.601    3.517
    39    H    -8.967    -9.161    2.904
    40    C    -9.842    -7.498    1.809
    41    H    -10.560    -8.066    1.179
    42    O    -10.454    -6.208    2.089
    43    C    -9.895    -5.219    1.237
    44    H    -10.760    -4.721    0.739
    45    N    -9.140    -4.195    1.992
    46    C    -8.758    -2.966    1.519
    47    N    -8.653    -0.665    -1.052
    48    H    -9.104    -1.155    -1.795
    49    H    -8.313    0.266    -1.220
    50    N    -8.983    -2.498    0.283
    51    C    -8.537    -1.259    0.117
    52    N    -7.939    -0.533    1.112
    53    H    -7.634    0.402    0.893
    54    C    -7.701    -0.982    2.405
    55    O    -7.160    -0.249    3.238
    56    C    -8.135    -2.330    2.577
    57    N    -8.090    -3.161    3.691
    58    C    -8.708    -4.252    3.300
    59    H    -8.885    -5.132    3.919
    60    C    -9.061    -5.934    0.192
    61    H    -8.190    -5.335    -0.149
    62    O    -9.874    -6.268    -0.917
    63    H    -9.362    -6.875    -1.471
    64    C    -8.613    -7.183    0.945
    65    H    -7.793    -6.933    1.654
    66    O    -8.314    -8.316    0.101
    67    P    -6.844    -8.652    -0.336
    68    O    -6.849    -9.940    -1.067
    69    O    -5.962    -8.577    0.848
    70    O    -6.456    -7.492    -1.333
    71    C    -6.565    -7.695    -2.768
    72    H    -7.591    -8.042    -3.038
    73    H    -5.835    -8.463    -3.102
    74    C    -6.273    -6.431    -3.606
    75    H    -6.735    -6.522    -4.613
    76    O    -6.857    -5.262    -2.979
    77    C    -5.995    -4.152    -3.149
    78    H    -6.606    -3.418    -3.727
    79    N    -5.606    -3.518    -1.869
    80    C    -5.623    -4.235    -0.696
    81    H    -5.923    -5.282    -0.781
    82    C    -5.303    -3.665    0.474
    83    H    -5.329    -4.207    1.417
    84    C    -5.205    -2.188    -1.861
    85    O    -5.158    -1.561    -2.930
    86    N    -4.891    -1.595    -0.688
    87    C    -4.941    -2.290    0.461
    88    N    -4.667    -1.668    1.604
    89    H    -4.376    -0.706    1.589
    90    H    -4.678    -2.144    2.486
    91    C    -4.806    -4.575    -4.000
    92    H    -3.851    -4.133    -3.643
    93    O    -5.024    -4.205    -5.350
    94    H    -4.239    -4.499    -5.849
    95    C    -4.782    -6.100    -3.821
    96    H    -4.259    -6.368    -2.872
    97    O    -4.271    -6.867    -4.941
    98    P    -2.778    -6.763    -5.430
    99    O    -2.510    -7.851    -6.396
    100    O    -1.911    -6.697    -4.237
    101    O    -2.695    -5.382    -6.172
    102    C    -2.191    -5.198    -7.515
    103    H    -3.044    -5.274    -8.224
    104    H    -1.453    -5.984    -7.806
    105    C    -1.527    -3.818    -7.745
    106    H    -1.698    -3.461    -8.780
    107    O    -2.088    -2.816    -6.838
    108    C    -1.054    -2.002    -6.330
    109    H    -1.339    -0.946    -6.541
    110    N    -0.892    -2.183    -4.883
    111    C    -0.482    -1.862    -2.750
    112    N    -0.883    -3.182    -2.869
    113    C    -1.109    -3.326    -4.148
    114    H    -1.431    -4.254    -4.616
    115    N    0.228    0.200    -1.851
    116    C    0.212    0.666    -3.103
    117    H    0.514    1.711    -3.209
    118    N    -0.128    0.038    -4.235
    119    C    -0.478    -1.233    -3.982
    120    C    -0.100    -1.098    -1.635
    121    N    -0.047    -1.618    -0.396
    122    H    -0.255    -2.584    -0.213
    123    H    0.235    -1.050    0.384
    124    C    0.206    -2.336    -7.083
    125    H    1.093    -2.258    -6.431
    126    O    0.351    -1.492    -8.208
    127    H    1.204    -1.716    -8.602
    128    C    -0.005    -3.787    -7.493
    129    H    0.187    -4.473    -6.638
    130    O    0.719    -4.176    -8.685
    131    P    2.226    -4.647    -8.622
    132    O    2.735    -4.764    -10.005
    133    O    2.270    -5.877    -7.803
    134    O    3.017    -3.510    -7.883
    135    C    3.819    -2.533    -8.594
    136    H    3.324    -2.216    -9.546
    137    H    4.810    -2.974    -8.861
    138    C    4.080    -1.251    -7.763
    139    H    4.161    -0.366    -8.429
    140    O    2.985    -0.997    -6.837
    141    C    3.492    -0.560    -5.586
    142    H    2.936    0.385    -5.376
    143    N    3.259    -1.512    -4.459
    144    C    2.898    -2.827    -4.657
    145    H    2.798    -3.145    -5.692
    146    C    2.669    -3.652    -3.623
    147    H    2.357    -4.686    -3.758
    148    C    3.418    -1.035    -3.163
    149    O    3.730    0.153    -2.996
    150    N    3.235    -1.860    -2.113
    151    C    2.850    -3.129    -2.308
    152    N    2.640    -3.891    -1.240
    153    H    2.764    -3.480    -0.337
    154    H    2.351    -4.849    -1.313
    155    C    4.955    -0.246    -5.790
    156    H    5.565    -0.388    -4.873
    157    O    5.091    1.085    -6.256
    158    H    6.005    1.196    -6.558
    159    C    5.324    -1.261    -6.862
    160    H    5.377    -2.281    -6.412
    161    O    6.492    -0.892    -7.621
    162    P    7.767    -1.811    -7.628
    163    O    8.670    -1.373    -8.713
    164    O    7.366    -3.235    -7.636
    165    O    8.463    -1.498    -6.254
    166    C    9.066    -0.203    -6.014
    167    H    8.426    0.628    -6.398
    168    H    10.057    -0.140    -6.520
    169    C    9.281    0.042    -4.514
    170    H    9.655    1.072    -4.335
    171    O    8.019    -0.093    -3.802
    172    C    8.259    -0.651    -2.524
    173    H    7.882    0.105    -1.797
    174    N    7.534    -1.940    -2.328
    175    C    7.094    -2.682    -3.403
    176    H    7.296    -2.250    -4.384
    177    C    7.316    -2.376    -1.040
    178    O    7.700    -1.754    -0.054
    179    N    6.624    -3.554    -0.930
    180    H    6.496    -3.916    0.005
    181    C    6.175    -4.354    -1.957
    182    O    5.595    -5.408    -1.710
    183    C    6.435    -3.842    -3.267
    184    H    6.093    -4.414    -4.128
    185    C    9.769    -0.784    -2.365
    186    H    10.060    -1.663    -1.752
    187    O    10.301    0.397    -1.804
    188    H    11.236    0.222    -1.643
    189    C    10.232    -0.935    -3.805
    190    H    9.989    -1.951    -4.184
    191    O    11.605    -0.555    -4.052
    192    P    12.778    -1.574    -3.813
    193    O    13.871    -1.225    -4.749
    194    O    12.270    -2.968    -3.883
    195    O    13.253    -1.252    -2.338
    196    C    14.535    -1.801    -1.917
    197    H    15.265    -1.893    -2.761
    198    H    14.388    -2.820    -1.494
    199    C    15.237    -0.939    -0.857
    200    H    16.233    -1.383    -0.634
    201    O    15.473    0.396    -1.379
    202    C    14.948    1.356    -0.496
    203    H    15.803    1.655    0.151
    204    N    14.378    2.500    -1.251
    205    C    13.502    2.266    -2.287
    206    H    13.319    1.212    -2.507
    207    C    14.752    3.780    -0.913
    208    O    15.556    4.022    -0.018
    209    N    14.166    4.770    -1.658
    210    H    14.448    5.712    -1.429
    211    C    13.299    4.617    -2.720
    212    O    12.888    5.607    -3.325
    213    C    12.965    3.255    -3.019
    214    H    12.295    3.054    -3.852
    215    C    13.911    0.660    0.364
    216    H    12.927    0.630    -0.153
    217    O    13.804    1.303    1.620
    218    H    13.095    0.904    2.159
    219    C    14.469    -0.763    0.472
    220    H    13.600    -1.463    0.451
    221    O    15.324    -0.973    1.625
    222    P    15.312    -2.362    2.358
    223    O    16.181    -2.297    3.554
    224    O    15.633    -3.411    1.362
    225    O    13.825    -2.590    2.806
    226    C    13.341    -2.303    4.137
    227    H    13.222    -1.201    4.258
    228    H    14.051    -2.656    4.923
    229    C    11.966    -2.948    4.422
    230    H    11.467    -2.406    5.255
    231    O    11.101    -2.868    3.258
    232    C    10.697    -4.163    2.878
    233    H    9.725    -4.319    3.394
    234    N    10.559    -4.291    1.410
    235    C    11.527    -3.730    0.617
    236    H    12.308    -3.173    1.142
    237    C    11.473    -3.830    -0.715
    238    H    12.223    -3.384    -1.363
    239    C    9.515    -5.015    0.838
    240    O    8.666    -5.540    1.576
    241    N    9.442    -5.119    -0.512
    242    C    10.389    -4.556    -1.286
    243    N    10.317    -4.675    -2.612
    244    H    11.002    -4.226    -3.200
    245    H    9.612    -5.255    -3.022
    246    C    11.719    -5.112    3.450
    247    H    12.642    -5.118    2.829
    248    O    11.209    -6.419    3.616
    249    H    10.557    -6.361    4.333
    250    C    12.007    -4.446    4.788
    251    H    13.051    -4.714    5.085
    252    O    11.023    -4.788    5.795
    253    P    11.443    -5.002    7.295
    254    O    12.885    -5.338    7.382
    255    O    10.505    -5.960    7.933
    256    O    11.238    -3.593    7.951
    257    C    9.956    -2.934    7.992
    258    H    9.347    -3.329    8.836
    259    H    9.386    -3.105    7.048
    260    C    10.090    -1.411    8.160
    261    H    10.372    -1.146    9.200
    262    O    11.139    -0.895    7.292
    263    C    10.813    0.414    6.890
    264    H    11.573    1.062    7.380
    265    N    10.909    0.577    5.440
    266    C    10.160    0.021    4.418
    267    N    7.621    -2.053    3.280
    268    H    7.285    -2.402    2.413
    269    H    7.278    -2.436    4.134
    270    N    9.118    -0.829    4.537
    271    C    8.640    -1.215    3.358
    272    N    9.144    -0.781    2.161
    273    H    8.749    -1.148    1.312
    274    C    10.241    0.054    2.019
    275    O    10.685    0.386    0.921
    276    C    10.728    0.511    3.262
    277    N    11.776    1.377    3.541
    278    C    11.854    1.377    4.844
    279    H    12.584    1.941    5.430
    280    C    9.439    0.762    7.430
    281    H    8.806    1.271    6.675
    282    O    9.565    1.571    8.581
    283    H    8.709    1.547    9.033
    284    C    8.849    -0.605    7.764
    285    H    8.462    -1.084    6.842
    286    O    7.870    -0.598    8.825
    287    P    6.331    -0.526    8.485
    288    O    5.621    -0.074    9.703
    289    O    5.896    -1.830    7.941
    290    O    6.203    0.551    7.365
    291    C    6.065    1.962    7.613
    292    H    6.822    2.303    8.356
    293    H    5.054    2.161    8.042
    294    C    6.252    2.828    6.336
    295    H    6.882    3.715    6.568
    296    O    6.932    2.083    5.269
    297    C    6.251    2.284    4.044
    298    H    7.026    2.495    3.275
    299    N    5.466    1.099    3.650
    300    C    5.102    0.751    2.378
    301    N    5.145    1.350    -1.023
    302    H    5.667    2.196    -1.106
    303    H    4.732    0.935    -1.839
    304    N    5.399    1.432    1.261
    305    C    4.932    0.833    0.169
    306    N    4.205    -0.331    0.197
    307    H    3.886    -0.724    -0.675
    308    C    3.874    -1.051    1.337
    309    O    3.230    -2.105    1.291
    310    C    4.378    -0.422    2.503
    311    N    4.263    -0.790    3.830
    312    C    4.929    0.135    4.474
    313    H    5.055    0.166    5.551
    314    C    5.374    3.494    4.234
    315    H    4.505    3.504    3.544
    316    O    6.132    4.678    4.063
    317    H    5.567    5.405    4.351
    318    C    4.944    3.325    5.686
    319    H    4.212    2.492    5.784
    320    O    4.502    4.545    6.324
    321    P    2.975    4.933    6.307
    322    O    2.771    6.111    7.176
    323    O    2.178    3.731    6.638
    324    O    2.672    5.327    4.817
    325    C    3.242    6.502    4.198
    326    H    4.349    6.517    4.303
    327    H    2.849    7.425    4.681
    328    C    2.899    6.580    2.698
    329    H    3.401    7.451    2.225
    330    O    3.373    5.391    2.008
    331    C    2.434    5.014    1.014
    332    H    2.998    5.035    0.051
    333    N    1.892    3.651    1.252
    334    C    1.884    3.097    2.513
    335    H    2.334    3.706    3.292
    336    C    1.407    2.954    0.171
    337    O    1.406    3.415    -0.965
    338    N    0.934    1.701    0.462
    339    H    0.613    1.171    -0.343
    340    C    0.921    1.071    1.690
    341    O    0.496    -0.076    1.800
    342    C    1.440    1.859    2.760
    343    H    1.478    1.422    3.755
    344    C    1.340    6.066    0.973
    345    H    0.342    5.620    0.780
    346    O    1.597    7.047    -0.013
    347    H    0.793    7.593    -0.036
    348    C    1.397    6.660    2.378
    349    H    0.876    5.989    3.100
    350    O    0.952    8.029    2.494
    351    P    -0.567    8.422    2.433
    352    O    -0.679    9.894    2.485
    353    O    -1.276    7.657    3.481
    354    O    -1.076    7.915    1.037
    355    C    -1.339    8.788    -0.084
    356    H    -0.410    9.325    -0.389
    357    H    -2.094    9.559    0.190
    358    C    -1.880    8.025    -1.317
    359    H    -1.635    8.571    -2.257
    360    O    -1.287    6.694    -1.397
    361    C    -2.279    5.752    -1.765
    362    H    -1.894    5.227    -2.671
    363    N    -2.524    4.765    -0.705
    364    C    -2.999    3.501    -0.902
    365    N    -4.124    1.017    -3.034
    366    H    -4.065    1.454    -3.930
    367    H    -4.505    0.091    -2.965
    368    N    -3.319    2.956    -2.088
    369    C    -3.762    1.711    -1.972
    370    N    -3.866    1.067    -0.770
    371    H    -4.226    0.125    -0.770
    372    C    -3.546    1.599    0.470
    373    O    -3.684    0.932    1.498
    374    C    -3.079    2.934    0.356
    375    N    -2.670    3.835    1.334
    376    C    -2.353    4.911    0.652
    377    H    -1.982    5.839    1.085
    378    C    -3.533    6.507    -2.128
    379    H    -4.458    5.949    -1.869
    380    O    -3.533    6.804    -3.509
    381    H    -4.338    7.310    -3.680
    382    C    -3.405    7.777    -1.294
    383    H    -3.674    7.579    -0.231
    384    O    -4.105    8.920    -1.838
    385    P    -5.632    9.159    -1.531
    386    O    -6.074    10.367    -2.265
    387    O    -5.791    9.168    -0.061
    388    O    -6.391    7.901    -2.099
    389    C    -6.867    7.834    -3.462
    390    H    -6.056    8.097    -4.179
    391    H    -7.692    8.564    -3.619
    392    C    -7.394    6.435    -3.843
    393    H    -7.417    6.314    -4.948
    394    O    -6.525    5.401    -3.306
    395    C    -7.297    4.289    -2.892
    396    H    -6.943    3.454    -3.539
    397    N    -7.068    3.908    -1.467
    398    C    -6.585    4.816    -0.553
    399    H    -6.394    5.822    -0.937
    400    C    -6.362    4.469    0.724
    401    H    -5.968    5.170    1.459
    402    C    -7.362    2.611    -1.057
    403    O    -7.814    1.810    -1.887
    404    N    -7.149    2.240    0.227
    405    C    -6.652    3.125    1.108
    406    N    -6.426    2.717    2.356
    407    H    -6.615    1.770    2.610
    408    H    -6.083    3.333    3.069
    409    C    -8.763    4.572    -3.213
    410    H    -9.440    4.223    -2.406
    411    O    -9.132    3.960    -4.436
    412    H    -10.052    4.219    -4.620
    413    C    -8.794    6.103    -3.311
    414    H    -8.839    6.550    -2.294
    415    O    -9.797    6.668    -4.189
    416    P    -11.316    6.673    -3.778
    417    O    -12.021    7.683    -4.597
    418    O    -11.430    6.783    -2.309
    419    O    -11.797    5.255    -4.226
    420    C    -13.171    4.973    -4.606
    421    H    -13.246    4.977    -5.717
    422    H    -13.889    5.750    -4.240
    423    C    -13.684    3.594    -4.111
    424    H    -14.161    3.034    -4.944
    425    O    -12.596    2.769    -3.603
    426    C    -13.032    2.023    -2.488
    427    H    -12.955    0.965    -2.828
    428    N    -12.172    2.233    -1.296
    429    C    -11.678    3.485    -1.006
    430    H    -11.916    4.276    -1.725
    431    C    -10.913    3.692    0.078
    432    H    -10.510    4.672    0.326
    433    C    -11.912    1.167    -0.440
    434    O    -12.394    0.054    -0.699
    435    N    -11.156    1.360    0.665
    436    C    -10.665    2.580    0.940
    437    N    -9.963    2.744    2.061
    438    H    -9.935    1.994    2.724
    439    H    -9.636    3.643    2.355
    440    C    -14.499    2.340    -2.219
    441    H    -14.699    2.480    -1.133
    442    O    -15.326    1.303    -2.724
    443    H    -16.255    1.589    -2.691
    444    C    -14.689    3.666    -2.956
    445    H    -14.373    4.510    -2.304
    446    O    -16.022    3.884    -3.456
    447    H    -16.656    3.911    -2.718
 $END
