!*** FMO 5.3 (Gamess) INPUT generated by Facio 22.1.1.32 ***
 $CONTRL RUNTYP=ENERGY NPRINT=-5 ISPHER=1 MAXIT=200 $END
 $SYSTEM MWORDS=63 MEMDDI=63 $END
 $GDDI NGROUP=1 $END
 $SCF DIRSCF=.TRUE. NPUNCH=0 $END
!*** NumCPU : 2  MemPerNode : 512MB
 $PCM SOLVNT=WATER IEF=-10 ICOMP=2 ICAV=1 IDISP=1 IFMO=-1 $END
 $PCMCAV RADII=SUAHF $END
 $TESCAV NTSALL=60 $END
 $FMOPRP
    NAODIR=200
    NGRFMO(1)=1, 1, 0, 0, 0,   0, 0, 0, 0, 0
    IPIEDA=1
    NPRINT=9
 $END
 $FMO
      SCFTYP(1)=RHF
      MODGRD=10
      MODMUL=0
      MAXCAO=5
      MAXBND=16
      NLAYER=1
      MPLEVL(1)=2
      NFRAG=14
      ICHARG(1)=-1, -1, -1, -1, -1, -1, -1, -1, -1, -1, -1, -1, -1, 0
      FRGNAM(1)=F1, F2, F3, F4, F5, F6, F7, F8, F9, F10, F11, F12, F13, F14
      indat(1)=0
               1   -36   0
               37   -70   0
               71   -101   0
               102   -134   0
               135   -165   0
               166   -195   0
               196   -225   0
               226   -256   0
               257   -290   0
               291   -324   0
               325   -354   0
               355   -388   0
               389   -419   0
               420   -447   0
 $END

 $FMOBND
   -37   36       6-31G*    MINI
   -71   70       6-31G*    MINI
   -102   101       6-31G*    MINI
   -135   134       6-31G*    MINI
   -166   165       6-31G*    MINI
   -196   195       6-31G*    MINI
   -226   225       6-31G*    MINI
   -257   256       6-31G*    MINI
   -291   290       6-31G*    MINI
   -325   324       6-31G*    MINI
   -355   354       6-31G*    MINI
   -389   388       6-31G*    MINI
   -420   419       6-31G*    MINI
 $END
 $FMOHYB
 6-31G*      15   5
   1 0  -0.065034   0.288264   0.000000   0.000000   0.604412
         0.290129   0.000000   0.000000   0.319045  -0.017106
        -0.017106   0.057934   0.000000   0.000000   0.000000
   0 1  -0.065040   0.288293   0.569832   0.000000  -0.201456
         0.290147   0.300783   0.000000  -0.106342   0.049598
        -0.017106  -0.008771   0.000000  -0.027223   0.000000
   0 1  -0.065039   0.288293  -0.284916  -0.493490  -0.201455
         0.290145  -0.150392  -0.260486  -0.106340  -0.000427
         0.032923  -0.008771   0.033353   0.013612   0.023576
   0 1  -0.065039   0.288293  -0.284916   0.493490  -0.201455
         0.290145  -0.150392   0.260486  -0.106340  -0.000427
         0.032923  -0.008771  -0.033353   0.013612  -0.023576
   0 1   1.010938  -0.011975   0.000000   0.000000   0.000000
        -0.054085   0.000000   0.000000  -0.000000  -0.003174
        -0.003174  -0.003174   0.000000   0.000000   0.000000
 MINI         5   5
   1 0  -0.104883   0.308874   0.000000   0.000000   0.521806
   0 1  -0.104883   0.308874   0.491961   0.000000  -0.173934
   0 1  -0.104883   0.308876  -0.245980  -0.426050  -0.173933
   0 1  -0.104883   0.308876  -0.245980   0.426050  -0.173933
   0 1   0.988209   0.063992   0.000000   0.000000   0.000000
 $END
 
 $DATA
 FMO calculation
 C1 
 H.1-1    1
      N31 6
   
 O.1-1    8
      N31 6
      d 1
      1 0.800 1.0
   
 C.1-1    6
      N31 6
      d 1
      1 0.800 1.0
   
 N.1-1    7
      N31 6
      d 1
      1 0.800 1.0
   
 P.1-1   15
      N31 6
      d 1
      1 0.550 1.0
   
 $END
 $FMOXYZ
    1    H    -16.500    -2.772    9.044
    2    O    -15.813    -2.646    8.362
    3    C    -15.061    -3.867    8.297
    4    H    -15.771    -4.717    8.181
    5    H    -14.509    -4.004    9.252
    6    C    -14.070    -3.935    7.130
    7    H    -13.768    -4.990    6.957
    8    O    -14.699    -3.450    5.897
    9    C    -13.717    -2.757    5.154
    10    H    -13.741    -3.134    4.104
    11    N    -13.940    -1.301    5.188
    12    C    -13.315    -0.481    4.333
    13    N    -10.566    -0.376    2.550
    14    H    -10.747    -1.165    1.966
    15    H    -10.038    0.327    2.087
    16    N    -12.492    -0.900    3.396
    17    C    -11.660    0.030    3.074
    18    N    -11.841    1.377    3.314
    19    H    -11.260    2.051    2.847
    20    C    -12.845    1.878    4.146
    21    O    -12.980    3.089    4.353
    22    C    -13.603    0.810    4.728
    23    N    -14.477    0.791    5.807
    24    C    -14.638    -0.495    6.058
    25    H    -15.256    -0.919    6.851
    26    C    -12.376    -3.089    5.791
    27    H    -11.592    -2.330    5.580
    28    O    -11.917    -4.368    5.392
    29    H    -11.097    -4.542    5.882
    30    C    -12.770    -3.102    7.249
    31    H    -13.077    -2.090    7.601
    32    O    -11.781    -3.730    8.111
    33    P    -10.571    -2.813    8.614
    34    O    -10.237    -3.226    9.997
    35    O    -10.939    -1.391    8.421
    36    O    -9.377    -3.088    7.665
    37    C    -8.078    -3.715    7.595
    38    H    -7.950    -4.443    8.423
    39    H    -7.299    -2.932    7.720
    40    C    -7.824    -4.455    6.214
    41    H    -7.988    -5.541    6.365
    42    O    -8.892    -3.999    5.328
    43    C    -8.379    -3.165    4.336
    44    H    -9.060    -3.349    3.471
    45    N    -8.408    -1.693    4.595
    46    C    -8.000    -0.876    3.603
    47    N    -7.517    -0.666    0.296
    48    H    -7.292    -1.621    0.135
    49    H    -7.110    -0.009    -0.341
    50    N    -7.646    -1.301    2.397
    51    C    -7.572    -0.338    1.543
    52    N    -7.527    0.984    1.885
    53    H    -7.469    1.637    1.124
    54    C    -7.876    1.484    3.138
    55    O    -7.904    2.697    3.362
    56    C    -8.161    0.422    4.046
    57    N    -8.751    0.428    5.300
    58    C    -8.920    -0.855    5.573
    59    H    -9.415    -1.223    6.467
    60    C    -7.005    -3.712    4.008
    61    H    -6.299    -2.947    3.625
    62    O    -7.167    -4.733    3.036
    63    H    -6.346    -5.241    3.019
    64    C    -6.485    -4.263    5.340
    65    H    -5.878    -3.484    5.856
    66    O    -5.708    -5.498    5.130
    67    P    -4.177    -5.568    4.630
    68    O    -3.559    -6.709    5.334
    69    O    -3.571    -4.244    4.870
    70    O    -4.057    -5.906    3.061
    71    C    -2.766    -6.209    2.332
    72    H    -2.394    -7.200    2.666
    73    H    -1.976    -5.476    2.608
    74    C    -2.824    -6.283    0.710
    75    H    -2.974    -7.344    0.430
    76    O    -4.031    -5.600    0.435
    77    C    -3.722    -4.343    -0.025
    78    H    -4.441    -4.395    -0.878
    79    N    -4.057    -3.209    0.809
    80    C    -3.645    -3.036    2.108
    81    H    -3.178    -3.875    2.597
    82    C    -3.915    -1.906    2.776
    83    H    -3.650    -1.754    3.821
    84    C    -4.486    -2.121    0.089
    85    O    -4.556    -2.180    -1.152
    86    N    -4.813    -1.016    0.741
    87    C    -4.514    -0.860    2.041
    88    N    -4.663    0.356    2.565
    89    H    -4.553    1.040    1.849
    90    H    -4.281    0.579    3.461
    91    C    -2.313    -4.232    -0.463
    92    H    -1.673    -3.510    0.094
    93    O    -2.542    -3.830    -1.761
    94    H    -2.531    -2.870    -1.811
    95    C    -1.775    -5.632    -0.399
    96    H    -0.756    -5.633    0.055
    97    O    -1.724    -6.231    -1.767
    98    P    -0.593    -6.173    -2.968
    99    O    -0.934    -7.415    -3.696
    100    O    0.732    -6.174    -2.300
    101    O    -0.593    -5.121    -4.220
    102    C    0.488    -4.464    -5.060
    103    H    1.301    -5.201    -5.250
    104    H    0.978    -3.675    -4.452
    105    C    0.186    -3.738    -6.549
    106    H    0.618    -4.406    -7.321
    107    O    -1.287    -3.685    -6.768
    108    C    -1.776    -2.334    -6.563
    109    H    -2.840    -2.278    -6.887
    110    N    -1.570    -1.936    -5.204
    111    C    -0.463    -1.394    -3.458
    112    N    -0.984    -2.572    -3.257
    113    C    -1.713    -2.831    -4.267
    114    H    -2.298    -3.738    -4.432
    115    N    0.514    0.633    -2.947
    116    C    -0.100    1.083    -4.046
    117    H    0.074    2.130    -4.283
    118    N    -0.699    0.381    -5.012
    119    C    -0.871    -0.891    -4.624
    120    C    0.361    -0.677    -2.660
    121    N    0.944    -1.428    -1.748
    122    H    1.924    -1.299    -1.570
    123    H    0.453    -1.608    -0.899
    124    C    -0.853    -1.581    -7.377
    125    H    -0.318    -0.776    -6.857
    126    O    -1.364    -0.369    -7.895
    127    H    -1.517    0.236    -7.145
    128    C    0.564    -2.181    -6.971
    129    H    0.908    -1.828    -5.982
    130    O    1.639    -1.948    -7.926
    131    P    1.864    -0.699    -8.962
    132    O    0.599    -0.431    -9.666
    133    O    2.957    -1.142    -9.847
    134    O    2.350    0.700    -8.340
    135    C    3.638    1.385    -8.095
    136    H    4.263    1.361    -9.010
    137    H    4.217    0.815    -7.335
    138    C    3.612    2.950    -7.611
    139    H    3.766    3.589    -8.505
    140    O    2.301    3.323    -7.027
    141    C    2.431    3.387    -5.578
    142    H    1.544    3.915    -5.163
    143    N    2.642    2.032    -4.997
    144    C    2.159    1.021    -5.731
    145    H    1.472    1.314    -6.523
    146    C    2.602    -0.213    -5.572
    147    H    2.583    -0.945    -6.339
    148    C    3.286    1.712    -3.797
    149    O    3.580    2.600    -2.987
    150    N    3.625    0.428    -3.558
    151    C    3.315    -0.529    -4.441
    152    N    3.584    -1.815    -4.268
    153    H    4.002    -2.102    -3.411
    154    H    3.380    -2.489    -4.977
    155    C    3.700    4.161    -5.414
    156    H    4.194    4.068    -4.432
    157    O    3.494    5.544    -5.613
    158    H    4.370    5.984    -5.618
    159    C    4.587    3.433    -6.450
    160    H    4.913    2.484    -5.998
    161    O    5.733    4.139    -6.927
    162    P    6.692    5.204    -6.257
    163    O    5.928    6.460    -6.078
    164    O    7.881    5.270    -7.132
    165    O    7.158    4.726    -4.813
    166    C    8.576    4.420    -4.572
    167    H    9.254    5.109    -5.129
    168    H    8.773    3.410    -4.994
    169    C    9.108    4.436    -3.077
    170    H    9.546    5.423    -2.835
    171    O    8.052    4.171    -2.082
    172    C    8.242    2.858    -1.536
    173    H    7.877    2.863    -0.488
    174    N    7.567    1.812    -2.372
    175    C    6.899    2.209    -3.495
    176    H    6.496    3.216    -3.440
    177    C    7.720    0.465    -2.115
    178    O    8.281    0.036    -1.114
    179    N    7.202    -0.364    -3.083
    180    H    7.405    -1.341    -2.974
    181    C    6.772    0.006    -4.341
    182    O    6.506    -0.832    -5.197
    183    C    6.685    1.406    -4.533
    184    H    6.476    1.779    -5.526
    185    C    9.736    2.651    -1.501
    186    H    10.031    1.580    -1.496
    187    O    10.330    3.288    -0.385
    188    H    11.285    3.194    -0.486
    189    C    10.145    3.289    -2.817
    190    H    9.944    2.543    -3.619
    191    O    11.514    3.769    -2.820
    192    P    12.647    2.779    -3.318
    193    O    13.798    3.563    -3.801
    194    O    12.047    1.839    -4.279
    195    O    13.155    1.940    -2.067
    196    C    13.517    0.554    -2.308
    197    H    13.743    0.350    -3.390
    198    H    12.603    0.033    -2.005
    199    C    14.695    -0.172    -1.559
    200    H    15.193    -0.836    -2.298
    201    O    15.699    0.731    -1.041
    202    C    15.657    0.699    0.381
    203    H    16.539    0.098    0.705
    204    N    15.677    2.071    0.917
    205    C    14.843    2.995    0.355
    206    H    14.381    2.667    -0.553
    207    C    16.469    2.393    1.988
    208    O    17.206    1.575    2.531
    209    N    16.367    3.702    2.400
    210    H    16.919    3.961    3.200
    211    C    15.542    4.683    1.874
    212    O    15.550    5.820    2.340
    213    C    14.750    4.259    0.766
    214    H    14.136    4.983    0.232
    215    C    14.387    -0.042    0.765
    216    H    13.500    0.628    0.705
    217    O    14.459    -0.651    2.036
    218    H    15.095    -1.378    1.978
    219    C    14.322    -1.066    -0.345
    220    H    13.271    -1.406    -0.459
    221    O    15.244    -2.174    -0.185
    222    P    14.881    -3.656    0.218
    223    O    15.720    -4.046    1.380
    224    O    14.989    -4.490    -0.999
    225    O    13.384    -3.615    0.652
    226    C    12.800    -4.537    1.596
    227    H    12.801    -4.051    2.600
    228    H    13.384    -5.480    1.692
    229    C    11.330    -4.916    1.284
    230    H    10.802    -5.096    2.247
    231    O    10.613    -3.860    0.588
    232    C    10.175    -4.327    -0.674
    233    H    9.109    -4.618    -0.526
    234    N    10.305    -3.303    -1.714
    235    C    11.536    -2.759    -1.847
    236    H    12.239    -3.022    -1.069
    237    C    11.823    -1.935    -2.849
    238    H    12.832    -1.581    -3.011
    239    C    9.330    -3.048    -2.670
    240    O    8.268    -3.687    -2.645
    241    N    9.554    -2.091    -3.602
    242    C    10.764    -1.521    -3.695
    243    N    10.946    -0.541    -4.573
    244    H    11.625    0.192    -4.419
    245    H    10.174    -0.280    -5.143
    246    C    10.985    -5.561    -0.996
    247    H    11.985    -5.297    -1.407
    248    O    10.296    -6.434    -1.869
    249    H    9.547    -6.782    -1.358
    250    C    11.146    -6.168    0.393
    251    H    12.074    -6.793    0.397
    252    O    9.979    -6.922    0.779
    253    P    10.072    -8.054    1.855
    254    O    11.450    -8.602    1.954
    255    O    9.004    -9.040    1.577
    256    O    9.744    -7.354    3.218
    257    C    8.394    -6.990    3.605
    258    H    7.785    -7.900    3.801
    259    H    7.889    -6.424    2.785
    260    C    8.354    -6.108    4.878
    261    H    8.354    -6.745    5.784
    262    O    9.556    -5.293    4.964
    263    C    9.278    -4.075    5.608
    264    H    9.839    -4.129    6.568
    265    N    9.785    -2.937    4.829
    266    C    9.397    -2.464    3.596
    267    N    7.432    -2.714    0.761
    268    H    7.313    -2.245    -0.104
    269    H    6.811    -3.452    1.012
    270    N    8.396    -2.939    2.836
    271    C    8.318    -2.328    1.666
    272    N    9.100    -1.258    1.313
    273    H    8.989    -0.866    0.395
    274    C    10.132    -0.734    2.080
    275    O    10.803    0.227    1.689
    276    C    10.246    -1.405    3.328
    277    N    11.127    -1.193    4.384
    278    C    10.815    -2.130    5.245
    279    H    11.310    -2.286    6.206
    280    C    7.787    -4.006    5.900
    281    H    7.342    -3.021    5.638
    282    O    7.562    -4.291    7.271
    283    H    6.610    -4.446    7.372
    284    C    7.203    -5.092    4.988
    285    H    7.071    -4.684    3.961
    286    O    5.998    -5.718    5.496
    287    P    4.589    -5.348    4.884
    288    O    3.533    -6.036    5.658
    289    O    4.623    -5.597    3.426
    290    O    4.479    -3.817    5.126
    291    C    3.460    -3.048    5.806
    292    H    3.308    -3.458    6.829
    293    H    2.490    -3.138    5.268
    294    C    3.820    -1.525    5.957
    295    H    3.954    -1.275    7.030
    296    O    5.121    -1.279    5.317
    297    C    5.014    -0.219    4.401
    298    H    5.968    0.350    4.463
    299    N    4.828    -0.704    3.020
    300    C    5.026    0.039    1.895
    301    N    5.641    3.101    0.422
    302    H    5.768    3.495    -0.485
    303    H    6.010    3.600    1.209
    304    N    5.376    1.334    1.856
    305    C    5.357    1.828    0.623
    306    N    5.110    1.061    -0.490
    307    H    5.030    1.499    -1.388
    308    C    4.858    -0.309    -0.468
    309    O    4.681    -1.000    -1.472
    310    C    4.785    -0.814    0.845
    311    N    4.381    -2.066    1.289
    312    C    4.423    -1.954    2.588
    313    H    4.155    -2.753    3.265
    314    C    3.870    0.629    4.880
    315    H    3.465    1.293    4.089
    316    O    4.298    1.409    5.985
    317    H    3.510    1.670    6.488
    318    C    2.871    -0.441    5.308
    319    H    2.395    -0.909    4.417
    320    O    1.898    0.058    6.254
    321    P    0.472    0.643    5.891
    322    O    -0.276    0.755    7.158
    323    O    -0.110    -0.196    4.830
    324    O    0.647    2.111    5.330
    325    C    -0.361    2.827    4.520
    326    H    -1.269    3.033    5.130
    327    H    -0.708    2.189    3.676
    328    C    0.181    4.203    3.926
    329    H    0.019    5.010    4.669
    330    O    1.633    4.012    3.756
    331    C    1.979    4.036    2.377
    332    H    3.045    4.365    2.330
    333    N    1.822    2.779    1.670
    334    C    1.254    1.678    2.276
    335    H    1.453    1.606    3.337
    336    C    2.027    2.773    0.307
    337    O    2.466    3.784    -0.326
    338    N    1.717    1.645    -0.335
    339    H    1.941    1.577    -1.315
    340    C    1.586    0.470    0.371
    341    O    2.226    -0.496    0.075
    342    C    0.963    0.576    1.610
    343    H    0.883    -0.361    2.158
    344    C    1.066    5.019    1.757
    345    H    0.854    4.905    0.677
    346    O    1.633    6.287    1.936
    347    H    1.394    6.622    2.812
    348    C    -0.251    4.709    2.469
    349    H    -0.688    3.795    2.021
    350    O    -1.237    5.763    2.404
    351    P    -1.386    7.004    1.382
    352    O    -0.348    8.008    1.698
    353    O    -2.763    7.514    1.517
    354    O    -1.190    6.598    -0.157
    355    C    -2.242    6.695    -1.179
    356    H    -2.754    7.679    -1.108
    357    H    -3.010    5.920    -0.968
    358    C    -1.807    6.534    -2.704
    359    H    -1.420    7.501    -3.093
    360    O    -0.744    5.558    -2.839
    361    C    -1.316    4.299    -3.125
    362    H    -0.573    3.765    -3.747
    363    N    -1.633    3.535    -1.984
    364    C    -2.364    2.397    -2.007
    365    N    -3.739    -0.296    -3.705
    366    H    -4.115    -1.199    -3.500
    367    H    -3.577    -0.028    -4.655
    368    N    -2.791    1.697    -3.088
    369    C    -3.310    0.537    -2.775
    370    N    -3.288    0.083    -1.497
    371    H    -3.833    -0.736    -1.282
    372    C    -2.802    0.797    -0.402
    373    O    -2.646    0.439    0.756
    374    C    -2.490    2.084    -0.702
    375    N    -1.985    3.049    0.125
    376    C    -1.434    3.858    -0.693
    377    H    -0.726    4.612    -0.416
    378    C    -2.600    4.495    -3.834
    379    H    -3.474    3.996    -3.385
    380    O    -2.436    3.980    -5.136
    381    H    -2.344    4.722    -5.745
    382    C    -2.942    5.964    -3.662
    383    H    -3.885    6.097    -3.084
    384    O    -3.073    6.574    -4.952
    385    P    -4.371    6.304    -5.869
    386    O    -3.931    6.544    -7.258
    387    O    -5.419    7.192    -5.330
    388    O    -4.926    4.786    -5.804
    389    C    -6.367    4.553    -5.719
    390    H    -6.931    5.254    -6.378
    391    H    -6.682    4.794    -4.682
    392    C    -6.916    3.111    -6.055
    393    H    -7.017    2.976    -7.154
    394    O    -6.052    2.019    -5.581
    395    C    -6.714    1.305    -4.530
    396    H    -6.416    0.233    -4.611
    397    N    -6.363    1.839    -3.191
    398    C    -5.659    3.005    -3.069
    399    H    -5.217    3.382    -3.987
    400    C    -5.397    3.562    -1.886
    401    H    -4.821    4.478    -1.782
    402    C    -6.873    1.246    -2.058
    403    O    -7.608    0.258    -2.191
    404    N    -6.548    1.747    -0.839
    405    C    -5.807    2.860    -0.738
    406    N    -5.432    3.315    0.452
    407    H    -5.723    2.860    1.286
    408    H    -5.103    4.258    0.561
    409    C    -8.197    1.435    -4.787
    410    H    -8.820    1.375    -3.866
    411    O    -8.665    0.462    -5.704
    412    H    -9.579    0.699    -5.928
    413    C    -8.270    2.844    -5.334
    414    H    -8.284    3.542    -4.463
    415    O    -9.377    3.035    -6.224
    416    P    -10.689    3.719    -5.714
    417    O    -11.507    4.046    -6.898
    418    O    -10.320    4.827    -4.808
    419    O    -11.481    2.648    -4.864
    420    C    -12.792    3.119    -4.388
    421    H    -13.486    3.280    -5.245
    422    H    -12.683    4.109    -3.875
    423    C    -13.532    2.181    -3.399
    424    H    -14.299    1.563    -3.908
    425    O    -12.590    1.258    -2.835
    426    C    -12.500    1.447    -1.474
    427    H    -12.589    0.383    -1.142
    428    N    -11.264    2.154    -1.075
    429    C    -10.670    3.215    -1.710
    430    H    -11.119    3.552    -2.640
    431    C    -9.572    3.792    -1.194
    432    H    -9.079    4.640    -1.664
    433    C    -10.677    1.623    0.016
    434    O    -11.113    0.547    0.371
    435    N    -9.688    2.253    0.654
    436    C    -9.134    3.329    0.081
    437    N    -8.187    3.977    0.739
    438    H    -7.645    4.701    0.307
    439    H    -7.924    3.656    1.650
    440    C    -13.701    2.185    -0.940
    441    H    -13.410    2.932    -0.163
    442    O    -14.667    1.320    -0.364
    443    H    -15.056    0.757    -1.056
    444    C    -14.162    2.926    -2.186
    445    H    -13.723    3.948    -2.152
    446    O    -15.587    3.020    -2.319
    447    H    -15.952    3.363    -1.484
 $END
