!*** FMO 5.3 (Gamess) INPUT generated by Facio 22.1.1.32 ***
 $CONTRL RUNTYP=ENERGY NPRINT=-5 ISPHER=1 MAXIT=200 $END
 $SYSTEM MWORDS=63 MEMDDI=63 $END
 $GDDI NGROUP=1 $END
 $SCF DIRSCF=.TRUE. NPUNCH=0 $END
!*** NumCPU : 2  MemPerNode : 512MB
 $PCM SOLVNT=WATER IEF=-10 ICOMP=2 ICAV=1 IDISP=1 IFMO=-1 $END
 $PCMCAV RADII=SUAHF $END
 $TESCAV NTSALL=60 $END
 $FMOPRP
    NAODIR=200
    NGRFMO(1)=1, 1, 0, 0, 0,   0, 0, 0, 0, 0
    IPIEDA=1
    NPRINT=9
 $END
 $FMO
      SCFTYP(1)=RHF
      MODGRD=10
      MODMUL=0
      MAXCAO=5
      MAXBND=16
      NLAYER=1
      MPLEVL(1)=2
      NFRAG=14
      ICHARG(1)=-1, -1, -1, -1, -1, -1, -1, -1, -1, -1, -1, -1, -1, 0
      FRGNAM(1)=F1, F2, F3, F4, F5, F6, F7, F8, F9, F10, F11, F12, F13, F14
      indat(1)=0
               1   -36   0
               37   -70   0
               71   -101   0
               102   -134   0
               135   -165   0
               166   -195   0
               196   -225   0
               226   -256   0
               257   -290   0
               291   -324   0
               325   -354   0
               355   -388   0
               389   -419   0
               420   -447   0
 $END

 $FMOBND
   -37   36       6-31G*    MINI
   -71   70       6-31G*    MINI
   -102   101       6-31G*    MINI
   -135   134       6-31G*    MINI
   -166   165       6-31G*    MINI
   -196   195       6-31G*    MINI
   -226   225       6-31G*    MINI
   -257   256       6-31G*    MINI
   -291   290       6-31G*    MINI
   -325   324       6-31G*    MINI
   -355   354       6-31G*    MINI
   -389   388       6-31G*    MINI
   -420   419       6-31G*    MINI
 $END
 $FMOHYB
 6-31G*      15   5
   1 0  -0.065034   0.288264   0.000000   0.000000   0.604412
         0.290129   0.000000   0.000000   0.319045  -0.017106
        -0.017106   0.057934   0.000000   0.000000   0.000000
   0 1  -0.065040   0.288293   0.569832   0.000000  -0.201456
         0.290147   0.300783   0.000000  -0.106342   0.049598
        -0.017106  -0.008771   0.000000  -0.027223   0.000000
   0 1  -0.065039   0.288293  -0.284916  -0.493490  -0.201455
         0.290145  -0.150392  -0.260486  -0.106340  -0.000427
         0.032923  -0.008771   0.033353   0.013612   0.023576
   0 1  -0.065039   0.288293  -0.284916   0.493490  -0.201455
         0.290145  -0.150392   0.260486  -0.106340  -0.000427
         0.032923  -0.008771  -0.033353   0.013612  -0.023576
   0 1   1.010938  -0.011975   0.000000   0.000000   0.000000
        -0.054085   0.000000   0.000000  -0.000000  -0.003174
        -0.003174  -0.003174   0.000000   0.000000   0.000000
 MINI         5   5
   1 0  -0.104883   0.308874   0.000000   0.000000   0.521806
   0 1  -0.104883   0.308874   0.491961   0.000000  -0.173934
   0 1  -0.104883   0.308876  -0.245980  -0.426050  -0.173933
   0 1  -0.104883   0.308876  -0.245980   0.426050  -0.173933
   0 1   0.988209   0.063992   0.000000   0.000000   0.000000
 $END
 
 $DATA
 FMO calculation
 C1 
 H.1-1    1
      N31 6
   
 O.1-1    8
      N31 6
      d 1
      1 0.800 1.0
   
 C.1-1    6
      N31 6
      d 1
      1 0.800 1.0
   
 N.1-1    7
      N31 6
      d 1
      1 0.800 1.0
   
 P.1-1   15
      N31 6
      d 1
      1 0.550 1.0
   
 $END
 $FMOXYZ
    1    H    -15.565    -9.993    3.379
    2    O    -15.072    -9.221    3.051
    3    C    -13.880    -9.731    2.438
    4    H    -14.163    -10.547    1.731
    5    H    -13.211    -10.173    3.209
    6    C    -13.095    -8.700    1.636
    7    H    -12.561    -9.261    0.834
    8    O    -13.978    -7.692    0.985
    9    C    -13.252    -6.468    0.929
    10    H    -13.348    -6.029    -0.089
    11    N    -13.651    -5.508    1.965
    12    C    -13.276    -4.199    1.993
    13    N    -11.777    -1.501    0.488
    14    H    -11.368    -0.627    0.734
    15    H    -11.666    -1.837    -0.441
    16    N    -12.610    -3.561    1.025
    17    C    -12.262    -2.333    1.384
    18    N    -12.400    -1.854    2.666
    19    H    -12.097    -0.918    2.868
    20    C    -13.044    -2.525    3.704
    21    O    -13.142    -2.042    4.836
    22    C    -13.599    -3.757    3.259
    23    N    -14.318    -4.724    3.951
    24    C    -14.325    -5.753    3.136
    25    H    -14.792    -6.722    3.321
    26    C    -11.823    -6.874    1.194
    27    H    -11.244    -5.986    1.473
    28    O    -11.241    -7.506    0.065
    29    H    -10.396    -7.874    0.361
    30    C    -12.024    -7.851    2.358
    31    H    -12.491    -7.348    3.228
    32    O    -10.856    -8.608    2.768
    33    P    -10.355    -8.720    4.300
    34    O    -10.199    -10.160    4.577
    35    O    -11.222    -7.956    5.219
    36    O    -8.887    -8.163    4.518
    37    C    -7.942    -8.349    3.462
    38    H    -7.938    -9.393    3.058
    39    H    -6.919    -8.171    3.870
    40    C    -8.195    -7.353    2.343
    41    H    -8.525    -7.875    1.420
    42    O    -9.232    -6.393    2.662
    43    C    -8.924    -5.164    2.178
    44    H    -9.750    -4.825    1.516
    45    N    -8.892    -4.203    3.258
    46    C    -8.978    -2.856    3.122
    47    N    -9.253    -0.083    1.096
    48    H    -9.108    0.903    1.179
    49    H    -8.934    -0.476    0.240
    50    N    -9.013    -2.188    1.963
    51    C    -9.177    -0.884    2.137
    52    N    -9.361    -0.303    3.366
    53    H    -9.499    0.690    3.416
    54    C    -9.351    -0.981    4.581
    55    O    -9.522    -0.392    5.654
    56    C    -9.116    -2.368    4.405
    57    N    -9.078    -3.397    5.338
    58    C    -8.964    -4.477    4.605
    59    H    -8.937    -5.508    4.973
    60    C    -7.703    -5.376    1.356
    61    H    -7.096    -4.458    1.359
    62    O    -8.199    -5.724    0.066
    63    H    -8.029    -4.955    -0.488
    64    C    -6.994    -6.551    2.044
    65    H    -6.500    -6.228    2.988
    66    O    -6.210    -7.449    1.273
    67    P    -4.704    -7.583    1.040
    68    O    -4.484    -8.880    0.358
    69    O    -3.989    -7.362    2.318
    70    O    -4.467    -6.436    0.023
    71    C    -5.394    -6.389    -1.108
    72    H    -6.390    -6.858    -0.963
    73    H    -4.952    -6.990    -1.941
    74    C    -5.594    -4.945    -1.572
    75    H    -6.071    -4.920    -2.574
    76    O    -6.366    -4.078    -0.742
    77    C    -5.838    -2.781    -0.766
    78    H    -6.645    -2.140    -1.200
    79    N    -5.492    -2.292    0.591
    80    C    -5.039    -3.170    1.554
    81    H    -4.998    -4.224    1.256
    82    C    -4.765    -2.751    2.797
    83    H    -4.485    -3.437    3.594
    84    C    -5.545    -0.925    0.857
    85    O    -5.834    -0.143    -0.059
    86    N    -5.254    -0.482    2.108
    87    C    -4.907    -1.357    3.069
    88    N    -4.723    -0.902    4.307
    89    H    -4.909    0.059    4.496
    90    H    -4.528    -1.509    5.077
    91    C    -4.669    -2.824    -1.710
    92    H    -3.837    -2.152    -1.427
    93    O    -5.129    -2.518    -2.986
    94    H    -4.407    -2.045    -3.439
    95    C    -4.281    -4.289    -1.618
    96    H    -3.738    -4.419    -0.649
    97    O    -3.682    -4.939    -2.728
    98    P    -2.186    -5.229    -2.718
    99    O    -1.933    -6.534    -3.386
    100    O    -1.618    -5.010    -1.372
    101    O    -1.871    -4.104    -3.644
    102    C    -2.621    -3.599    -4.744
    103    H    -3.726    -3.621    -4.639
    104    H    -2.354    -4.164    -5.662
    105    C    -2.154    -2.191    -4.849
    106    H    -2.437    -1.753    -5.827
    107    O    -2.683    -1.366    -3.800
    108    C    -1.763    -0.306    -3.585
    109    H    -2.194    0.693    -3.799
    110    N    -1.304    -0.339    -2.184
    111    C    -0.609    0.181    -0.165
    112    N    -0.800    -1.196    -0.166
    113    C    -1.209    -1.455    -1.382
    114    H    -1.463    -2.448    -1.769
    115    N    -0.027    2.383    0.502
    116    C    -0.342    2.749    -0.743
    117    H    -0.222    3.816    -0.948
    118    N    -0.790    2.008    -1.766
    119    C    -0.909    0.721    -1.404
    120    C    -0.160    1.075    0.832
    121    N    0.156    0.690    2.080
    122    H    0.266    -0.283    2.292
    123    H    0.642    1.340    2.660
    124    C    -0.657    -0.541    -4.575
    125    H    0.166    -0.032    -4.072
    126    O    -0.810    0.020    -5.869
    127    H    -0.035    -0.264    -6.375
    128    C    -0.677    -2.067    -4.565
    129    H    -0.423    -2.363    -3.524
    130    O    0.029    -2.892    -5.488
    131    P    0.959    -4.112    -5.011
    132    O    0.906    -5.209    -6.004
    133    O    0.846    -4.506    -3.588
    134    O    2.335    -3.449    -5.183
    135    C    2.431    -2.567    -6.340
    136    H    1.559    -2.513    -7.040
    137    H    3.142    -3.001    -7.050
    138    C    2.777    -1.153    -5.895
    139    H    2.578    -0.431    -6.716
    140    O    2.028    -0.770    -4.774
    141    C    2.626    0.280    -4.066
    142    H    1.984    1.171    -4.267
    143    N    2.638    0.042    -2.587
    144    C    2.156    -1.148    -2.068
    145    H    1.873    -1.919    -2.792
    146    C    2.115    -1.366    -0.748
    147    H    1.794    -2.317    -0.325
    148    C    2.948    1.082    -1.712
    149    O    3.203    2.208    -2.166
    150    N    2.982    0.850    -0.383
    151    C    2.600    -0.336    0.113
    152    N    2.732    -0.560    1.426
    153    H    3.045    0.197    2.004
    154    H    2.518    -1.443    1.841
    155    C    3.974    0.446    -4.720
    156    H    4.774    0.685    -3.995
    157    O    3.876    1.464    -5.701
    158    H    4.683    1.457    -6.240
    159    C    4.137    -0.954    -5.351
    160    H    4.266    -1.715    -4.550
    161    O    5.039    -1.085    -6.441
    162    P    5.701    -2.509    -6.694
    163    O    5.838    -2.699    -8.159
    164    O    5.061    -3.597    -5.926
    165    O    7.095    -2.309    -6.076
    166    C    7.767    -1.050    -6.239
    167    H    7.199    -0.246    -6.764
    168    H    8.673    -1.227    -6.856
    169    C    8.222    -0.534    -4.894
    170    H    8.949    0.297    -5.050
    171    O    7.145    -0.018    -4.071
    172    C    7.549    -0.135    -2.711
    173    H    7.650    0.909    -2.333
    174    N    6.574    -0.909    -1.899
    175    C    5.723    -1.820    -2.470
    176    H    5.864    -1.967    -3.544
    177    C    6.590    -0.719    -0.545
    178    O    7.337    0.093    -0.018
    179    N    5.708    -1.478    0.172
    180    H    5.761    -1.425    1.174
    181    C    4.817    -2.402    -0.328
    182    O    4.072    -3.013    0.438
    183    C    4.836    -2.530    -1.758
    184    H    4.142    -3.229    -2.225
    185    C    8.920    -0.811    -2.718
    186    H    9.075    -1.483    -1.847
    187    O    9.955    0.147    -2.785
    188    H    10.756    -0.355    -2.965
    189    C    8.831    -1.596    -4.007
    190    H    8.074    -2.408    -3.886
    191    O    10.073    -2.028    -4.585
    192    P    10.389    -3.565    -4.640
    193    O    11.115    -3.858    -5.898
    194    O    9.207    -4.405    -4.328
    195    O    11.357    -3.621    -3.422
    196    C    12.215    -4.747    -3.181
    197    H    12.535    -5.248    -4.126
    198    H    11.678    -5.498    -2.558
    199    C    13.478    -4.304    -2.439
    200    H    14.152    -5.178    -2.308
    201    O    14.202    -3.302    -3.215
    202    C    14.419    -2.142    -2.449
    203    H    15.446    -2.258    -2.034
    204    N    14.297    -0.911    -3.292
    205    C    13.170    -0.699    -4.051
    206    H    12.449    -1.517    -4.039
    207    C    15.325    0.006    -3.292
    208    O    16.349    -0.143    -2.633
    209    N    15.127    1.107    -4.088
    210    H    15.876    1.785    -4.091
    211    C    14.025    1.397    -4.860
    212    O    13.996    2.431    -5.530
    213    C    12.993    0.404    -4.801
    214    H    12.097    0.556    -5.397
    215    C    13.440    -2.168    -1.296
    216    H    12.477    -1.698    -1.591
    217    O    14.008    -1.512    -0.181
    218    H    13.393    -1.572    0.573
    219    C    13.206    -3.673    -1.057
    220    H    12.121    -3.806    -0.835
    221    O    14.036    -4.266    -0.035
    222    P    13.477    -5.340    0.974
    223    O    14.562    -5.705    1.920
    224    O    12.855    -6.436    0.195
    225    O    12.319    -4.609    1.736
    226    C    12.362    -4.309    3.148
    227    H    13.182    -3.578    3.342
    228    H    12.590    -5.223    3.741
    229    C    11.052    -3.684    3.707
    230    H    11.308    -2.841    4.370
    231    O    10.170    -3.205    2.642
    232    C    8.997    -3.995    2.664
    233    H    8.269    -3.401    3.258
    234    N    8.463    -4.270    1.334
    235    C    9.327    -4.460    0.287
    236    H    10.388    -4.389    0.528
    237    C    8.868    -4.679    -0.950
    238    H    9.526    -4.804    -1.807
    239    C    7.091    -4.317    1.140
    240    O    6.330    -4.052    2.086
    241    N    6.621    -4.629    -0.088
    242    C    7.459    -4.744    -1.127
    243    N    6.950    -4.897    -2.345
    244    H    7.546    -4.877    -3.152
    245    H    5.959    -4.940    -2.458
    246    C    9.375    -5.251    3.413
    247    H    10.041    -5.899    2.801
    248    O    8.271    -5.981    3.905
    249    H    7.851    -5.406    4.556
    250    C    10.132    -4.605    4.538
    251    H    10.743    -5.335    5.114
    252    O    9.281    -3.803    5.377
    253    P    8.714    -4.121    6.779
    254    O    9.210    -5.446    7.218
    255    O    7.244    -3.960    6.742
    256    O    9.316    -2.972    7.692
    257    C    9.090    -1.548    7.438
    258    H    8.474    -1.131    8.263
    259    H    8.527    -1.384    6.490
    260    C    10.398    -0.701    7.335
    261    H    10.911    -0.686    8.317
    262    O    11.282    -1.398    6.410
    263    C    12.176    -0.481    5.820
    264    H    13.179    -0.802    6.188
    265    N    12.175    -0.511    4.363
    266    C    11.155    -0.293    3.462
    267    N    7.854    0.446    2.747
    268    H    7.331    0.643    1.924
    269    H    7.471    0.650    3.646
    270    N    9.873    0.005    3.742
    271    C    9.138    0.163    2.661
    272    N    9.649    0.118    1.396
    273    H    9.006    0.216    0.630
    274    C    10.956    -0.181    1.067
    275    O    11.324    -0.207    -0.108
    276    C    11.749    -0.392    2.222
    277    N    13.100    -0.672    2.340
    278    C    13.310    -0.718    3.626
    279    H    14.271    -0.930    4.098
    280    C    11.854    0.895    6.318
    281    H    11.959    1.680    5.534
    282    O    12.693    1.195    7.418
    283    H    12.277    1.924    7.904
    284    C    10.407    0.766    6.747
    285    H    9.693    0.767    5.911
    286    O    10.066    1.802    7.668
    287    P    9.723    3.317    7.299
    288    O    10.310    4.135    8.385
    289    O    8.256    3.370    7.176
    290    O    10.304    3.886    5.908
    291    C    10.092    5.364    5.748
    292    H    10.944    5.888    6.239
    293    H    9.166    5.722    6.262
    294    C    9.975    5.998    4.303
    295    H    10.779    6.756    4.189
    296    O    10.235    4.946    3.302
    297    C    9.240    5.014    2.281
    298    H    9.707    4.734    1.310
    299    N    8.086    4.144    2.587
    300    C    7.107    3.720    1.727
    301    N    5.775    3.422    -1.461
    302    H    6.458    3.863    -2.042
    303    H    4.940    3.055    -1.872
    304    N    7.052    3.951    0.403
    305    C    5.980    3.375    -0.159
    306    N    5.017    2.721    0.563
    307    H    4.248    2.288    0.074
    308    C    5.039    2.495    1.928
    309    O    4.145    1.874    2.507
    310    C    6.192    3.053    2.521
    311    N    6.598    3.025    3.838
    312    C    7.733    3.662    3.832
    313    H    8.352    3.821    4.712
    314    C    8.804    6.454    2.267
    315    H    7.860    6.620    1.705
    316    O    9.840    7.267    1.727
    317    H    10.663    7.070    2.202
    318    C    8.616    6.665    3.769
    319    H    7.783    6.046    4.155
    320    O    8.378    8.055    4.110
    321    P    7.025    8.625    4.768
    322    O    7.369    9.923    5.388
    323    O    6.466    7.596    5.672
    324    O    5.915    8.943    3.660
    325    C    4.724    9.789    3.968
    326    H    4.911    10.829    3.631
    327    H    4.515    9.824    5.063
    328    C    3.395    9.282    3.289
    329    H    3.113    8.416    3.916
    330    O    3.742    8.814    1.963
    331    C    2.620    8.184    1.459
    332    H    2.751    8.146    0.354
    333    N    2.498    6.779    2.032
    334    C    3.402    6.299    2.981
    335    H    4.265    6.931    3.208
    336    C    1.620    5.892    1.448
    337    O    0.992    6.163    0.430
    338    N    1.506    4.677    2.094
    339    H    0.856    4.017    1.696
    340    C    2.171    4.277    3.239
    341    O    1.827    3.261    3.838
    342    C    3.239    5.143    3.628
    343    H    3.855    4.883    4.485
    344    C    1.465    9.152    1.808
    345    H    0.532    8.592    2.027
    346    O    1.254    10.051    0.731
    347    H    0.572    10.694    0.980
    348    C    1.972    9.943    3.042
    349    H    2.131    11.017    2.803
    350    O    1.076    9.781    4.159
    351    P    -0.260    10.479    4.670
    352    O    -0.163    11.958    4.580
    353    O    -0.424    9.952    6.041
    354    O    -1.511    9.958    3.918
    355    C    -2.726    10.376    3.226
    356    H    -2.758    11.481    3.117
    357    H    -3.594    10.088    3.861
    358    C    -2.893    9.664    1.810
    359    H    -2.404    10.330    1.069
    360    O    -2.068    8.490    1.964
    361    C    -2.799    7.327    1.869
    362    H    -2.001    6.766    1.324
    363    N    -3.018    6.461    2.986
    364    C    -3.276    5.131    2.740
    365    N    -3.678    2.523    0.474
    366    H    -4.088    1.613    0.462
    367    H    -3.656    3.051    -0.372
    368    N    -3.334    4.540    1.524
    369    C    -3.580    3.243    1.579
    370    N    -3.752    2.576    2.761
    371    H    -3.956    1.596    2.720
    372    C    -3.680    3.160    4.031
    373    O    -3.830    2.485    5.053
    374    C    -3.445    4.565    3.970
    375    N    -3.346    5.533    4.978
    376    C    -3.102    6.659    4.331
    377    H    -2.962    7.650    4.773
    378    C    -4.021    7.544    1.109
    379    H    -4.933    7.038    1.504
    380    O    -3.591    6.983    -0.103
    381    H    -4.141    6.217    -0.336
    382    C    -4.227    9.066    1.101
    383    H    -5.080    9.352    1.758
    384    O    -4.467    9.545    -0.251
    385    P    -5.301    9.002    -1.544
    386    O    -4.684    9.684    -2.704
    387    O    -6.717    9.341    -1.275
    388    O    -5.283    7.419    -1.834
    389    C    -5.577    6.527    -2.944
    390    H    -5.274    6.984    -3.908
    391    H    -6.677    6.403    -2.978
    392    C    -4.954    5.053    -2.899
    393    H    -3.905    5.087    -3.256
    394    O    -4.954    4.583    -1.529
    395    C    -6.056    3.706    -1.345
    396    H    -5.576    2.713    -1.171
    397    N    -6.905    4.025    -0.168
    398    C    -6.875    5.295    0.337
    399    H    -6.259    6.011    -0.209
    400    C    -7.541    5.611    1.452
    401    H    -7.476    6.596    1.906
    402    C    -7.739    3.066    0.419
    403    O    -7.820    1.942    -0.079
    404    N    -8.427    3.368    1.540
    405    C    -8.300    4.586    2.085
    406    N    -8.862    4.816    3.265
    407    H    -9.349    4.064    3.710
    408    H    -8.783    5.697    3.731
    409    C    -6.826    3.633    -2.623
    410    H    -7.657    4.369    -2.688
    411    O    -7.268    2.318    -2.698
    412    H    -6.542    1.684    -2.558
    413    C    -5.772    3.897    -3.656
    414    H    -6.184    4.345    -4.585
    415    O    -5.036    2.691    -3.973
    416    P    -5.314    1.395    -4.881
    417    O    -4.218    0.543    -4.527
    418    O    -5.383    1.802    -6.300
    419    O    -6.573    0.447    -4.582
    420    C    -6.526    -0.897    -5.201
    421    H    -5.650    -1.444    -4.833
    422    H    -6.296    -0.840    -6.297
    423    C    -7.771    -1.850    -5.064
    424    H    -7.455    -2.897    -5.230
    425    O    -8.434    -1.817    -3.758
    426    C    -9.826    -1.531    -3.885
    427    H    -10.344    -2.392    -3.405
    428    N    -10.211    -0.283    -3.168
    429    C    -9.472    0.799    -3.469
    430    H    -8.536    0.579    -3.933
    431    C    -9.788    2.019    -3.028
    432    H    -9.237    2.917    -3.272
    433    C    -11.431    -0.052    -2.534
    434    O    -12.303    -0.930    -2.573
    435    N    -11.642    1.132    -1.879
    436    C    -10.792    2.152    -2.090
    437    N    -10.851    3.315    -1.434
    438    H    -11.666    3.573    -0.918
    439    H    -10.086    3.955    -1.483
    440    C    -10.199    -1.508    -5.368
    441    H    -10.732    -0.564    -5.630
    442    O    -11.029    -2.606    -5.713
    443    H    -10.508    -3.425    -5.659
    444    C    -8.841    -1.511    -6.099
    445    H    -8.610    -0.473    -6.422
    446    O    -8.755    -2.400    -7.232
    447    H    -9.494    -2.223    -7.842
 $END
