!*** FMO 5.3 (Gamess) INPUT generated by Facio 22.1.1.32 ***
 $CONTRL RUNTYP=ENERGY NPRINT=-5 ISPHER=1 MAXIT=200 $END
 $SYSTEM MWORDS=63 MEMDDI=63 $END
 $GDDI NGROUP=1 $END
 $SCF DIRSCF=.TRUE. NPUNCH=0 $END
!*** NumCPU : 2  MemPerNode : 512MB
 $PCM SOLVNT=WATER IEF=-10 ICOMP=2 ICAV=1 IDISP=1 IFMO=-1 $END
 $PCMCAV RADII=SUAHF $END
 $TESCAV NTSALL=60 $END
 $FMOPRP
    NAODIR=200
    NGRFMO(1)=1, 1, 0, 0, 0,   0, 0, 0, 0, 0
    IPIEDA=1
    NPRINT=9
 $END
 $FMO
      SCFTYP(1)=RHF
      MODGRD=10
      MODMUL=0
      MAXCAO=5
      MAXBND=16
      NLAYER=1
      MPLEVL(1)=2
      NFRAG=14
      ICHARG(1)=-1, -1, -1, -1, -1, -1, -1, -1, -1, -1, -1, -1, -1, 0
      FRGNAM(1)=F1, F2, F3, F4, F5, F6, F7, F8, F9, F10, F11, F12, F13, F14
      indat(1)=0
               1   -36   0
               37   -70   0
               71   -101   0
               102   -134   0
               135   -165   0
               166   -195   0
               196   -225   0
               226   -256   0
               257   -290   0
               291   -324   0
               325   -354   0
               355   -388   0
               389   -419   0
               420   -447   0
 $END

 $FMOBND
   -37   36       6-31G*    MINI
   -71   70       6-31G*    MINI
   -102   101       6-31G*    MINI
   -135   134       6-31G*    MINI
   -166   165       6-31G*    MINI
   -196   195       6-31G*    MINI
   -226   225       6-31G*    MINI
   -257   256       6-31G*    MINI
   -291   290       6-31G*    MINI
   -325   324       6-31G*    MINI
   -355   354       6-31G*    MINI
   -389   388       6-31G*    MINI
   -420   419       6-31G*    MINI
 $END
 $FMOHYB
 6-31G*      15   5
   1 0  -0.065034   0.288264   0.000000   0.000000   0.604412
         0.290129   0.000000   0.000000   0.319045  -0.017106
        -0.017106   0.057934   0.000000   0.000000   0.000000
   0 1  -0.065040   0.288293   0.569832   0.000000  -0.201456
         0.290147   0.300783   0.000000  -0.106342   0.049598
        -0.017106  -0.008771   0.000000  -0.027223   0.000000
   0 1  -0.065039   0.288293  -0.284916  -0.493490  -0.201455
         0.290145  -0.150392  -0.260486  -0.106340  -0.000427
         0.032923  -0.008771   0.033353   0.013612   0.023576
   0 1  -0.065039   0.288293  -0.284916   0.493490  -0.201455
         0.290145  -0.150392   0.260486  -0.106340  -0.000427
         0.032923  -0.008771  -0.033353   0.013612  -0.023576
   0 1   1.010938  -0.011975   0.000000   0.000000   0.000000
        -0.054085   0.000000   0.000000  -0.000000  -0.003174
        -0.003174  -0.003174   0.000000   0.000000   0.000000
 MINI         5   5
   1 0  -0.104883   0.308874   0.000000   0.000000   0.521806
   0 1  -0.104883   0.308874   0.491961   0.000000  -0.173934
   0 1  -0.104883   0.308876  -0.245980  -0.426050  -0.173933
   0 1  -0.104883   0.308876  -0.245980   0.426050  -0.173933
   0 1   0.988209   0.063992   0.000000   0.000000   0.000000
 $END
 
 $DATA
 FMO calculation
 C1 
 H.1-1    1
      N31 6
   
 O.1-1    8
      N31 6
      d 1
      1 0.800 1.0
   
 C.1-1    6
      N31 6
      d 1
      1 0.800 1.0
   
 N.1-1    7
      N31 6
      d 1
      1 0.800 1.0
   
 P.1-1   15
      N31 6
      d 1
      1 0.550 1.0
   
 $END
 $FMOXYZ
    1    H    -7.429    -4.255    10.166
    2    O    -7.849    -4.378    9.293
    3    C    -8.155    -5.777    9.179
    4    H    -8.659    -6.105    10.116
    5    H    -7.206    -6.352    9.088
    6    C    -9.070    -6.138    7.994
    7    H    -9.514    -7.146    8.144
    8    O    -10.175    -5.196    7.895
    9    C    -10.427    -4.912    6.531
    10    H    -11.503    -5.149    6.358
    11    N    -10.191    -3.499    6.218
    12    C    -10.613    -2.831    5.096
    13    N    -12.252    -2.766    2.033
    14    H    -12.577    -3.706    1.926
    15    H    -12.440    -2.105    1.309
    16    N    -11.318    -3.353    4.070
    17    C    -11.577    -2.445    3.123
    18    N    -11.188    -1.133    3.214
    19    H    -11.416    -0.508    2.459
    20    C    -10.491    -0.574    4.281
    21    O    -10.183    0.619    4.330
    22    C    -10.187    -1.532    5.271
    23    N    -9.492    -1.385    6.464
    24    C    -9.519    -2.581    6.996
    25    H    -9.076    -2.855    7.956
    26    C    -9.576    -5.832    5.693
    27    H    -9.246    -5.343    4.758
    28    O    -10.278    -7.011    5.364
    29    H    -9.664    -7.514    4.809
    30    C    -8.398    -6.140    6.608
    31    H    -7.652    -5.312    6.598
    32    O    -7.786    -7.424    6.390
    33    P    -6.892    -7.819    5.164
    34    O    -6.693    -9.282    5.215
    35    O    -5.687    -6.963    5.209
    36    O    -7.702    -7.448    3.857
    37    C    -8.384    -8.362    2.963
    38    H    -9.174    -8.905    3.535
    39    H    -7.683    -9.124    2.560
    40    C    -9.105    -7.658    1.760
    41    H    -9.952    -8.292    1.422
    42    O    -9.688    -6.415    2.242
    43    C    -9.497    -5.374    1.304
    44    H    -10.509    -4.938    1.136
    45    N    -8.634    -4.308    1.829
    46    C    -8.481    -3.055    1.301
    47    N    -9.140    -0.721    -1.174
    48    H    -9.735    -1.221    -1.803
    49    H    -8.868    0.219    -1.395
    50    N    -9.059    -2.591    0.180
    51    C    -8.729    -1.325    -0.073
    52    N    -7.938    -0.580    0.763
    53    H    -7.745    0.375    0.504
    54    C    -7.354    -1.023    1.942
    55    O    -6.655    -0.287    2.646
    56    C    -7.641    -2.389    2.174
    57    N    -7.225    -3.223    3.197
    58    C    -7.841    -4.349    2.950
    59    H    -7.742    -5.249    3.548
    60    C    -8.992    -5.971    0.016
    61    H    -8.274    -5.310    -0.518
    62    O    -10.099    -6.244    -0.822
    63    H    -9.779    -6.803    -1.546
    64    C    -8.310    -7.262    0.467
    65    H    -7.260    -7.069    0.787
    66    O    -8.390    -8.302    -0.536
    67    P    -7.469    -8.385    -1.822
    68    O    -7.970    -9.487    -2.672
    69    O    -6.092    -8.516    -1.312
    70    O    -7.554    -7.035    -2.669
    71    C    -7.398    -7.120    -4.132
    72    H    -8.406    -7.303    -4.571
    73    H    -6.747    -7.968    -4.452
    74    C    -6.863    -5.848    -4.865
    75    H    -7.255    -5.834    -5.905
    76    O    -7.390    -4.667    -4.210
    77    C    -6.430    -3.635    -4.247
    78    H    -6.956    -2.778    -4.726
    79    N    -5.969    -3.235    -2.895
    80    C    -6.015    -4.094    -1.822
    81    H    -6.448    -5.076    -2.022
    82    C    -5.591    -3.709    -0.608
    83    H    -5.636    -4.363    0.261
    84    C    -5.437    -1.968    -2.742
    85    O    -5.378    -1.232    -3.734
    86    N    -5.000    -1.560    -1.533
    87    C    -5.066    -2.387    -0.478
    88    N    -4.645    -1.936    0.702
    89    H    -4.307    -0.995    0.769
    90    H    -4.657    -2.495    1.534
    91    C    -5.283    -4.072    -5.144
    92    H    -4.303    -3.669    -4.805
    93    O    -5.517    -3.663    -6.483
    94    H    -4.763    -3.971    -7.008
    95    C    -5.326    -5.596    -4.983
    96    H    -4.879    -5.893    -4.007
    97    O    -4.747    -6.330    -6.095
    98    P    -3.172    -6.399    -6.272
    99    O    -2.880    -7.529    -7.184
    100    O    -2.520    -6.432    -4.947
    101    O    -2.782    -5.056    -6.986
    102    C    -2.013    -5.008    -8.219
    103    H    -2.717    -5.090    -9.079
    104    H    -1.289    -5.854    -8.308
    105    C    -1.214    -3.689    -8.403
    106    H    -1.249    -3.357    -9.462
    107    O    -1.800    -2.619    -7.594
    108    C    -0.776    -1.878    -6.970
    109    H    -0.977    -0.806    -7.201
    110    N    -0.771    -2.064    -5.514
    111    C    -0.547    -1.745    -3.349
    112    N    -0.977    -3.053    -3.506
    113    C    -1.098    -3.194    -4.802
    114    H    -1.426    -4.109    -5.298
    115    N    0.145    0.300    -2.401
    116    C    0.247    0.766    -3.649
    117    H    0.579    1.808    -3.744
    118    N    -0.017    0.143    -4.804
    119    C    -0.412    -1.122    -4.579
    120    C    -0.242    -0.983    -2.204
    121    N    -0.310    -1.473    -0.950
    122    H    -0.550    -2.431    -0.765
    123    H    -0.026    -0.909    -0.170
    124    C    0.529    -2.286    -7.597
    125    H    1.357    -2.230    -6.868
    126    O    0.804    -1.468    -8.720
    127    H    1.672    -1.741    -9.051
    128    C    0.277    -3.741    -7.987
    129    H    0.340    -4.403    -7.094
    130    O    1.095    -4.224    -9.078
    131    P    2.562    -4.788    -8.881
    132    O    3.174    -4.962    -10.216
    133    O    2.511    -6.000    -8.034
    134    O    3.377    -3.709    -8.086
    135    C    4.362    -2.837    -8.691
    136    H    4.047    -2.534    -9.717
    137    H    5.336    -3.374    -8.789
    138    C    4.586    -1.523    -7.897
    139    H    4.718    -0.678    -8.601
    140    O    3.412    -1.213    -7.097
    141    C    3.782    -0.719    -5.830
    142    H    3.221    0.239    -5.726
    143    N    3.404    -1.617    -4.699
    144    C    2.992    -2.920    -4.887
    145    H    2.975    -3.276    -5.916
    146    C    2.627    -3.692    -3.851
    147    H    2.280    -4.716    -3.978
    148    C    3.441    -1.091    -3.414
    149    O    3.771    0.093    -3.265
    150    N    3.132    -1.866    -2.357
    151    C    2.706    -3.123    -2.544
    152    N    2.358    -3.830    -1.475
    153    H    2.413    -3.390    -0.580
    154    H    2.044    -4.782    -1.541
    155    C    5.266    -0.427    -5.887
    156    H    5.774    -0.556    -4.906
    157    O    5.469    0.892    -6.363
    158    H    6.400    0.962    -6.621
    159    C    5.753    -1.462    -6.894
    160    H    5.808    -2.468    -6.417
    161    O    6.969    -1.059    -7.560
    162    P    8.298    -1.875    -7.418
    163    O    9.264    -1.374    -8.417
    164    O    7.982    -3.319    -7.442
    165    O    8.819    -1.510    -5.984
    166    C    9.529    -0.288    -5.677
    167    H    9.007    0.602    -6.103
    168    H    10.555    -0.313    -6.111
    169    C    9.659    -0.077    -4.154
    170    H    10.099    0.919    -3.930
    171    O    8.329    -0.120    -3.548
    172    C    8.411    -0.745    -2.274
    173    H    8.014    0.012    -1.557
    174    N    7.590    -1.988    -2.180
    175    C    7.188    -2.664    -3.308
    176    H    7.496    -2.219    -4.253
    177    C    7.221    -2.434    -0.928
    178    O    7.549    -1.857    0.102
    179    N    6.443    -3.563    -0.913
    180    H    6.216    -3.938    -0.005
    181    C    6.036    -4.308    -1.997
    182    O    5.364    -5.325    -1.837
    183    C    6.442    -3.778    -3.263
    184    H    6.138    -4.303    -4.166
    185    C    9.888    -0.967    -1.977
    186    H    10.064    -1.866    -1.349
    187    O    10.447    0.179    -1.357
    188    H    11.331    -0.092    -1.070
    189    C    10.469    -1.138    -3.373
    190    H    10.181    -2.124    -3.804
    191    O    11.896    -0.876    -3.465
    192    P    12.916    -2.017    -3.071
    193    O    14.113    -1.827    -3.918
    194    O    12.241    -3.333    -3.134
    195    O    13.316    -1.728    -1.560
    196    C    14.427    -2.506    -1.016
    197    H    15.223    -2.704    -1.779
    198    H    14.066    -3.500    -0.664
    199    C    15.144    -1.811    0.161
    200    H    16.008    -2.442    0.462
    201    O    15.669    -0.519    -0.252
    202    C    15.160    0.496    0.585
    203    H    15.959    0.670    1.345
    204    N    14.840    1.717    -0.197
    205    C    14.040    1.625    -1.313
    206    H    13.734    0.612    -1.579
    207    C    15.312    2.932    0.242
    208    O    16.004    3.053    1.248
    209    N    14.945    4.005    -0.531
    210    H    15.294    4.902    -0.228
    211    C    14.165    3.994    -1.668
    212    O    13.926    5.046    -2.262
    213    C    13.691    2.694    -2.047
    214    H    13.062    2.608    -2.931
    215    C    13.943    -0.058    1.287
    216    H    13.034    0.045    0.654
    217    O    13.764    0.582    2.535
    218    H    12.918    0.300    2.925
    219    C    14.294    -1.540    1.421
    220    H    13.350    -2.124    1.314
    221    O    15.020    -1.854    2.638
    222    P    14.658    -3.164    3.436
    223    O    15.389    -3.163    4.721
    224    O    14.907    -4.319    2.548
    225    O    13.119    -3.067    3.696
    226    C    12.539    -2.777    4.985
    227    H    12.528    -1.672    5.133
    228    H    13.120    -3.229    5.829
    229    C    11.072    -3.255    5.086
    230    H    10.543    -2.632    5.837
    231    O    10.366    -3.110    3.819
    232    C    9.877    -4.365    3.402
    233    H    8.829    -4.408    3.781
    234    N    9.926    -4.509    1.930
    235    C    11.049    -4.079    1.267
    236    H    11.807    -3.600    1.887
    237    C    11.162    -4.204    -0.061
    238    H    12.034    -3.857    -0.610
    239    C    8.903    -5.142    1.231
    240    O    7.922    -5.581    1.855
    241    N    8.998    -5.273    -0.116
    242    C    10.090    -4.823    -0.763
    243    N    10.170    -4.952    -2.087
    244    H    10.940    -4.537    -2.591
    245    H    9.467    -5.459    -2.584
    246    C    10.705    -5.405    4.118
    247    H    11.695    -5.520    3.625
    248    O    10.042    -6.650    4.229
    249    H    9.293    -6.508    4.830
    250    C    10.886    -4.735    5.479
    251    H    11.837    -5.111    5.927
    252    O    9.741    -4.910    6.347
    253    P    9.909    -5.083    7.901
    254    O    11.253    -5.619    8.213
    255    O    8.748    -5.858    8.389
    256    O    9.819    -3.634    8.502
    257    C    8.626    -2.829    8.358
    258    H    7.875    -3.109    9.130
    259    H    8.160    -2.977    7.355
    260    C    8.936    -1.327    8.494
    261    H    9.155    -1.057    9.546
    262    O    10.116    -0.997    7.718
    263    C    10.028    0.331    7.260
    264    H    10.818    0.882    7.820
    265    N    10.297    0.420    5.832
    266    C    9.605    -0.090    4.750
    267    N    6.986    -1.916    3.400
    268    H    6.705    -2.265    2.514
    269    H    6.499    -2.204    4.221
    270    N    8.459    -0.799    4.771
    271    C    8.078    -1.183    3.558
    272    N    8.763    -0.864    2.415
    273    H    8.438    -1.237    1.541
    274    C    9.973    -0.183    2.387
    275    O    10.590    0.056    1.350
    276    C    10.347    0.289    3.655
    277    N    11.442    1.047    4.022
    278    C    11.377    1.093    5.325
    279    H    12.098    1.603    5.968
    280    C    8.672    0.884    7.628
    281    H    8.190    1.432    6.788
    282    O    8.782    1.726    8.758
    283    H    7.886    1.832    9.112
    284    C    7.871    -0.374    7.943
    285    H    7.514    -0.846    7.003
    286    O    6.809    -0.162    8.897
    287    P    5.365    0.133    8.342
    288    O    4.587    0.823    9.396
    289    O    4.826    -1.152    7.848
    290    O    5.564    1.108    7.131
    291    C    5.552    2.547    7.225
    292    H    6.290    2.881    7.988
    293    H    4.546    2.897    7.551
    294    C    5.909    3.289    5.905
    295    H    6.591    4.141    6.124
    296    O    6.598    2.409    4.962
    297    C    6.028    2.558    3.672
    298    H    6.872    2.640    2.947
    299    N    5.174    1.410    3.322
    300    C    4.887    0.974    2.060
    301    N    5.255    1.269    -1.354
    302    H    5.831    2.077    -1.452
    303    H    4.837    0.851    -2.166
    304    N    5.341    1.518    0.923
    305    C    4.904    0.870    -0.151
    306    N    4.085    -0.233    -0.090
    307    H    3.800    -0.679    -0.949
    308    C    3.610    -0.825    1.075
    309    O    2.890    -1.829    1.060
    310    C    4.053    -0.118    2.222
    311    N    3.797    -0.345    3.562
    312    C    4.486    0.582    4.177
    313    H    4.526    0.707    5.253
    314    C    5.244    3.844    3.690
    315    H    4.425    3.857    2.938
    316    O    6.107    4.946    3.470
    317    H    5.617    5.737    3.727
    318    C    4.705    3.839    5.113
    319    H    3.894    3.081    5.222
    320    O    4.329    5.145    5.609
    321    P    2.839    5.634    5.416
    322    O    2.675    6.951    6.069
    323    O    1.942    4.548    5.866
    324    O    2.670    5.795    3.860
    325    C    3.215    6.912    3.124
    326    H    4.325    6.923    3.185
    327    H    2.842    7.876    3.532
    328    C    2.814    6.881    1.640
    329    H    3.274    7.727    1.086
    330    O    3.282    5.654    1.015
    331    C    2.310    5.208    0.079
    332    H    2.848    5.157    -0.898
    333    N    1.764    3.870    0.444
    334    C    1.765    3.420    1.748
    335    H    2.228    4.088    2.470
    336    C    1.258    3.089    -0.569
    337    O    1.257    3.443    -1.743
    338    N    0.777    1.875    -0.167
    339    H    0.452    1.281    -0.924
    340    C    0.761    1.346    1.102
    341    O    0.316    0.216    1.296
    342    C    1.296    2.214    2.106
    343    H    1.337    1.859    3.133
    344    C    1.218    6.265    -0.003
    345    H    0.214    5.818    -0.171
    346    O    1.493    7.200    -1.033
    347    H    0.751    7.821    -1.036
    348    C    1.299    6.903    1.379
    349    H    0.839    6.235    2.143
    350    O    0.805    8.257    1.466
    351    P    -0.737    8.524    1.631
    352    O    -0.953    9.984    1.743
    353    O    -1.245    7.679    2.732
    354    O    -1.371    8.018    0.293
    355    C    -1.815    8.927    -0.738
    356    H    -0.951    9.507    -1.139
    357    H    -2.558    9.654    -0.334
    358    C    -2.479    8.187    -1.916
    359    H    -2.416    8.785    -2.849
    360    O    -1.814    6.905    -2.153
    361    C    -2.791    5.915    -2.417
    362    H    -2.486    5.436    -3.379
    363    N    -2.860    4.895    -1.358
    364    C    -3.276    3.618    -1.564
    365    N    -4.427    1.220    -3.728
    366    H    -4.502    1.727    -4.585
    367    H    -4.752    0.268    -3.690
    368    N    -3.665    3.119    -2.742
    369    C    -4.023    1.851    -2.652
    370    N    -3.998    1.135    -1.483
    371    H    -4.318    0.179    -1.504
    372    C    -3.610    1.623    -0.242
    373    O    -3.632    0.893    0.754
    374    C    -3.216    2.992    -0.331
    375    N    -2.765    3.878    0.645
    376    C    -2.568    4.997    -0.017
    377    H    -2.206    5.925    0.424
    378    C    -4.119    6.613    -2.612
    379    H    -4.980    5.985    -2.300
    380    O    -4.273    6.992    -3.967
    381    H    -5.085    7.512    -4.026
    382    C    -3.960    7.820    -1.695
    383    H    -4.036    7.500    -0.629
    384    O    -4.819    8.943    -2.014
    385    P    -6.157    9.159    -1.199
    386    O    -6.758    10.452    -1.590
    387    O    -5.888    8.965    0.239
    388    O    -7.093    7.997    -1.680
    389    C    -7.787    8.094    -2.944
    390    H    -7.128    8.510    -3.747
    391    H    -8.644    8.791    -2.836
    392    C    -8.339    6.726    -3.395
    393    H    -8.569    6.729    -4.482
    394    O    -7.358    5.678    -3.155
    395    C    -8.011    4.489    -2.754
    396    H    -7.760    3.754    -3.554
    397    N    -7.513    3.956    -1.452
    398    C    -6.925    4.789    -0.523
    399    H    -6.839    5.840    -0.808
    400    C    -6.466    4.315    0.645
    401    H    -5.983    4.947    1.388
    402    C    -7.669    2.602    -1.162
    403    O    -8.229    1.863    -1.987
    404    N    -7.204    2.111    0.006
    405    C    -6.620    2.923    0.903
    406    N    -6.185    2.406    2.048
    407    H    -6.280    1.420    2.206
    408    H    -5.712    2.950    2.745
    409    C    -9.519    4.740    -2.771
    410    H    -10.033    4.254    -1.916
    411    O    -10.084    4.277    -3.984
    412    H    -11.024    4.512    -3.965
    413    C    -9.603    6.269    -2.649
    414    H    -9.446    6.572    -1.588
    415    O    -10.778    6.902    -3.231
    416    P    -12.144    6.875    -2.438
    417    O    -13.020    7.946    -2.959
    418    O    -11.881    6.869    -0.985
    419    O    -12.737    5.490    -2.842
    420    C    -14.154    5.258    -3.028
    421    H    -14.412    5.425    -4.099
    422    H    -14.782    5.966    -2.433
    423    C    -14.586    3.817    -2.652
    424    H    -15.240    3.387    -3.443
    425    O    -13.429    2.936    -2.510
    426    C    -13.613    2.051    -1.426
    427    H    -13.597    1.041    -1.895
    428    N    -12.526    2.143    -0.420
    429    C    -12.004    3.375    -0.091
    430    H    -12.398    4.234    -0.643
    431    C    -11.024    3.490    0.814
    432    H    -10.586    4.449    1.085
    433    C    -12.092    0.999    0.253
    434    O    -12.623    -0.097    0.000
    435    N    -11.102    1.100    1.169
    436    C    -10.565    2.302    1.450
    437    N    -9.602    2.377    2.360
    438    H    -9.542    1.597    2.988
    439    H    -9.263    3.254    2.697
    440    C    -14.991    2.288    -0.828
    441    H    -14.968    2.271    0.286
    442    O    -15.897    1.305    -1.301
    443    H    -16.795    1.541    -1.019
    444    C    -15.331    3.701    -1.315
    445    H    -14.893    4.460    -0.628
    446    O    -16.739    3.944    -1.500
    447    H    -17.207    3.870    -0.650
 $END
