!*** FMO 5.3 (Gamess) INPUT generated by Facio 22.1.1.32 ***
 $CONTRL RUNTYP=ENERGY NPRINT=-5 ISPHER=1 MAXIT=200 $END
 $SYSTEM MWORDS=63 MEMDDI=63 $END
 $GDDI NGROUP=1 $END
 $SCF DIRSCF=.TRUE. NPUNCH=0 $END
!*** NumCPU : 2  MemPerNode : 512MB
 $PCM SOLVNT=WATER IEF=-10 ICOMP=2 ICAV=1 IDISP=1 IFMO=-1 $END
 $PCMCAV RADII=SUAHF $END
 $TESCAV NTSALL=60 $END
 $FMOPRP
    NAODIR=200
    NGRFMO(1)=1, 1, 0, 0, 0,   0, 0, 0, 0, 0
    IPIEDA=1
    NPRINT=9
 $END
 $FMO
      SCFTYP(1)=RHF
      MODGRD=10
      MODMUL=0
      MAXCAO=5
      MAXBND=16
      NLAYER=1
      MPLEVL(1)=2
      NFRAG=14
      ICHARG(1)=-1, -1, -1, -1, -1, -1, -1, -1, -1, -1, -1, -1, -1, 0
      FRGNAM(1)=F1, F2, F3, F4, F5, F6, F7, F8, F9, F10, F11, F12, F13, F14
      indat(1)=0
               1   -36   0
               37   -70   0
               71   -101   0
               102   -134   0
               135   -165   0
               166   -195   0
               196   -225   0
               226   -256   0
               257   -290   0
               291   -324   0
               325   -354   0
               355   -388   0
               389   -419   0
               420   -447   0
 $END

 $FMOBND
   -37   36       6-31G*    MINI
   -71   70       6-31G*    MINI
   -102   101       6-31G*    MINI
   -135   134       6-31G*    MINI
   -166   165       6-31G*    MINI
   -196   195       6-31G*    MINI
   -226   225       6-31G*    MINI
   -257   256       6-31G*    MINI
   -291   290       6-31G*    MINI
   -325   324       6-31G*    MINI
   -355   354       6-31G*    MINI
   -389   388       6-31G*    MINI
   -420   419       6-31G*    MINI
 $END
 $FMOHYB
 6-31G*      15   5
   1 0  -0.065034   0.288264   0.000000   0.000000   0.604412
         0.290129   0.000000   0.000000   0.319045  -0.017106
        -0.017106   0.057934   0.000000   0.000000   0.000000
   0 1  -0.065040   0.288293   0.569832   0.000000  -0.201456
         0.290147   0.300783   0.000000  -0.106342   0.049598
        -0.017106  -0.008771   0.000000  -0.027223   0.000000
   0 1  -0.065039   0.288293  -0.284916  -0.493490  -0.201455
         0.290145  -0.150392  -0.260486  -0.106340  -0.000427
         0.032923  -0.008771   0.033353   0.013612   0.023576
   0 1  -0.065039   0.288293  -0.284916   0.493490  -0.201455
         0.290145  -0.150392   0.260486  -0.106340  -0.000427
         0.032923  -0.008771  -0.033353   0.013612  -0.023576
   0 1   1.010938  -0.011975   0.000000   0.000000   0.000000
        -0.054085   0.000000   0.000000  -0.000000  -0.003174
        -0.003174  -0.003174   0.000000   0.000000   0.000000
 MINI         5   5
   1 0  -0.104883   0.308874   0.000000   0.000000   0.521806
   0 1  -0.104883   0.308874   0.491961   0.000000  -0.173934
   0 1  -0.104883   0.308876  -0.245980  -0.426050  -0.173933
   0 1  -0.104883   0.308876  -0.245980   0.426050  -0.173933
   0 1   0.988209   0.063992   0.000000   0.000000   0.000000
 $END
 
 $DATA
 FMO calculation
 C1 
 H.1-1    1
      N31 6
   
 O.1-1    8
      N31 6
      d 1
      1 0.800 1.0
   
 C.1-1    6
      N31 6
      d 1
      1 0.800 1.0
   
 N.1-1    7
      N31 6
      d 1
      1 0.800 1.0
   
 P.1-1   15
      N31 6
      d 1
      1 0.550 1.0
   
 $END
 $FMOXYZ
    1    H    -19.561    -6.560    0.965
    2    O    -18.911    -6.093    1.526
    3    C    -17.852    -7.028    1.841
    4    H    -17.894    -7.883    1.126
    5    H    -18.005    -7.412    2.869
    6    C    -16.494    -6.335    1.718
    7    H    -16.528    -5.415    2.338
    8    O    -16.472    -5.977    0.304
    9    C    -15.286    -5.351    0.071
    10    H    -15.114    -5.332    -1.030
    11    N    -15.377    -3.964    0.585
    12    C    -14.383    -3.061    0.593
    13    N    -11.184    -2.247    -0.188
    14    H    -10.910    -3.082    -0.658
    15    H    -10.471    -1.665    0.175
    16    N    -13.163    -3.265    0.107
    17    C    -12.371    -2.254    0.359
    18    N    -12.702    -1.197    1.180
    19    H    -12.122    -0.382    1.096
    20    C    -13.999    -0.900    1.590
    21    O    -14.279    0.125    2.219
    22    C    -14.891    -1.945    1.241
    23    N    -16.244    -2.092    1.498
    24    C    -16.503    -3.297    1.049
    25    H    -17.484    -3.778    1.076
    26    C    -14.276    -6.281    0.754
    27    H    -13.387    -5.722    1.089
    28    O    -13.920    -7.300    -0.161
    29    H    -14.740    -7.711    -0.487
    30    C    -15.047    -6.934    1.929
    31    H    -15.132    -8.032    1.796
    32    O    -14.421    -6.627    3.198
    33    P    -13.804    -7.441    4.429
    34    O    -14.198    -8.867    4.432
    35    O    -14.218    -6.657    5.620
    36    O    -12.222    -7.375    4.498
    37    C    -11.228    -8.081    3.717
    38    H    -11.525    -9.137    3.539
    39    H    -10.294    -8.124    4.323
    40    C    -10.879    -7.383    2.375
    41    H    -11.362    -7.932    1.539
    42    O    -11.500    -6.084    2.420
    43    C    -10.658    -5.083    2.007
    44    H    -11.273    -4.530    1.269
    45    N    -10.361    -4.120    3.065
    46    C    -9.701    -2.944    2.872
    47    N    -8.448    -0.703    0.584
    48    H    -8.334    -1.286    -0.214
    49    H    -8.087    0.235    0.541
    50    N    -9.154    -2.541    1.722
    51    C    -8.834    -1.264    1.716
    52    N    -8.961    -0.464    2.819
    53    H    -8.635    0.485    2.743
    54    C    -9.422    -0.880    4.069
    55    O    -9.475    -0.103    5.028
    56    C    -9.814    -2.252    4.056
    57    N    -10.468    -3.022    5.016
    58    C    -10.787    -4.126    4.374
    59    H    -11.327    -4.982    4.789
    60    C    -9.499    -5.710    1.313
    61    H    -8.554    -5.134    1.382
    62    O    -9.908    -5.850    -0.032
    63    H    -10.479    -6.627    -0.061
    64    C    -9.396    -7.075    1.994
    65    H    -8.812    -6.995    2.937
    66    O    -8.888    -8.126    1.175
    67    P    -7.850    -8.265    -0.004
    68    O    -8.460    -9.174    -1.000
    69    O    -6.597    -8.740    0.627
    70    O    -7.485    -6.885    -0.713
    71    C    -7.361    -6.860    -2.169
    72    H    -8.360    -7.044    -2.629
    73    H    -6.667    -7.661    -2.512
    74    C    -6.817    -5.550    -2.810
    75    H    -7.235    -5.430    -3.834
    76    O    -7.211    -4.381    -2.056
    77    C    -6.124    -3.492    -1.936
    78    H    -6.519    -2.543    -2.370
    79    N    -5.757    -3.223    -0.531
    80    C    -6.059    -4.115    0.460
    81    H    -6.587    -5.012    0.148
    82    C    -5.766    -3.844    1.746
    83    H    -6.036    -4.518    2.552
    84    C    -5.072    -2.065    -0.239
    85    O    -4.744    -1.332    -1.178
    86    N    -4.780    -1.747    1.045
    87    C    -5.133    -2.597    2.023
    88    N    -4.902    -2.246    3.289
    89    H    -4.428    -1.386    3.467
    90    H    -5.145    -2.839    4.051
    91    C    -4.972    -3.978    -2.800
    92    H    -3.980    -3.843    -2.315
    93    O    -5.002    -3.273    -4.027
    94    H    -4.729    -2.355    -3.887
    95    C    -5.282    -5.477    -2.954
    96    H    -4.854    -6.034    -2.085
    97    O    -4.898    -6.108    -4.198
    98    P    -3.408    -6.180    -4.695
    99    O    -3.334    -7.280    -5.679
    100    O    -2.504    -6.260    -3.526
    101    O    -3.131    -4.844    -5.437
    102    C    -2.661    -4.704    -6.787
    103    H    -3.539    -4.551    -7.456
    104    H    -2.117    -5.605    -7.142
    105    C    -1.727    -3.494    -6.937
    106    H    -1.732    -3.128    -7.985
    107    O    -2.190    -2.384    -6.089
    108    C    -1.073    -1.749    -5.516
    109    H    -1.188    -0.656    -5.709
    110    N    -0.964    -1.996    -4.072
    111    C    -0.432    -1.798    -1.949
    112    N    -1.002    -3.049    -2.082
    113    C    -1.297    -3.122    -3.357
    114    H    -1.769    -3.976    -3.834
    115    N    0.636    0.096    -1.076
    116    C    0.594    0.614    -2.304
    117    H    1.036    1.610    -2.424
    118    N    0.094    0.082    -3.418
    119    C    -0.403    -1.139    -3.169
    120    C    0.129    -1.133    -0.847
    121    N    0.186    -1.638    0.402
    122    H    -0.118    -2.574    0.608
    123    H    0.638    -1.113    1.125
    124    C    0.135    -2.268    -6.239
    125    H    1.010    -2.219    -5.568
    126    O    0.359    -1.528    -7.425
    127    H    1.154    -1.913    -7.823
    128    C    -0.246    -3.715    -6.537
    129    H    -0.248    -4.324    -5.605
    130    O    0.520    -4.332    -7.607
    131    P    1.585    -5.494    -7.409
    132    O    1.830    -6.134    -8.722
    133    O    1.173    -6.393    -6.315
    134    O    2.936    -4.819    -6.970
    135    C    3.748    -4.038    -7.883
    136    H    3.265    -3.893    -8.877
    137    H    4.705    -4.577    -8.062
    138    C    4.095    -2.639    -7.358
    139    H    4.142    -1.912    -8.196
    140    O    3.080    -2.188    -6.448
    141    C    3.649    -1.505    -5.361
    142    H    3.126    -0.518    -5.339
    143    N    3.439    -2.196    -4.050
    144    C    2.985    -3.496    -3.932
    145    H    2.787    -4.020    -4.864
    146    C    2.796    -4.064    -2.726
    147    H    2.441    -5.086    -2.607
    148    C    3.639    -1.446    -2.906
    149    O    3.947    -0.254    -3.027
    150    N    3.503    -2.012    -1.694
    151    C    3.089    -3.278    -1.573
    152    N    2.972    -3.779    -0.345
    153    H    3.238    -3.190    0.422
    154    H    2.675    -4.718    -0.162
    155    C    5.109    -1.294    -5.700
    156    H    5.766    -1.263    -4.806
    157    O    5.248    -0.094    -6.442
    158    H    6.142    -0.087    -6.813
    159    C    5.391    -2.522    -6.559
    160    H    5.467    -3.430    -5.918
    161    O    6.493    -2.360    -7.463
    162    P    7.686    -3.371    -7.562
    163    O    8.338    -3.185    -8.875
    164    O    7.255    -4.745    -7.222
    165    O    8.662    -2.845    -6.444
    166    C    9.248    -1.524    -6.593
    167    H    8.584    -0.816    -7.142
    168    H    10.200    -1.597    -7.169
    169    C    9.560    -0.878    -5.239
    170    H    9.879    0.178    -5.370
    171    O    8.385    -0.871    -4.386
    172    C    8.778    -1.090    -3.045
    173    H    8.456    -0.176    -2.491
    174    N    8.109    -2.290    -2.455
    175    C    7.534    -3.249    -3.258
    176    H    7.631    -3.080    -4.331
    177    C    8.016    -2.382    -1.083
    178    O    8.473    -1.533    -0.329
    179    N    7.353    -3.486    -0.613
    180    H    7.316    -3.594    0.382
    181    C    6.777    -4.492    -1.353
    182    O    6.228    -5.437    -0.789
    183    C    6.878    -4.313    -2.769
    184    H    6.429    -5.060    -3.419
    185    C    10.307    -1.162    -3.027
    186    H    10.686    -1.874    -2.269
    187    O    10.833    0.125    -2.798
    188    H    11.793    0.045    -2.752
    189    C    10.643    -1.602    -4.445
    190    H    10.473    -2.694    -4.574
    191    O    11.929    -1.175    -4.942
    192    P    13.261    -1.928    -4.635
    193    O    14.158    -1.738    -5.795
    194    O    12.951    -3.320    -4.236
    195    O    13.849    -1.142    -3.393
    196    C    15.218    -1.459    -3.009
    197    H    15.872    -1.673    -3.893
    198    H    15.230    -2.366    -2.361
    199    C    15.908    -0.317    -2.250
    200    H    16.959    -0.619    -2.040
    201    O    15.971    0.878    -3.071
    202    C    15.414    1.972    -2.382
    203    H    16.280    2.500    -1.920
    204    N    14.654    2.838    -3.318
    205    C    13.717    2.279    -4.156
    206    H    13.623    1.192    -4.091
    207    C    14.873    4.197    -3.301
    208    O    15.672    4.730    -2.537
    209    N    14.134    4.911    -4.208
    210    H    14.293    5.909    -4.213
    211    C    13.181    4.427    -5.079
    212    O    12.575    5.197    -5.825
    213    C    12.996    3.006    -5.023
    214    H    12.281    2.548    -5.704
    215    C    14.543    1.413    -1.277
    216    H    13.523    1.180    -1.655
    217    O    14.483    2.322    -0.196
    218    H    13.864    1.980    0.474
    219    C    15.255    0.101    -0.919
    220    H    14.463    -0.651    -0.685
    221    O    16.243    0.224    0.140
    222    P    16.440    -0.982    1.136
    223    O    17.391    -0.569    2.190
    224    O    16.805    -2.175    0.337
    225    O    15.030    -1.238    1.771
    226    C    14.666    -0.717    3.070
    227    H    14.425    0.367    2.975
    228    H    15.494    -0.817    3.811
    229    C    13.422    -1.414    3.658
    230    H    12.955    -0.757    4.422
    231    O    12.436    -1.666    2.626
    232    C    12.136    -3.037    2.579
    233    H    11.253    -3.152    3.240
    234    N    11.837    -3.495    1.208
    235    C    12.643    -3.046    0.196
    236    H    13.404    -2.318    0.484
    237    C    12.459    -3.447    -1.065
    238    H    13.085    -3.095    -1.879
    239    C    10.797    -4.386    0.939
    240    O    10.070    -4.774    1.870
    241    N    10.599    -4.806    -0.335
    242    C    11.396    -4.360    -1.324
    243    N    11.190    -4.773    -2.573
    244    H    11.786    -4.429    -3.312
    245    H    10.515    -5.482    -2.764
    246    C    13.317    -3.752    3.189
    247    H    14.158    -3.827    2.464
    248    O    12.963    -5.021    3.699
    249    H    12.398    -4.846    4.468
    250    C    13.679    -2.786    4.311
    251    H    14.772    -2.875    4.519
    252    O    12.863    -2.989    5.488
    253    P    13.461    -2.875    6.932
    254    O    14.918    -3.120    6.911
    255    O    12.658    -3.736    7.830
    256    O    13.205    -1.371    7.319
    257    C    11.862    -0.842    7.357
    258    H    11.382    -1.089    8.331
    259    H    11.225    -1.264    6.543
    260    C    11.861    0.679    7.190
    261    H    12.221    1.177    8.117
    262    O    12.749    1.087    6.111
    263    C    12.222    2.239    5.495
    264    H    12.959    3.051    5.719
    265    N    12.108    2.084    4.046
    266    C    11.319    1.252    3.272
    267    N    8.909    -1.220    2.904
    268    H    8.506    -1.748    2.167
    269    H    8.674    -1.424    3.852
    270    N    10.396    0.362    3.697
    271    C    9.835    -0.301    2.691
    272    N    10.138    -0.077    1.378
    273    H    9.698    -0.657    0.687
    274    C    11.087    0.821    0.922
    275    O    11.339    0.990    -0.269
    276    C    11.686    1.539    1.974
    277    N    12.651    2.532    1.926
    278    C    12.857    2.835    3.177
    279    H    13.560    3.591    3.531
    280    C    10.912    2.580    6.154
    281    H    10.162    2.886    5.407
    282    O    11.096    3.614    7.103
    283    H    10.304    3.629    7.660
    284    C    10.509    1.266    6.808
    285    H    10.080    0.571    6.056
    286    O    9.667    1.403    7.969
    287    P    8.124    1.116    7.848
    288    O    7.459    1.704    9.030
    289    O    7.895    -0.326    7.605
    290    O    7.670    1.923    6.594
    291    C    7.694    3.360    6.533
    292    H    8.573    3.780    7.063
    293    H    6.793    3.767    7.047
    294    C    7.731    3.908    5.091
    295    H    8.381    4.807    5.028
    296    O    8.235    2.947    4.118
    297    C    7.395    2.946    2.988
    298    H    8.060    2.993    2.097
    299    N    6.582    1.732    2.945
    300    C    6.060    1.164    1.825
    301    N    5.630    1.175    -1.580
    302    H    6.044    2.040    -1.852
    303    H    5.100    0.647    -2.253
    304    N    6.193    1.631    0.574
    305    C    5.583    0.851    -0.305
    306    N    4.921    -0.304    0.035
    307    H    4.463    -0.831    -0.695
    308    C    4.765    -0.812    1.318
    309    O    4.157    -1.863    1.560
    310    C    5.392    0.032    2.265
    311    N    5.469    -0.085    3.640
    312    C    6.181    0.946    4.003
    313    H    6.429    1.174    5.030
    314    C    6.549    4.188    3.074
    315    H    5.582    4.095    2.534
    316    O    7.275    5.295    2.575
    317    H    6.826    6.088    2.892
    318    C    6.354    4.281    4.578
    319    H    5.665    3.475    4.931
    320    O    6.028    5.590    5.077
    321    P    4.556    5.901    5.494
    322    O    4.547    7.185    6.229
    323    O    3.982    4.718    6.168
    324    O    3.872    6.069    4.104
    325    C    4.343    7.044    3.154
    326    H    5.427    6.935    2.931
    327    H    4.186    8.075    3.544
    328    C    3.561    6.900    1.856
    329    H    3.794    7.731    1.154
    330    O    3.946    5.663    1.186
    331    C    2.800    5.115    0.557
    332    H    3.072    5.011    -0.517
    333    N    2.424    3.798    1.132
    334    C    2.794    3.413    2.407
    335    H    3.408    4.128    2.951
    336    C    1.703    2.960    0.328
    337    O    1.415    3.236    -0.833
    338    N    1.325    1.792    0.922
    339    H    0.898    1.136    0.280
    340    C    1.676    1.307    2.155
    341    O    1.310    0.186    2.502
    342    C    2.453    2.222    2.930
    343    H    2.775    1.914    3.923
    344    C    1.681    6.139    0.687
    345    H    0.675    5.672    0.726
    346    O    1.746    7.067    -0.383
    347    H    1.064    7.732    -0.213
    348    C    2.036    6.782    2.017
    349    H    1.842    6.051    2.835
    350    O    1.447    8.077    2.264
    351    P    0.288    8.269    3.321
    352    O    0.253    9.688    3.732
    353    O    0.365    7.262    4.397
    354    O    -1.018    7.983    2.523
    355    C    -1.512    8.880    1.512
    356    H    -0.690    9.443    1.002
    357    H    -2.198    9.625    1.973
    358    C    -2.278    8.101    0.448
    359    H    -2.359    8.700    -0.482
    360    O    -1.545    6.877    0.115
    361    C    -2.470    5.845    -0.112
    362    H    -2.216    5.398    -1.101
    363    N    -2.441    4.800    0.938
    364    C    -2.859    3.520    0.742
    365    N    -4.194    1.190    -1.375
    366    H    -4.015    1.601    -2.267
    367    H    -4.532    0.250    -1.321
    368    N    -3.308    3.031    -0.416
    369    C    -3.745    1.796    -0.305
    370    N    -3.713    1.067    0.866
    371    H    -4.082    0.133    0.867
    372    C    -3.217    1.539    2.083
    373    O    -3.201    0.819    3.084
    374    C    -2.749    2.884    1.964
    375    N    -2.231    3.756    2.919
    376    C    -2.062    4.885    2.259
    377    H    -1.675    5.808    2.688
    378    C    -3.826    6.499    -0.193
    379    H    -4.594    5.768    0.112
    380    O    -4.058    6.994    -1.505
    381    H    -4.898    7.463    -1.468
    382    C    -3.708    7.633    0.820
    383    H    -3.666    7.239    1.861
    384    O    -4.686    8.700    0.664
    385    P    -5.969    8.886    1.592
    386    O    -6.440    10.278    1.425
    387    O    -5.682    8.462    2.979
    388    O    -7.131    7.979    1.050
    389    C    -7.697    8.086    -0.281
    390    H    -7.276    8.949    -0.846
    391    H    -8.786    8.284    -0.176
    392    C    -7.515    6.815    -1.151
    393    H    -6.883    7.088    -2.025
    394    O    -6.738    5.857    -0.427
    395    C    -7.186    4.555    -0.549
    396    H    -6.471    4.067    -1.251
    397    N    -7.149    3.833    0.765
    398    C    -7.014    4.541    1.945
    399    H    -6.954    5.630    1.853
    400    C    -6.947    3.920    3.130
    401    H    -6.824    4.461    4.066
    402    C    -7.262    2.445    0.813
    403    O    -7.398    1.803    -0.237
    404    N    -7.210    1.806    2.004
    405    C    -7.026    2.500    3.136
    406    N    -6.914    1.827    4.279
    407    H    -6.938    0.831    4.274
    408    H    -6.765    2.291    5.153
    409    C    -8.562    4.604    -1.130
    410    H    -9.302    4.409    -0.329
    411    O    -8.629    3.632    -2.143
    412    H    -8.375    4.045    -2.979
    413    C    -8.745    6.046    -1.667
    414    H    -9.650    6.493    -1.197
    415    O    -8.776    6.199    -3.082
    416    P    -9.744    5.864    -4.253
    417    O    -9.173    6.551    -5.434
    418    O    -11.138    6.174    -3.883
    419    O    -9.644    4.323    -4.558
    420    C    -10.264    3.803    -5.776
    421    H    -9.458    3.591    -6.513
    422    H    -10.955    4.535    -6.269
    423    C    -11.079    2.493    -5.598
    424    H    -11.015    1.865    -6.509
    425    O    -10.564    1.708    -4.495
    426    C    -11.632    1.191    -3.731
    427    H    -11.474    0.087    -3.770
    428    N    -11.580    1.648    -2.328
    429    C    -11.403    2.972    -2.034
    430    H    -11.096    3.605    -2.863
    431    C    -11.441    3.412    -0.762
    432    H    -11.255    4.448    -0.499
    433    C    -12.027    0.804    -1.339
    434    O    -12.521    -0.282    -1.677
    435    N    -11.917    1.179    -0.040
    436    C    -11.627    2.447    0.262
    437    N    -11.523    2.798    1.546
    438    H    -11.817    2.153    2.248
    439    H    -11.345    3.741    1.821
    440    C    -12.951    1.525    -4.398
    441    H    -13.711    1.856    -3.654
    442    O    -13.457    0.406    -5.111
    443    H    -14.259    0.669    -5.592
    444    C    -12.571    2.704    -5.297
    445    H    -12.635    3.649    -4.722
    446    O    -13.335    2.801    -6.515
    447    H    -14.284    2.902    -6.310
 $END
