!*** FMO 5.3 (Gamess) INPUT generated by Facio 22.1.1.32 ***
 $CONTRL RUNTYP=ENERGY NPRINT=-5 ISPHER=1 MAXIT=200 $END
 $SYSTEM MWORDS=63 MEMDDI=63 $END
 $GDDI NGROUP=1 $END
 $SCF DIRSCF=.TRUE. NPUNCH=0 $END
!*** NumCPU : 2  MemPerNode : 512MB
 $PCM SOLVNT=WATER IEF=-10 ICOMP=2 ICAV=1 IDISP=1 IFMO=-1 $END
 $PCMCAV RADII=SUAHF $END
 $TESCAV NTSALL=60 $END
 $FMOPRP
    NAODIR=200
    NGRFMO(1)=1, 1, 0, 0, 0,   0, 0, 0, 0, 0
    IPIEDA=1
    NPRINT=9
 $END
 $FMO
      SCFTYP(1)=RHF
      MODGRD=10
      MODMUL=0
      MAXCAO=5
      MAXBND=16
      NLAYER=1
      MPLEVL(1)=2
      NFRAG=14
      ICHARG(1)=-1, -1, -1, -1, -1, -1, -1, -1, -1, -1, -1, -1, -1, 0
      FRGNAM(1)=F1, F2, F3, F4, F5, F6, F7, F8, F9, F10, F11, F12, F13, F14
      indat(1)=0
               1   -36   0
               37   -70   0
               71   -101   0
               102   -134   0
               135   -165   0
               166   -195   0
               196   -225   0
               226   -256   0
               257   -290   0
               291   -324   0
               325   -354   0
               355   -388   0
               389   -419   0
               420   -447   0
 $END

 $FMOBND
   -37   36       6-31G*    MINI
   -71   70       6-31G*    MINI
   -102   101       6-31G*    MINI
   -135   134       6-31G*    MINI
   -166   165       6-31G*    MINI
   -196   195       6-31G*    MINI
   -226   225       6-31G*    MINI
   -257   256       6-31G*    MINI
   -291   290       6-31G*    MINI
   -325   324       6-31G*    MINI
   -355   354       6-31G*    MINI
   -389   388       6-31G*    MINI
   -420   419       6-31G*    MINI
 $END
 $FMOHYB
 6-31G*      15   5
   1 0  -0.065034   0.288264   0.000000   0.000000   0.604412
         0.290129   0.000000   0.000000   0.319045  -0.017106
        -0.017106   0.057934   0.000000   0.000000   0.000000
   0 1  -0.065040   0.288293   0.569832   0.000000  -0.201456
         0.290147   0.300783   0.000000  -0.106342   0.049598
        -0.017106  -0.008771   0.000000  -0.027223   0.000000
   0 1  -0.065039   0.288293  -0.284916  -0.493490  -0.201455
         0.290145  -0.150392  -0.260486  -0.106340  -0.000427
         0.032923  -0.008771   0.033353   0.013612   0.023576
   0 1  -0.065039   0.288293  -0.284916   0.493490  -0.201455
         0.290145  -0.150392   0.260486  -0.106340  -0.000427
         0.032923  -0.008771  -0.033353   0.013612  -0.023576
   0 1   1.010938  -0.011975   0.000000   0.000000   0.000000
        -0.054085   0.000000   0.000000  -0.000000  -0.003174
        -0.003174  -0.003174   0.000000   0.000000   0.000000
 MINI         5   5
   1 0  -0.104883   0.308874   0.000000   0.000000   0.521806
   0 1  -0.104883   0.308874   0.491961   0.000000  -0.173934
   0 1  -0.104883   0.308876  -0.245980  -0.426050  -0.173933
   0 1  -0.104883   0.308876  -0.245980   0.426050  -0.173933
   0 1   0.988209   0.063992   0.000000   0.000000   0.000000
 $END
 
 $DATA
 FMO calculation
 C1 
 H.1-1    1
      N31 6
   
 O.1-1    8
      N31 6
      d 1
      1 0.800 1.0
   
 C.1-1    6
      N31 6
      d 1
      1 0.800 1.0
   
 N.1-1    7
      N31 6
      d 1
      1 0.800 1.0
   
 P.1-1   15
      N31 6
      d 1
      1 0.550 1.0
   
 $END
 $FMOXYZ
    1    H    -8.280    -4.921    8.774
    2    O    -8.944    -4.981    8.063
    3    C    -9.587    -6.256    8.207
    4    H    -10.041    -6.325    9.221
    5    H    -8.823    -7.061    8.120
    6    C    -10.687    -6.504    7.168
    7    H    -11.230    -7.447    7.399
    8    O    -11.667    -5.435    7.180
    9    C    -12.055    -5.134    5.851
    10    H    -13.162    -5.245    5.810
    11    N    -11.721    -3.755    5.494
    12    C    -12.267    -3.017    4.477
    13    N    -14.500    -2.696    1.844
    14    H    -14.821    -1.983    1.221
    15    H    -14.840    -3.631    1.726
    16    N    -13.188    -3.442    3.593
    17    C    -13.594    -2.467    2.777
    18    N    -13.114    -1.185    2.840
    19    H    -13.562    -0.483    2.271
    20    C    -12.180    -0.718    3.758
    21    O    -11.808    0.460    3.769
    22    C    -11.714    -1.757    4.604
    23    N    -10.804    -1.716    5.655
    24    C    -10.837    -2.930    6.151
    25    H    -10.251    -3.287    7.001
    26    C    -11.427    -6.152    4.938
    27    H    -11.170    -5.738    3.944
    28    O    -12.310    -7.243    4.788
    29    H    -11.943    -7.969    5.313
    30    C    -10.191    -6.584    5.725
    31    H    -9.374    -5.832    5.610
    32    O    -9.755    -7.940    5.488
    33    P    -9.040    -8.313    4.146
    34    O    -8.805    -9.771    4.160
    35    O    -7.881    -7.400    4.084
    36    O    -10.085    -7.963    3.047
    37    C    -10.452    -8.776    1.930
    38    H    -11.477    -9.183    2.097
    39    H    -9.758    -9.644    1.780
    40    C    -10.488    -7.932    0.662
    41    H    -10.948    -8.509    -0.169
    42    O    -11.280    -6.715    0.860
    43    C    -10.688    -5.686    0.087
    44    H    -11.492    -5.253    -0.549
    45    N    -10.084    -4.642    0.928
    46    C    -9.894    -3.390    0.478
    47    N    -10.587    -1.138    -1.945
    48    H    -10.420    -1.662    -2.778
    49    H    -10.419    -0.158    -2.022
    50    N    -10.246    -2.970    -0.731
    51    C    -10.069    -1.689    -0.873
    52    N    -9.377    -0.906    0.038
    53    H    -9.089    0.013    -0.257
    54    C    -8.890    -1.349    1.268
    55    O    -8.281    -0.606    2.045
    56    C    -9.260    -2.703    1.493
    57    N    -9.066    -3.532    2.591
    58    C    -9.569    -4.684    2.204
    59    H    -9.573    -5.606    2.789
    60    C    -9.638    -6.346    -0.785
    61    H    -8.832    -5.648    -1.100
    62    O    -10.240    -6.949    -1.922
    63    H    -9.583    -7.540    -2.324
    64    C    -9.132    -7.380    0.198
    65    H    -8.667    -6.867    1.072
    66    O    -8.290    -8.396    -0.380
    67    P    -6.975    -8.864    0.369
    68    O    -6.893    -10.333    0.327
    69    O    -6.857    -8.220    1.690
    70    O    -5.779    -8.295    -0.456
    71    C    -5.554    -8.680    -1.824
    72    H    -6.347    -9.357    -2.222
    73    H    -4.596    -9.241    -1.883
    74    C    -5.465    -7.460    -2.743
    75    H    -5.776    -7.729    -3.775
    76    O    -6.349    -6.399    -2.280
    77    C    -5.761    -5.151    -2.548
    78    H    -6.479    -4.672    -3.256
    79    N    -5.637    -4.287    -1.341
    80    C    -5.588    -4.833    -0.076
    81    H    -5.633    -5.924    -0.017
    82    C    -5.509    -4.054    1.014
    83    H    -5.488    -4.459    2.022
    84    C    -5.593    -2.905    -1.498
    85    O    -5.638    -2.426    -2.642
    86    N    -5.532    -2.110    -0.400
    87    C    -5.493    -2.646    0.829
    88    N    -5.440    -1.836    1.891
    89    H    -5.727    -0.884    1.822
    90    H    -5.414    -2.217    2.819
    91    C    -4.454    -5.396    -3.283
    92    H    -3.663    -4.667    -3.002
    93    O    -4.666    -5.357    -4.685
    94    H    -3.776    -5.437    -5.069
    95    C    -4.076    -6.814    -2.839
    96    H    -3.646    -6.809    -1.814
    97    O    -3.264    -7.586    -3.751
    98    P    -1.784    -7.238    -4.146
    99    O    -1.356    -8.162    -5.215
    100    O    -0.950    -7.186    -2.926
    101    O    -1.878    -5.801    -4.738
    102    C    -1.540    -5.362    -6.068
    103    H    -2.311    -5.728    -6.783
    104    H    -0.563    -5.785    -6.394
    105    C    -1.479    -3.810    -6.197
    106    H    -1.998    -3.470    -7.118
    107    O    -2.168    -3.195    -5.054
    108    C    -1.398    -2.159    -4.500
    109    H    -2.082    -1.280    -4.450
    110    N    -0.938    -2.450    -3.137
    111    C    -0.320    -2.235    -1.036
    112    N    -0.393    -3.598    -1.284
    113    C    -0.754    -3.674    -2.540
    114    H    -0.894    -4.605    -3.084
    115    N    -0.085    -0.152    0.060
    116    C    -0.370    0.412    -1.120
    117    H    -0.374    1.507    -1.127
    118    N    -0.662    -0.178    -2.289
    119    C    -0.645    -1.514    -2.170
    120    C    -0.020    -1.501    0.132
    121    N    0.344    -2.070    1.295
    122    H    0.487    -3.060    1.365
    123    H    0.670    -1.495    2.041
    124    C    -0.279    -1.868    -5.447
    125    H    0.634    -1.570    -4.924
    126    O    -0.670    -0.813    -6.291
    127    H    -0.125    -0.046    -6.054
    128    C    -0.057    -3.188    -6.191
    129    H    0.581    -3.873    -5.591
    130    O    0.454    -3.064    -7.532
    131    P    1.725    -2.250    -8.021
    132    O    1.419    -1.688    -9.359
    133    O    2.877    -3.171    -7.976
    134    O    2.041    -1.080    -7.013
    135    C    2.778    0.113    -7.391
    136    H    2.268    0.613    -8.244
    137    H    3.802    -0.154    -7.737
    138    C    2.915    1.177    -6.261
    139    H    2.739    2.194    -6.669
    140    O    1.923    0.955    -5.205
    141    C    2.536    1.131    -3.932
    142    H    1.862    1.828    -3.380
    143    N    2.667    -0.134    -3.150
    144    C    2.623    -1.364    -3.748
    145    H    2.534    -1.355    -4.832
    146    C    2.637    -2.494    -3.025
    147    H    2.527    -3.478    -3.476
    148    C    2.877    -0.055    -1.785
    149    O    2.941    1.066    -1.271
    150    N    3.004    -1.173    -1.040
    151    C    2.815    -2.370    -1.615
    152    N    2.813    -3.454    -0.848
    153    H    3.095    -3.361    0.106
    154    H    2.777    -4.372    -1.240
    155    C    3.875    1.796    -4.154
    156    H    4.625    1.534    -3.375
    157    O    3.715    3.202    -4.204
    158    H    4.554    3.593    -4.492
    159    C    4.264    1.210    -5.500
    160    H    4.547    0.140    -5.357
    161    O    5.262    1.997    -6.201
    162    P    6.640    1.318    -6.569
    163    O    7.410    2.187    -7.484
    164    O    6.361    -0.051    -7.041
    165    O    7.394    1.201    -5.202
    166    C    8.451    2.096    -4.804
    167    H    8.085    3.150    -4.830
    168    H    9.326    1.998    -5.490
    169    C    8.941    1.806    -3.372
    170    H    9.583    2.641    -3.016
    171    O    7.797    1.684    -2.459
    172    C    8.089    0.690    -1.485
    173    H    7.934    1.169    -0.490
    174    N    7.205    -0.513    -1.614
    175    C    6.587    -0.816    -2.802
    176    H    6.707    -0.081    -3.586
    177    C    7.093    -1.369    -0.547
    178    O    7.702    -1.203    0.496
    179    N    6.235    -2.422    -0.723
    180    H    6.335    -3.149    -0.033
    181    C    5.778    -2.885    -1.941
    182    O    5.308    -4.016    -2.054
    183    C    5.895    -1.944    -3.002
    184    H    5.495    -2.210    -3.976
    185    C    9.557    0.357    -1.653
    186    H    9.825    -0.656    -1.281
    187    O    10.340    1.355    -1.017
    188    H    11.218    0.977    -0.907
    189    C    9.698    0.475    -3.153
    190    H    9.091    -0.298    -3.678
    191    O    11.074    0.531    -3.602
    192    P    11.756    -0.820    -4.070
    193    O    12.764    -0.484    -5.099
    194    O    10.716    -1.794    -4.459
    195    O    12.514    -1.411    -2.800
    196    C    13.225    -2.674    -2.997
    197    H    13.658    -2.752    -4.025
    198    H    12.530    -3.531    -2.901
    199    C    14.407    -2.909    -2.030
    200    H    14.926    -3.852    -2.326
    201    O    15.371    -1.825    -2.152
    202    C    15.516    -1.180    -0.900
    203    H    16.440    -1.628    -0.457
    204    N    15.616    0.291    -1.071
    205    C    14.661    0.968    -1.792
    206    H    13.916    0.336    -2.274
    207    C    16.656    0.960    -0.472
    208    O    17.514    0.387    0.192
    209    N    16.660    2.318    -0.665
    210    H    17.421    2.818    -0.230
    211    C    15.761    3.061    -1.402
    212    O    15.904    4.281    -1.505
    213    C    14.705    2.293    -1.994
    214    H    13.967    2.808    -2.606
    215    C    14.334    -1.577    -0.041
    216    H    13.445    -0.946    -0.262
    217    O    14.667    -1.508    1.333
    218    H    13.871    -1.649    1.868
    219    C    14.080    -3.002    -0.521
    220    H    12.995    -3.228    -0.430
    221    O    14.901    -3.987    0.135
    222    P    14.373    -5.137    1.062
    223    O    15.445    -5.490    2.025
    224    O    13.866    -6.226    0.199
    225    O    13.143    -4.522    1.822
    226    C    13.007    -4.547    3.260
    227    H    13.607    -3.712    3.689
    228    H    13.404    -5.493    3.694
    229    C    11.554    -4.379    3.778
    230    H    11.568    -3.787    4.721
    231    O    10.682    -3.698    2.824
    232    C    9.681    -4.600    2.388
    233    H    8.784    -4.349    2.998
    234    N    9.403    -4.488    0.949
    235    C    10.430    -4.211    0.085
    236    H    11.405    -4.082    0.543
    237    C    10.218    -4.067    -1.228
    238    H    10.997    -3.793    -1.923
    239    C    8.113    -4.648    0.464
    240    O    7.162    -4.761    1.251
    241    N    7.924    -4.639    -0.871
    242    C    8.897    -4.249    -1.703
    243    N    8.598    -3.971    -2.971
    244    H    9.291    -3.661    -3.625
    245    H    7.669    -4.139    -3.300
    246    C    10.150    -5.989    2.744
    247    H    10.891    -6.356    1.996
    248    O    9.085    -6.909    2.878
    249    H    8.564    -6.624    3.645
    250    C    10.844    -5.719    4.070
    251    H    11.598    -6.529    4.224
    252    O    9.924    -5.602    5.180
    253    P    10.344    -6.016    6.640
    254    O    11.504    -6.938    6.589
    255    O    9.142    -6.522    7.335
    256    O    10.810    -4.700    7.353
    257    C    9.977    -3.584    7.764
    258    H    9.477    -3.833    8.725
    259    H    9.174    -3.409    7.012
    260    C    10.805    -2.265    7.978
    261    H    11.276    -2.288    8.980
    262    O    11.916    -2.299    7.031
    263    C    12.308    -1.001    6.686
    264    H    13.370    -0.937    7.016
    265    N    12.236    -0.756    5.258
    266    C    11.169    -0.794    4.379
    267    N    7.798    -1.279    3.703
    268    H    7.194    -1.264    2.914
    269    H    7.446    -1.557    4.594
    270    N    9.880    -1.092    4.654
    271    C    9.088    -0.992    3.600
    272    N    9.539    -0.603    2.371
    273    H    8.905    -0.703    1.593
    274    C    10.877    -0.407    2.042
    275    O    11.281    -0.142    0.910
    276    C    11.705    -0.417    3.175
    277    N    13.050    -0.104    3.291
    278    C    13.325    -0.331    4.544
    279    H    14.302    -0.172    5.009
    280    C    11.469    -0.017    7.447
    281    H    11.218    0.890    6.853
    282    O    12.156    0.356    8.629
    283    H    11.515    0.786    9.216
    284    C    10.211    -0.818    7.753
    285    H    9.528    -0.893    6.898
    286    O    9.501    -0.275    8.869
    287    P    8.567    1.020    8.813
    288    O    8.779    1.741    10.083
    289    O    7.195    0.548    8.551
    290    O    8.920    2.059    7.637
    291    C    8.215    3.369    7.743
    292    H    8.761    4.015    8.468
    293    H    7.176    3.248    8.145
    294    C    8.026    4.240    6.444
    295    H    8.611    5.182    6.539
    296    O    8.560    3.525    5.276
    297    C    7.594    3.560    4.232
    298    H    8.136    3.643    3.262
    299    N    6.733    2.363    4.260
    300    C    5.969    1.897    3.237
    301    N    5.068    2.018    -0.070
    302    H    5.495    2.868    -0.376
    303    H    4.358    1.600    -0.640
    304    N    5.938    2.398    1.998
    305    C    5.140    1.708    1.200
    306    N    4.372    0.642    1.614
    307    H    3.769    0.197    0.947
    308    C    4.352    0.136    2.911
    309    O    3.652    -0.829    3.216
    310    C    5.249    0.839    3.760
    311    N    5.575    0.627    5.095
    312    C    6.486    1.534    5.335
    313    H    7.013    1.660    6.279
    314    C    6.761    4.792    4.500
    315    H    5.794    4.796    3.953
    316    O    7.500    5.964    4.193
    317    H    8.318    5.963    4.715
    318    C    6.553    4.618    6.003
    319    H    5.925    3.727    6.212
    320    O    6.001    5.781    6.671
    321    P    4.406    5.893    6.860
    322    O    4.138    7.132    7.620
    323    O    3.950    4.647    7.516
    324    O    3.700    5.988    5.450
    325    C    2.774    7.048    5.008
    326    H    3.304    8.028    5.042
    327    H    1.911    7.124    5.705
    328    C    2.191    6.902    3.531
    329    H    2.669    7.670    2.890
    330    O    2.674    5.619    3.045
    331    C    1.699    4.902    2.351
    332    H    2.214    4.695    1.381
    333    N    1.367    3.593    2.931
    334    C    1.777    3.225    4.188
    335    H    2.316    3.995    4.750
    336    C    0.698    2.715    2.104
    337    O    0.340    3.001    0.967
    338    N    0.464    1.485    2.642
    339    H    0.047    0.835    1.994
    340    C    0.848    1.031    3.886
    341    O    0.555    -0.108    4.242
    342    C    1.555    1.998    4.680
    343    H    1.879    1.718    5.680
    344    C    0.506    5.772    2.130
    345    H    -0.468    5.246    2.233
    346    O    0.671    6.253    0.820
    347    H    1.082    7.124    0.890
    348    C    0.631    6.897    3.165
    349    H    0.093    6.618    4.097
    350    O    0.137    8.171    2.642
    351    P    -1.349    8.428    2.043
    352    O    -1.466    9.898    1.897
    353    O    -2.330    7.781    2.941
    354    O    -1.499    7.827    0.573
    355    C    -2.560    7.931    -0.439
    356    H    -2.650    8.990    -0.768
    357    H    -3.537    7.639    0.005
    358    C    -2.340    7.047    -1.757
    359    H    -1.690    7.615    -2.451
    360    O    -1.580    5.892    -1.334
    361    C    -2.357    4.732    -1.337
    362    H    -1.654    3.970    -1.749
    363    N    -2.835    4.206    -0.062
    364    C    -3.350    2.939    -0.020
    365    N    -4.294    0.107    -1.745
    366    H    -4.811    -0.738    -1.590
    367    H    -3.996    0.346    -2.666
    368    N    -3.412    2.087    -1.057
    369    C    -4.062    0.984    -0.790
    370    N    -4.531    0.686    0.459
    371    H    -4.920    -0.228    0.577
    372    C    -4.426    1.517    1.582
    373    O    -4.856    1.182    2.690
    374    C    -3.807    2.760    1.258
    375    N    -3.607    3.917    2.015
    376    C    -3.035    4.761    1.174
    377    H    -2.720    5.783    1.399
    378    C    -3.512    4.915    -2.242
    379    H    -4.434    4.720    -1.691
    380    O    -3.371    3.982    -3.292
    381    H    -2.751    4.335    -3.944
    382    C    -3.557    6.403    -2.602
    383    H    -4.480    6.857    -2.173
    384    O    -3.565    6.653    -4.031
    385    P    -4.335    5.941    -5.263
    386    O    -3.294    5.171    -5.987
    387    O    -5.019    6.973    -6.071
    388    O    -5.506    4.917    -4.823
    389    C    -6.290    4.389    -5.961
    390    H    -5.601    3.928    -6.715
    391    H    -6.828    5.227    -6.465
    392    C    -7.395    3.293    -5.744
    393    H    -7.878    3.140    -6.735
    394    O    -6.782    1.989    -5.413
    395    C    -7.586    1.370    -4.411
    396    H    -7.597    0.266    -4.568
    397    N    -7.143    1.779    -3.030
    398    C    -6.340    2.863    -2.848
    399    H    -5.681    3.101    -3.678
    400    C    -6.456    3.611    -1.751
    401    H    -6.146    4.646    -1.733
    402    C    -7.899    1.352    -1.974
    403    O    -8.708    0.483    -2.210
    404    N    -7.827    1.930    -0.763
    405    C    -7.233    3.126    -0.682
    406    N    -7.372    3.882    0.400
    407    H    -7.930    3.570    1.163
    408    H    -6.923    4.774    0.485
    409    C    -8.986    1.968    -4.660
    410    H    -9.699    1.795    -3.830
    411    O    -9.586    1.534    -5.869
    412    H    -10.268    2.190    -6.100
    413    C    -8.595    3.429    -4.743
    414    H    -8.209    3.775    -3.772
    415    O    -9.663    4.285    -5.183
    416    P    -10.019    5.570    -4.320
    417    O    -9.804    6.743    -5.183
    418    O    -9.353    5.575    -2.994
    419    O    -11.535    5.402    -4.119
    420    C    -12.484    6.258    -3.456
    421    H    -12.646    7.185    -4.054
    422    H    -12.112    6.574    -2.457
    423    C    -13.850    5.526    -3.302
    424    H    -14.523    5.823    -4.136
    425    O    -13.637    4.080    -3.439
    426    C    -13.963    3.414    -2.257
    427    H    -14.475    2.508    -2.656
    428    N    -12.805    3.012    -1.404
    429    C    -11.851    3.909    -0.971
    430    H    -11.902    4.921    -1.367
    431    C    -10.874    3.532    -0.131
    432    H    -10.123    4.226    0.241
    433    C    -12.746    1.685    -0.980
    434    O    -13.605    0.883    -1.378
    435    N    -11.779    1.296    -0.121
    436    C    -10.892    2.187    0.342
    437    N    -10.061    1.794    1.302
    438    H    -10.124    0.858    1.633
    439    H    -9.321    2.364    1.649
    440    C    -14.979    4.250    -1.530
    441    H    -14.908    4.139    -0.422
    442    O    -16.275    3.879    -1.970
    443    H    -16.339    4.073    -2.921
    444    C    -14.596    5.679    -1.951
    445    H    -13.872    6.100    -1.222
    446    O    -15.725    6.564    -2.086
    447    H    -16.272    6.506    -1.284
 $END
