!*** FMO 5.3 (Gamess) INPUT generated by Facio 22.1.1.32 ***
 $CONTRL RUNTYP=ENERGY NPRINT=-5 ISPHER=1 MAXIT=200 $END
 $SYSTEM MWORDS=63 MEMDDI=63 $END
 $GDDI NGROUP=1 $END
 $SCF DIRSCF=.TRUE. NPUNCH=0 $END
!*** NumCPU : 2  MemPerNode : 512MB
 $PCM SOLVNT=WATER IEF=-10 ICOMP=2 ICAV=1 IDISP=1 IFMO=-1 $END
 $PCMCAV RADII=SUAHF $END
 $TESCAV NTSALL=60 $END
 $FMOPRP
    NAODIR=200
    NGRFMO(1)=1, 1, 0, 0, 0,   0, 0, 0, 0, 0
    IPIEDA=1
    NPRINT=9
 $END
 $FMO
      SCFTYP(1)=RHF
      MODGRD=10
      MODMUL=0
      MAXCAO=5
      MAXBND=16
      NLAYER=1
      MPLEVL(1)=2
      NFRAG=14
      ICHARG(1)=-1, -1, -1, -1, -1, -1, -1, -1, -1, -1, -1, -1, -1, 0
      FRGNAM(1)=F1, F2, F3, F4, F5, F6, F7, F8, F9, F10, F11, F12, F13, F14
      indat(1)=0
               1   -36   0
               37   -70   0
               71   -101   0
               102   -134   0
               135   -165   0
               166   -195   0
               196   -225   0
               226   -256   0
               257   -290   0
               291   -324   0
               325   -354   0
               355   -388   0
               389   -419   0
               420   -447   0
 $END

 $FMOBND
   -37   36       6-31G*    MINI
   -71   70       6-31G*    MINI
   -102   101       6-31G*    MINI
   -135   134       6-31G*    MINI
   -166   165       6-31G*    MINI
   -196   195       6-31G*    MINI
   -226   225       6-31G*    MINI
   -257   256       6-31G*    MINI
   -291   290       6-31G*    MINI
   -325   324       6-31G*    MINI
   -355   354       6-31G*    MINI
   -389   388       6-31G*    MINI
   -420   419       6-31G*    MINI
 $END
 $FMOHYB
 6-31G*      15   5
   1 0  -0.065034   0.288264   0.000000   0.000000   0.604412
         0.290129   0.000000   0.000000   0.319045  -0.017106
        -0.017106   0.057934   0.000000   0.000000   0.000000
   0 1  -0.065040   0.288293   0.569832   0.000000  -0.201456
         0.290147   0.300783   0.000000  -0.106342   0.049598
        -0.017106  -0.008771   0.000000  -0.027223   0.000000
   0 1  -0.065039   0.288293  -0.284916  -0.493490  -0.201455
         0.290145  -0.150392  -0.260486  -0.106340  -0.000427
         0.032923  -0.008771   0.033353   0.013612   0.023576
   0 1  -0.065039   0.288293  -0.284916   0.493490  -0.201455
         0.290145  -0.150392   0.260486  -0.106340  -0.000427
         0.032923  -0.008771  -0.033353   0.013612  -0.023576
   0 1   1.010938  -0.011975   0.000000   0.000000   0.000000
        -0.054085   0.000000   0.000000  -0.000000  -0.003174
        -0.003174  -0.003174   0.000000   0.000000   0.000000
 MINI         5   5
   1 0  -0.104883   0.308874   0.000000   0.000000   0.521806
   0 1  -0.104883   0.308874   0.491961   0.000000  -0.173934
   0 1  -0.104883   0.308876  -0.245980  -0.426050  -0.173933
   0 1  -0.104883   0.308876  -0.245980   0.426050  -0.173933
   0 1   0.988209   0.063992   0.000000   0.000000   0.000000
 $END
 
 $DATA
 FMO calculation
 C1 
 H.1-1    1
      N31 6
   
 O.1-1    8
      N31 6
      d 1
      1 0.800 1.0
   
 C.1-1    6
      N31 6
      d 1
      1 0.800 1.0
   
 N.1-1    7
      N31 6
      d 1
      1 0.800 1.0
   
 P.1-1   15
      N31 6
      d 1
      1 0.550 1.0
   
 $END
 $FMOXYZ
    1    H    -11.295    -5.021    10.003
    2    O    -11.479    -4.957    9.048
    3    C    -11.985    -6.235    8.637
    4    H    -12.872    -6.479    9.264
    5    H    -11.207    -7.004    8.833
    6    C    -12.393    -6.293    7.160
    7    H    -13.006    -7.198    6.955
    8    O    -13.195    -5.123    6.804
    9    C    -12.840    -4.706    5.496
    10    H    -13.781    -4.670    4.900
    11    N    -12.219    -3.371    5.496
    12    C    -12.053    -2.570    4.400
    13    N    -12.455    -2.035    1.016
    14    H    -12.921    -2.865    0.716
    15    H    -12.300    -1.300    0.351
    16    N    -12.423    -2.875    3.147
    17    C    -12.140    -1.905    2.287
    18    N    -11.539    -0.725    2.648
    19    H    -11.404    -0.026    1.937
    20    C    -11.159    -0.374    3.940
    21    O    -10.635    0.720    4.177
    22    C    -11.457    -1.413    4.866
    23    N    -11.242    -1.488    6.238
    24    C    -11.696    -2.678    6.567
    25    H    -11.708    -3.098    7.576
    26    C    -11.920    -5.756    4.920
    27    H    -11.193    -5.324    4.204
    28    O    -12.678    -6.775    4.293
    29    H    -12.036    -7.391    3.916
    30    C    -11.218    -6.280    6.164
    31    H    -10.479    -5.536    6.546
    32    O    -10.667    -7.608    6.027
    33    P    -9.180    -7.851    5.580
    34    O    -8.894    -9.295    5.714
    35    O    -8.296    -6.930    6.324
    36    O    -9.130    -7.460    4.055
    37    C    -9.793    -8.266    3.050
    38    H    -10.785    -8.628    3.401
    39    H    -9.180    -9.166    2.818
    40    C    -10.026    -7.485    1.741
    41    H    -10.749    -8.014    1.086
    42    O    -10.587    -6.179    2.035
    43    C    -9.986    -5.194    1.213
    44    H    -10.829    -4.673    0.700
    45    N    -9.235    -4.200    2.003
    46    C    -8.816    -2.973    1.563
    47    N    -8.593    -0.635    -0.967
    48    H    -9.029    -1.112    -1.728
    49    H    -8.230    0.289    -1.119
    50    N    -8.999    -2.478    0.331
    51    C    -8.523    -1.247    0.199
    52    N    -7.930    -0.553    1.221
    53    H    -7.599    0.377    1.023
    54    C    -7.732    -1.034    2.512
    55    O    -7.189    -0.336    3.374
    56    C    -8.211    -2.369    2.649
    57    N    -8.226    -3.214    3.753
    58    C    -8.852    -4.287    3.324
    59    H    -9.074    -5.173    3.920
    60    C    -9.145    -5.913    0.180
    61    H    -8.244    -5.337    -0.120
    62    O    -9.934    -6.199    -0.960
    63    H    -9.419    -6.804    -1.513
    64    C    -8.764    -7.194    0.918
    65    H    -7.957    -6.998    1.660
    66    O    -8.483    -8.317    0.057
    67    P    -7.020    -8.638    -0.410
    68    O    -7.032    -9.911    -1.164
    69    O    -6.131    -8.581    0.771
    70    O    -6.640    -7.458    -1.384
    71    C    -6.702    -7.636    -2.824
    72    H    -7.727    -7.947    -3.132
    73    H    -5.993    -8.426    -3.155
    74    C    -6.349    -6.354    -3.611
    75    H    -6.798    -6.390    -4.626
    76    O    -6.899    -5.188    -2.952
    77    C    -6.011    -4.099    -3.091
    78    H    -6.599    -3.344    -3.664
    79    N    -5.623    -3.499    -1.794
    80    C    -5.652    -4.248    -0.639
    81    H    -5.973    -5.286    -0.749
    82    C    -5.329    -3.708    0.545
    83    H    -5.378    -4.268    1.477
    84    C    -5.202    -2.176    -1.754
    85    O    -5.133    -1.527    -2.809
    86    N    -4.881    -1.616    -0.567
    87    C    -4.947    -2.337    0.565
    88    N    -4.670    -1.740    1.723
    89    H    -4.367    -0.783    1.725
    90    H    -4.698    -2.231    2.598
    91    C    -4.823    -4.532    -3.935
    92    H    -3.860    -4.126    -3.555
    93    O    -5.011    -4.115    -5.275
    94    H    -4.229    -4.415    -5.777
    95    C    -4.845    -6.062    -3.796
    96    H    -4.343    -6.366    -2.848
    97    O    -4.343    -6.815    -4.930
    98    P    -2.844    -6.726    -5.401
    99    O    -2.581    -7.816    -6.366
    100    O    -1.987    -6.665    -4.200
    101    O    -2.745    -5.343    -6.135
    102    C    -2.251    -5.145    -7.477
    103    H    -3.109    -5.207    -8.186
    104    H    -1.509    -5.926    -7.774
    105    C    -1.577    -3.768    -7.684
    106    H    -1.738    -3.394    -8.715
    107    O    -2.125    -2.771    -6.762
    108    C    -1.078    -1.975    -6.252
    109    H    -1.349    -0.914    -6.457
    110    N    -0.914    -2.166    -4.804
    111    C    -0.489    -1.862    -2.670
    112    N    -0.900    -3.180    -2.796
    113    C    -1.138    -3.312    -4.076
    114    H    -1.472    -4.234    -4.550
    115    N    0.247    0.190    -1.765
    116    C    0.227    0.663    -3.013
    117    H    0.538    1.706    -3.117
    118    N    -0.130    0.046    -4.146
    119    C    -0.487    -1.225    -3.899
    120    C    -0.095    -1.105    -1.552
    121    N    -0.042    -1.621    -0.310
    122    H    -0.254    -2.585    -0.124
    123    H    0.261    -1.055    0.462
    124    C    0.176    -2.323    -7.012
    125    H    1.064    -2.263    -6.359
    126    O    0.334    -1.478    -8.135
    127    H    1.187    -1.710    -8.526
    128    C    -0.058    -3.769    -7.423
    129    H    0.118    -4.457    -6.565
    130    O    0.656    -4.178    -8.611
    131    P    2.143    -4.696    -8.572
    132    O    2.628    -4.822    -9.963
    133    O    2.176    -5.928    -7.756
    134    O    2.985    -3.592    -7.834
    135    C    3.802    -2.625    -8.544
    136    H    3.310    -2.300    -9.493
    137    H    4.788    -3.079    -8.816
    138    C    4.069    -1.339    -7.721
    139    H    4.148    -0.458    -8.393
    140    O    2.976    -1.076    -6.799
    141    C    3.475    -0.608    -5.560
    142    H    2.920    0.341    -5.367
    143    N    3.244    -1.545    -4.419
    144    C    2.875    -2.861    -4.602
    145    H    2.765    -3.190    -5.634
    146    C    2.652    -3.676    -3.559
    147    H    2.335    -4.710    -3.681
    148    C    3.415    -1.057    -3.131
    149    O    3.735    0.132    -2.978
    150    N    3.237    -1.872    -2.070
    151    C    2.846    -3.141    -2.251
    152    N    2.644    -3.893    -1.175
    153    H    2.777    -3.476    -0.276
    154    H    2.353    -4.852    -1.237
    155    C    4.940    -0.303    -5.768
    156    H    5.548    -0.435    -4.847
    157    O    5.084    1.020    -6.252
    158    H    5.998    1.120    -6.554
    159    C    5.309    -1.339    -6.820
    160    H    5.361    -2.353    -6.356
    161    O    6.474    -0.983    -7.583
    162    P    7.734    -1.913    -7.629
    163    O    8.604    -1.484    -8.745
    164    O    7.330    -3.337    -7.629
    165    O    8.464    -1.597    -6.273
    166    C    9.047    -0.289    -6.054
    167    H    8.392    0.528    -6.437
    168    H    10.030    -0.218    -6.574
    169    C    9.280    -0.028    -4.562
    170    H    9.659    1.004    -4.401
    171    O    8.027    -0.151    -3.834
    172    C    8.282    -0.690    -2.551
    173    H    7.919    0.076    -1.829
    174    N    7.557    -1.975    -2.330
    175    C    7.095    -2.725    -3.390
    176    H    7.284    -2.303    -4.378
    177    C    7.351    -2.392    -1.030
    178    O    7.746    -1.760    -0.060
    179    N    6.654    -3.567    -0.899
    180    H    6.537    -3.919    0.040
    181    C    6.181    -4.373    -1.911
    182    O    5.600    -5.422    -1.647
    183    C    6.421    -3.874    -3.231
    184    H    6.052    -4.447    -4.081
    185    C    9.794    -0.826    -2.414
    186    H    10.089    -1.699    -1.795
    187    O    10.347    0.358    -1.874
    188    H    11.276    0.149    -1.717
    189    C    10.238    -1.000    -3.861
    190    H    9.996    -2.021    -4.230
    191    O    11.605    -0.618    -4.134
    192    P    12.787    -1.620    -3.885
    193    O    13.838    -1.339    -4.889
    194    O    12.279    -3.009    -3.817
    195    O    13.312    -1.200    -2.452
    196    C    14.581    -1.761    -2.013
    197    H    15.313    -1.851    -2.854
    198    H    14.424    -2.777    -1.585
    199    C    15.283    -0.892    -0.961
    200    H    16.286    -1.324    -0.743
    201    O    15.506    0.439    -1.496
    202    C    14.977    1.403    -0.624
    203    H    15.838    1.720    0.009
    204    N    14.387    2.529    -1.387
    205    C    13.501    2.272    -2.408
    206    H    13.321    1.215    -2.611
    207    C    14.752    3.815    -1.069
    208    O    15.555    4.077    -0.180
    209    N    14.153    4.791    -1.825
    210    H    14.430    5.737    -1.610
    211    C    13.271    4.615    -2.872
    212    O    12.837    5.592    -3.482
    213    C    12.949    3.246    -3.149
    214    H    12.269    3.027    -3.969
    215    C    13.962    0.712    0.270
    216    H    12.963    0.681    -0.217
    217    O    13.900    1.361    1.529
    218    H    13.190    0.983    2.081
    219    C    14.521    -0.712    0.371
    220    H    13.653    -1.413    0.359
    221    O    15.386    -0.919    1.515
    222    P    15.382    -2.300    2.261
    223    O    16.262    -2.228    3.449
    224    O    15.698    -3.358    1.273
    225    O    13.902    -2.529    2.730
    226    C    13.436    -2.213    4.060
    227    H    13.308    -1.110    4.156
    228    H    14.160    -2.536    4.843
    229    C    12.073    -2.869    4.378
    230    H    11.586    -2.323    5.214
    231    O    11.179    -2.814    3.232
    232    C    10.788    -4.118    2.873
    233    H    9.823    -4.287    3.404
    234    N    10.632    -4.262    1.410
    235    C    11.587    -3.703    0.599
    236    H    12.372    -3.137    1.107
    237    C    11.514    -3.814    -0.731
    238    H    12.253    -3.369    -1.392
    239    C    9.581    -4.993    0.860
    240    O    8.739    -5.508    1.615
    241    N    9.492    -5.114    -0.488
    242    C    10.426    -4.552    -1.279
    243    N    10.334    -4.682    -2.602
    244    H    11.018    -4.237    -3.196
    245    H    9.637    -5.278    -2.999
    246    C    11.833    -5.048    3.438
    247    H    12.743    -5.054    2.800
    248    O    11.336    -6.357    3.627
    249    H    10.691    -6.297    4.350
    250    C    12.139    -4.361    4.765
    251    H    13.190    -4.616    5.052
    252    O    11.178    -4.694    5.794
    253    P    11.595    -4.898    7.294
    254    O    13.035    -5.246    7.380
    255    O    10.654    -5.852    7.934
    256    O    11.403    -3.482    7.952
    257    C    10.113    -2.833    7.988
    258    H    9.513    -3.215    8.846
    259    H    9.538    -3.025    7.051
    260    C    10.238    -1.308    8.112
    261    H    10.538    -1.015    9.141
    262    O    11.257    -0.815    7.203
    263    C    10.941    0.498    6.811
    264    H    11.715    1.135    7.292
    265    N    11.020    0.660    5.361
    266    C    10.255    0.099    4.358
    267    N    7.711    -2.006    3.290
    268    H    7.370    -2.376    2.433
    269    H    7.380    -2.377    4.154
    270    N    9.213    -0.745    4.504
    271    C    8.726    -1.160    3.339
    272    N    9.218    -0.750    2.129
    273    H    8.815    -1.136    1.292
    274    C    10.314    0.082    1.959
    275    O    10.745    0.386    0.847
    276    C    10.811    0.571    3.188
    277    N    11.861    1.445    3.442
    278    C    11.953    1.458    4.746
    279    H    12.688    2.025    5.323
    280    C    9.578    0.855    7.369
    281    H    8.935    1.360    6.619
    282    O    9.727    1.676    8.511
    283    H    8.875    1.671    8.972
    284    C    8.989    -0.509    7.723
    285    H    8.584    -1.001    6.815
    286    O    8.032    -0.490    8.799
    287    P    6.488    -0.405    8.502
    288    O    5.833    0.146    9.712
    289    O    6.008    -1.727    8.033
    290    O    6.338    0.617    7.326
    291    C    6.217    2.037    7.541
    292    H    6.999    2.388    8.252
    293    H    5.218    2.250    7.992
    294    C    6.391    2.890    6.258
    295    H    7.027    3.779    6.476
    296    O    7.058    2.138    5.195
    297    C    6.358    2.326    3.983
    298    H    7.121    2.523    3.197
    299    N    5.562    1.139    3.623
    300    C    5.182    0.773    2.364
    301    N    5.178    1.336    -1.042
    302    H    5.703    2.178    -1.140
    303    H    4.754    0.913    -1.847
    304    N    5.466    1.437    1.234
    305    C    4.978    0.832    0.159
    306    N    4.243    -0.327    0.209
    307    H    3.907    -0.728    -0.651
    308    C    3.922    -1.029    1.364
    309    O    3.267    -2.075    1.336
    310    C    4.453    -0.393    2.514
    311    N    4.353    -0.741    3.849
    312    C    5.028    0.193    4.470
    313    H    5.161    0.242    5.544
    314    C    5.490    3.542    4.169
    315    H    4.608    3.546    3.493
    316    O    6.253    4.717    3.963
    317    H    5.700    5.453    4.253
    318    C    5.081    3.396    5.628
    319    H    4.335    2.579    5.753
    320    O    4.677    4.626    6.263
    321    P    3.170    5.072    6.275
    322    O    3.081    6.311    7.082
    323    O    2.339    3.922    6.688
    324    O    2.833    5.400    4.773
    325    C    3.397    6.550    4.100
    326    H    4.507    6.551    4.165
    327    H    3.043    7.494    4.576
    328    C    3.006    6.609    2.614
    329    H    3.482    7.478    2.112
    330    O    3.467    5.420    1.916
    331    C    2.489    5.031    0.962
    332    H    3.014    5.031    -0.026
    333    N    1.950    3.674    1.250
    334    C    1.971    3.146    2.522
    335    H    2.435    3.771    3.280
    336    C    1.439    2.956    0.199
    337    O    1.412    3.390    -0.949
    338    N    0.972    1.711    0.523
    339    H    0.651    1.160    -0.267
    340    C    0.983    1.103    1.761
    341    O    0.558    -0.042    1.898
    342    C    1.530    1.912    2.804
    343    H    1.594    1.493    3.805
    344    C    1.395    6.088    0.949
    345    H    0.390    5.643    0.783
    346    O    1.629    7.072    -0.042
    347    H    0.841    7.638    -0.029
    348    C    1.495    6.674    2.353
    349    H    1.010    5.995    3.090
    350    O    1.042    8.034    2.503
    351    P    -0.481    8.408    2.554
    352    O    -0.604    9.882    2.616
    353    O    -1.135    7.636    3.630
    354    O    -1.048    7.909    1.184
    355    C    -1.327    8.794    0.078
    356    H    -0.394    9.315    -0.251
    357    H    -2.068    9.571    0.378
    358    C    -1.908    8.036    -1.133
    359    H    -1.703    8.593    -2.076
    360    O    -1.304    6.709    -1.240
    361    C    -2.296    5.767    -1.595
    362    H    -1.920    5.253    -2.507
    363    N    -2.523    4.770    -0.539
    364    C    -2.987    3.501    -0.744
    365    N    -4.115    1.035    -2.892
    366    H    -4.069    1.485    -3.783
    367    H    -4.492    0.107    -2.829
    368    N    -3.312    2.965    -1.933
    369    C    -3.750    1.719    -1.824
    370    N    -3.843    1.059    -0.628
    371    H    -4.202    0.118    -0.634
    372    C    -3.516    1.581    0.615
    373    O    -3.645    0.900    1.636
    374    C    -3.054    2.921    0.509
    375    N    -2.644    3.817    1.490
    376    C    -2.341    4.904    0.819
    377    H    -1.974    5.831    1.259
    378    C    -3.552    6.528    -1.937
    379    H    -4.470    5.959    -1.683
    380    O    -3.552    6.858    -3.314
    381    H    -4.368    7.352    -3.469
    382    C    -3.425    7.772    -1.062
    383    H    -3.655    7.534    0.001
    384    O    -4.153    8.924    -1.541
    385    P    -5.656    9.172    -1.130
    386    O    -6.120    10.412    -1.790
    387    O    -5.764    9.122    0.344
    388    O    -6.449    7.951    -1.720
    389    C    -6.900    7.945    -3.092
    390    H    -6.096    8.296    -3.778
    391    H    -7.763    8.638    -3.214
    392    C    -7.341    6.540    -3.556
    393    H    -7.270    6.466    -4.662
    394    O    -6.474    5.514    -3.012
    395    C    -7.222    4.363    -2.675
    396    H    -6.808    3.569    -3.340
    397    N    -7.035    3.931    -1.259
    398    C    -6.605    4.816    -0.295
    399    H    -6.424    5.839    -0.632
    400    C    -6.410    4.422    0.972
    401    H    -6.046    5.099    1.744
    402    C    -7.309    2.613    -0.911
    403    O    -7.714    1.833    -1.786
    404    N    -7.124    2.195    0.363
    405    C    -6.673    3.056    1.294
    406    N    -6.464    2.606    2.531
    407    H    -6.634    1.647    2.752
    408    H    -6.138    3.204    3.266
    409    C    -8.679    4.599    -3.049
    410    H    -9.370    4.247    -2.255
    411    O    -8.993    3.947    -4.269
    412    H    -9.921    4.169    -4.470
    413    C    -8.761    6.130    -3.163
    414    H    -8.947    6.583    -2.165
    415    O    -9.676    6.643    -4.147
    416    P    -11.225    6.528    -4.032
    417    O    -11.816    7.454    -5.017
    418    O    -11.620    6.704    -2.617
    419    O    -11.566    5.057    -4.458
    420    C    -12.881    4.708    -4.972
    421    H    -12.818    4.649    -6.082
    422    H    -13.660    5.479    -4.736
    423    C    -13.420    3.348    -4.457
    424    H    -13.838    2.749    -5.297
    425    O    -12.362    2.554    -3.845
    426    C    -12.875    1.853    -2.731
    427    H    -12.762    0.781    -3.015
    428    N    -12.111    2.122    -1.488
    429    C    -11.665    3.391    -1.204
    430    H    -11.856    4.149    -1.972
    431    C    -10.987    3.648    -0.074
    432    H    -10.601    4.638    0.164
    433    C    -11.911    1.094    -0.574
    434    O    -12.372    -0.030    -0.828
    435    N    -11.236    1.331    0.574
    436    C    -10.778    2.568    0.840
    437    N    -10.146    2.779    1.995
    438    H    -10.130    2.051    2.680
    439    H    -9.860    3.697    2.275
    440    C    -14.361    2.160    -2.585
    441    H    -14.637    2.327    -1.520
    442    O    -15.139    1.095    -3.109
    443    H    -16.076    1.352    -3.112
    444    C    -14.507    3.460    -3.377
    445    H    -14.241    4.330    -2.737
    446    O    -15.806    3.644    -3.975
    447    H    -16.496    3.676    -3.286
 $END
