!*** FMO 5.3 (Gamess) INPUT generated by Facio 22.1.1.32 ***
 $CONTRL RUNTYP=ENERGY NPRINT=-5 ISPHER=1 MAXIT=200 $END
 $SYSTEM MWORDS=63 MEMDDI=63 $END
 $GDDI NGROUP=1 $END
 $SCF DIRSCF=.TRUE. NPUNCH=0 $END
!*** NumCPU : 2  MemPerNode : 512MB
 $PCM SOLVNT=WATER IEF=-10 ICOMP=2 ICAV=1 IDISP=1 IFMO=-1 $END
 $PCMCAV RADII=SUAHF $END
 $TESCAV NTSALL=60 $END
 $FMOPRP
    NAODIR=200
    NGRFMO(1)=1, 1, 0, 0, 0,   0, 0, 0, 0, 0
    IPIEDA=1
    NPRINT=9
 $END
 $FMO
      SCFTYP(1)=RHF
      MODGRD=10
      MODMUL=0
      MAXCAO=5
      MAXBND=16
      NLAYER=1
      MPLEVL(1)=2
      NFRAG=14
      ICHARG(1)=-1, -1, -1, -1, -1, -1, -1, -1, -1, -1, -1, -1, -1, 0
      FRGNAM(1)=F1, F2, F3, F4, F5, F6, F7, F8, F9, F10, F11, F12, F13, F14
      indat(1)=0
               1   -36   0
               37   -70   0
               71   -101   0
               102   -134   0
               135   -165   0
               166   -195   0
               196   -225   0
               226   -256   0
               257   -290   0
               291   -324   0
               325   -354   0
               355   -388   0
               389   -419   0
               420   -447   0
 $END

 $FMOBND
   -37   36       6-31G*    MINI
   -71   70       6-31G*    MINI
   -102   101       6-31G*    MINI
   -135   134       6-31G*    MINI
   -166   165       6-31G*    MINI
   -196   195       6-31G*    MINI
   -226   225       6-31G*    MINI
   -257   256       6-31G*    MINI
   -291   290       6-31G*    MINI
   -325   324       6-31G*    MINI
   -355   354       6-31G*    MINI
   -389   388       6-31G*    MINI
   -420   419       6-31G*    MINI
 $END
 $FMOHYB
 6-31G*      15   5
   1 0  -0.065034   0.288264   0.000000   0.000000   0.604412
         0.290129   0.000000   0.000000   0.319045  -0.017106
        -0.017106   0.057934   0.000000   0.000000   0.000000
   0 1  -0.065040   0.288293   0.569832   0.000000  -0.201456
         0.290147   0.300783   0.000000  -0.106342   0.049598
        -0.017106  -0.008771   0.000000  -0.027223   0.000000
   0 1  -0.065039   0.288293  -0.284916  -0.493490  -0.201455
         0.290145  -0.150392  -0.260486  -0.106340  -0.000427
         0.032923  -0.008771   0.033353   0.013612   0.023576
   0 1  -0.065039   0.288293  -0.284916   0.493490  -0.201455
         0.290145  -0.150392   0.260486  -0.106340  -0.000427
         0.032923  -0.008771  -0.033353   0.013612  -0.023576
   0 1   1.010938  -0.011975   0.000000   0.000000   0.000000
        -0.054085   0.000000   0.000000  -0.000000  -0.003174
        -0.003174  -0.003174   0.000000   0.000000   0.000000
 MINI         5   5
   1 0  -0.104883   0.308874   0.000000   0.000000   0.521806
   0 1  -0.104883   0.308874   0.491961   0.000000  -0.173934
   0 1  -0.104883   0.308876  -0.245980  -0.426050  -0.173933
   0 1  -0.104883   0.308876  -0.245980   0.426050  -0.173933
   0 1   0.988209   0.063992   0.000000   0.000000   0.000000
 $END
 
 $DATA
 FMO calculation
 C1 
 H.1-1    1
      N31 6
   
 O.1-1    8
      N31 6
      d 1
      1 0.800 1.0
   
 C.1-1    6
      N31 6
      d 1
      1 0.800 1.0
   
 N.1-1    7
      N31 6
      d 1
      1 0.800 1.0
   
 P.1-1   15
      N31 6
      d 1
      1 0.550 1.0
   
 $END
 $FMOXYZ
    1    H    -2.945    -6.544    4.831
    2    O    -3.906    -6.406    4.739
    3    C    -4.512    -7.706    4.588
    4    H    -3.979    -8.402    5.275
    5    H    -4.356    -8.073    3.551
    6    C    -6.019    -7.774    4.951
    7    H    -6.245    -8.776    5.376
    8    O    -6.276    -6.777    5.990
    9    C    -7.501    -6.120    5.748
    10    H    -8.040    -6.137    6.731
    11    N    -7.397    -4.712    5.418
    12    C    -8.457    -3.849    5.257
    13    N    -11.874    -3.215    5.129
    14    H    -12.478    -2.426    5.040
    15    H    -12.273    -4.112    5.318
    16    N    -9.774    -4.160    5.337
    17    C    -10.556    -3.100    5.135
    18    N    -10.069    -1.835    4.941
    19    H    -10.727    -1.077    4.887
    20    C    -8.723    -1.489    4.934
    21    O    -8.352    -0.324    4.795
    22    C    -7.880    -2.615    5.064
    23    N    -6.492    -2.697    5.093
    24    C    -6.249    -3.968    5.304
    25    H    -5.262    -4.430    5.387
    26    C    -8.231    -6.908    4.734
    27    H    -8.951    -6.333    4.116
    28    O    -8.885    -7.870    5.527
    29    H    -8.315    -8.644    5.600
    30    C    -7.102    -7.486    3.871
    31    H    -6.682    -6.702    3.210
    32    O    -7.438    -8.660    3.103
    33    P    -8.866    -9.180    2.617
    34    O    -8.696    -10.574    2.160
    35    O    -9.944    -9.011    3.598
    36    O    -9.300    -8.299    1.388
    37    C    -10.598    -8.667    0.831
    38    H    -11.385    -8.798    1.618
    39    H    -10.525    -9.634    0.274
    40    C    -11.106    -7.594    -0.120
    41    H    -11.952    -7.990    -0.723
    42    O    -11.632    -6.485    0.698
    43    C    -11.251    -5.254    0.094
    44    H    -12.128    -4.569    0.109
    45    N    -10.117    -4.630    0.782
    46    C    -9.698    -3.367    0.550
    47    N    -10.326    -0.360    -0.897
    48    H    -10.530    -0.578    -1.849
    49    H    -9.950    0.553    -0.742
    50    N    -10.289    -2.515    -0.281
    51    C    -9.741    -1.323    -0.234
    52    N    -8.576    -1.037    0.452
    53    H    -8.172    -0.119    0.365
    54    C    -7.903    -1.939    1.278
    55    O    -6.875    -1.631    1.882
    56    C    -8.568    -3.193    1.318
    57    N    -8.294    -4.338    2.044
    58    C    -9.253    -5.163    1.703
    59    H    -9.402    -6.166    2.098
    60    C    -10.886    -5.613    -1.327
    61    H    -10.272    -4.841    -1.837
    62    O    -12.089    -5.843    -2.045
    63    H    -12.690    -6.351    -1.476
    64    C    -10.084    -6.886    -1.057
    65    H    -9.188    -6.639    -0.445
    66    O    -9.719    -7.649    -2.233
    67    P    -8.219    -8.101    -2.552
    68    O    -8.261    -9.367    -3.320
    69    O    -7.417    -8.124    -1.315
    70    O    -7.577    -7.005    -3.486
    71    C    -6.795    -7.144    -4.725
    72    H    -7.306    -7.856    -5.408
    73    H    -5.791    -7.571    -4.513
    74    C    -6.591    -5.803    -5.559
    75    H    -7.128    -5.895    -6.527
    76    O    -7.312    -4.788    -4.809
    77    C    -6.565    -3.631    -4.659
    78    H    -7.306    -2.847    -4.948
    79    N    -6.104    -3.373    -3.278
    80    C    -5.857    -4.347    -2.336
    81    H    -6.078    -5.373    -2.635
    82    C    -5.411    -4.019    -1.109
    83    H    -5.215    -4.756    -0.334
    84    C    -5.896    -2.046    -2.969
    85    O    -6.126    -1.198    -3.843
    86    N    -5.459    -1.696    -1.739
    87    C    -5.186    -2.638    -0.833
    88    N    -4.666    -2.248    0.325
    89    H    -4.704    -1.284    0.556
    90    H    -4.619    -2.872    1.104
    91    C    -5.446    -3.637    -5.654
    92    H    -4.533    -3.114    -5.290
    93    O    -5.902    -3.025    -6.850
    94    H    -5.180    -3.090    -7.494
    95    C    -5.167    -5.123    -5.847
    96    H    -4.478    -5.499    -5.059
    97    O    -4.632    -5.385    -7.178
    98    P    -3.196    -4.858    -7.679
    99    O    -2.950    -5.458    -9.008
    100    O    -2.210    -5.168    -6.624
    101    O    -3.185    -3.259    -7.871
    102    C    -2.308    -2.657    -8.905
    103    H    -2.926    -2.509    -9.820
    104    H    -1.477    -3.338    -9.203
    105    C    -1.619    -1.256    -8.629
    106    H    -1.799    -0.583    -9.498
    107    O    -2.239    -0.605    -7.481
    108    C    -1.247    -0.067    -6.625
    109    H    -1.543    0.985    -6.396
    110    N    -1.172    -0.842    -5.389
    111    C    -0.914    -1.407    -3.285
    112    N    -1.325    -2.554    -3.947
    113    C    -1.461    -2.172    -5.192
    114    H    -1.773    -2.814    -6.016
    115    N    -0.180    0.106    -1.620
    116    C    -0.037    0.976    -2.621
    117    H    0.391    1.928    -2.362
    118    N    -0.328    0.864    -3.914
    119    C    -0.792    -0.358    -4.174
    120    C    -0.610    -1.144    -1.931
    121    N    -0.681    -2.092    -0.982
    122    H    -0.800    -3.053    -1.236
    123    H    -0.279    -1.902    -0.084
    124    C    0.067    -0.053    -7.348
    125    H    0.914    -0.233    -6.657
    126    O    0.288    1.181    -8.009
    127    H    1.171    1.118    -8.405
    128    C    -0.073    -1.215    -8.328
    129    H    0.175    -2.179    -7.832
    130    O    0.717    -1.035    -9.528
    131    P    2.303    -1.127    -9.504
    132    O    2.828    -0.579    -10.772
    133    O    2.662    -2.520    -9.176
    134    O    2.826    -0.194    -8.344
    135    C    4.187    0.323    -8.360
    136    H    4.245    1.171    -9.085
    137    H    4.927    -0.445    -8.692
    138    C    4.679    0.881    -7.000
    139    H    5.307    1.784    -7.178
    140    O    3.544    1.271    -6.146
    141    C    3.869    0.975    -4.786
    142    H    3.604    1.883    -4.197
    143    N    3.167    -0.233    -4.254
    144    C    2.610    -1.184    -5.073
    145    H    2.693    -0.994    -6.145
    146    C    2.029    -2.282    -4.570
    147    H    1.575    -3.046    -5.197
    148    C    3.048    -0.381    -2.888
    149    O    3.377    0.561    -2.180
    150    N    2.584    -1.520    -2.355
    151    C    2.060    -2.454    -3.158
    152    N    1.553    -3.548    -2.611
    153    H    1.690    -3.680    -1.629
    154    H    1.082    -4.261    -3.134
    155    C    5.369    0.754    -4.761
    156    H    5.715    0.161    -3.888
    157    O    6.055    1.999    -4.812
    158    H    5.749    2.584    -4.099
    159    C    5.468    -0.050    -6.056
    160    H    4.814    -0.938    -5.980
    161    O    6.796    -0.419    -6.506
    162    P    7.143    -1.984    -6.562
    163    O    8.170    -2.234    -7.597
    164    O    5.921    -2.807    -6.642
    165    O    7.810    -2.316    -5.196
    166    C    9.079    -1.725    -4.851
    167    H    9.251    -0.731    -5.343
    168    H    9.914    -2.399    -5.164
    169    C    9.140    -1.524    -3.341
    170    H    9.979    -0.834    -3.106
    171    O    7.899    -0.940    -2.814
    172    C    7.713    -1.425    -1.490
    173    H    7.667    -0.526    -0.833
    174    N    6.469    -2.239    -1.336
    175    C    5.901    -2.899    -2.405
    176    H    6.350    -2.691    -3.378
    177    C    5.965    -2.396    -0.060
    178    O    6.483    -1.891    0.925
    179    N    4.831    -3.165    0.021
    180    H    4.503    -3.363    0.955
    181    C    4.260    -3.913    -0.978
    182    O    3.316    -4.658    -0.719
    183    C    4.845    -3.718    -2.275
    184    H    4.402    -4.228    -3.127
    185    C    8.961    -2.219    -1.160
    186    H    8.801    -2.994    -0.380
    187    O    9.997    -1.329    -0.801
    188    H    10.658    -1.831    -0.311
    189    C    9.299    -2.799    -2.509
    190    H    8.529    -3.520    -2.868
    191    O    10.640    -3.318    -2.614
    192    P    10.901    -4.752    -2.021
    193    O    11.886    -5.401    -2.917
    194    O    9.617    -5.452    -1.784
    195    O    11.553    -4.436    -0.620
    196    C    12.261    -5.486    0.081
    197    H    12.750    -6.205    -0.619
    198    H    11.562    -6.070    0.725
    199    C    13.381    -4.914    0.952
    200    H    13.958    -5.755    1.397
    201    O    14.301    -4.125    0.150
    202    C    14.436    -2.832    0.694
    203    H    15.340    -2.883    1.346
    204    N    14.560    -1.823    -0.387
    205    C    13.626    -1.773    -1.398
    206    H    12.871    -2.561    -1.373
    207    C    15.605    -0.928    -0.337
    208    O    16.430    -0.920    0.565
    209    N    15.656    -0.044    -1.387
    210    H    16.430    0.605    -1.373
    211    C    14.786    0.043    -2.451
    212    O    14.971    0.882    -3.333
    213    C    13.706    -0.899    -2.414
    214    H    12.997    -0.903    -3.242
    215    C    13.229    -2.581    1.570
    216    H    12.372    -2.210    0.966
    217    O    13.543    -1.672    2.613
    218    H    12.717    -1.430    3.058
    219    C    12.906    -3.988    2.086
    220    H    11.797    -4.081    2.154
    221    O    13.570    -4.316    3.319
    222    P    12.851    -5.092    4.466
    223    O    13.720    -5.052    5.662
    224    O    12.476    -6.437    3.974
    225    O    11.537    -4.283    4.756
    226    C    11.496    -3.266    5.781
    227    H    12.030    -2.351    5.438
    228    H    11.984    -3.617    6.721
    229    C    10.061    -2.858    6.144
    230    H    10.069    -1.858    6.633
    231    O    9.221    -2.758    4.967
    232    C    8.134    -3.652    5.043
    233    H    7.290    -3.044    5.428
    234    N    7.812    -4.238    3.703
    235    C    8.849    -4.572    2.864
    236    H    9.847    -4.374    3.253
    237    C    8.632    -5.052    1.631
    238    H    9.440    -5.283    0.940
    239    C    6.497    -4.404    3.268
    240    O    5.570    -4.024    3.999
    241    N    6.257    -4.961    2.052
    242    C    7.283    -5.237    1.221
    243    N    7.038    -5.688    -0.013
    244    H    7.787    -5.850    -0.662
    245    H    6.102    -5.912    -0.282
    246    C    8.502    -4.687    6.085
    247    H    9.137    -5.468    5.611
    248    O    7.374    -5.276    6.702
    249    H    6.884    -4.581    7.173
    250    C    9.375    -3.875    7.070
    251    H    10.145    -4.593    7.435
    252    O    8.686    -3.220    8.177
    253    P    9.573    -2.806    9.447
    254    O    10.743    -3.705    9.554
    255    O    8.695    -2.761    10.637
    256    O    10.092    -1.357    9.160
    257    C    9.292    -0.155    9.297
    258    H    9.063    0.029    10.371
    259    H    8.325    -0.282    8.758
    260    C    9.981    1.130    8.734
    261    H    10.479    1.690    9.549
    262    O    11.037    0.773    7.792
    263    C    11.174    1.770    6.805
    264    H    12.196    2.189    6.960
    265    N    11.100    1.200    5.462
    266    C    10.040    0.616    4.806
    267    N    6.727    -0.413    4.696
    268    H    6.151    -0.983    4.123
    269    H    6.432    -0.213    5.628
    270    N    8.785    0.462    5.262
    271    C    7.988    -0.146    4.396
    272    N    8.407    -0.586    3.170
    273    H    7.777    -1.110    2.592
    274    C    9.723    -0.534    2.745
    275    O    10.102    -1.023    1.693
    276    C    10.551    0.212    3.600
    277    N    11.883    0.577    3.462
    278    C    12.165    1.163    4.596
    279    H    13.140    1.579    4.860
    280    C    10.136    2.842    7.049
    281    H    9.655    3.199    6.111
    282    O    10.746    3.930    7.723
    283    H    10.038    4.509    8.044
    284    C    9.112    2.120    7.929
    285    H    8.447    1.477    7.324
    286    O    8.355    2.999    8.781
    287    P    6.867    3.388    8.394
    288    O    6.438    4.494    9.279
    289    O    6.026    2.170    8.412
    290    O    6.943    3.903    6.916
    291    C    6.944    5.297    6.529
    292    H    7.807    5.813    7.012
    293    H    6.015    5.802    6.873
    294    C    7.078    5.530    4.994
    295    H    7.805    6.354    4.816
    296    O    7.606    4.316    4.343
    297    C    6.832    4.044    3.186
    298    H    7.530    3.668    2.404
    299    N    5.759    3.054    3.429
    300    C    5.192    2.322    2.443
    301    N    5.343    1.303    -0.780
    302    H    5.398    2.162    -1.286
    303    H    4.954    0.542    -1.296
    304    N    5.551    2.368    1.166
    305    C    4.943    1.459    0.448
    306    N    3.917    0.660    0.911
    307    H    3.414    0.091    0.254
    308    C    3.469    0.651    2.235
    309    O    2.559    -0.085    2.620
    310    C    4.210    1.559    3.040
    311    N    4.153    1.816    4.403
    312    C    5.101    2.707    4.591
    313    H    5.354    3.147    5.552
    314    C    6.252    5.371    2.777
    315    H    5.400    5.285    2.068
    316    O    7.275    6.182    2.217
    317    H    8.015    6.202    2.843
    318    C    5.806    5.863    4.150
    319    H    4.987    5.226    4.547
    320    O    5.463    7.262    4.192
    321    P    3.942    7.704    4.121
    322    O    3.869    9.166    4.321
    323    O    3.161    6.873    5.060
    324    O    3.422    7.367    2.674
    325    C    3.531    8.290    1.561
    326    H    4.607    8.466    1.330
    327    H    3.076    9.278    1.804
    328    C    2.868    7.762    0.261
    329    H    3.227    8.350    -0.611
    330    O    3.257    6.373    0.044
    331    C    2.176    5.668    -0.533
    332    H    2.577    5.222    -1.473
    333    N    1.661    4.592    0.358
    334    C    1.837    4.600    1.725
    335    H    2.392    5.450    2.118
    336    C    0.884    3.643    -0.228
    337    O    0.593    3.712    -1.428
    338    N    0.438    2.640    0.583
    339    H    -0.075    1.899    0.146
    340    C    0.577    2.571    1.955
    341    O    0.050    1.652    2.574
    342    C    1.339    3.646    2.525
    343    H    1.477    3.675    3.605
    344    C    1.102    6.675    -0.888
    345    H    0.080    6.245    -0.811
    346    O    1.297    7.186    -2.196
    347    H    0.533    7.752    -2.381
    348    C    1.322    7.744    0.173
    349    H    0.963    7.386    1.162
    350    O    0.783    9.048    -0.177
    351    P    -0.790    9.236    -0.036
    352    O    -1.096    10.657    -0.312
    353    O    -1.176    8.725    1.297
    354    O    -1.454    8.337    -1.141
    355    C    -2.113    8.864    -2.322
    356    H    -1.381    9.453    -2.921
    357    H    -2.946    9.550    -2.038
    358    C    -2.704    7.772    -3.266
    359    H    -2.529    8.042    -4.328
    360    O    -2.023    6.508    -3.034
    361    C    -2.956    5.458    -2.964
    362    H    -2.591    4.687    -3.684
    363    N    -3.034    4.865    -1.628
    364    C    -3.472    3.601    -1.437
    365    N    -4.733    0.789    -2.803
    366    H    -4.652    0.972    -3.777
    367    H    -5.190    -0.057    -2.508
    368    N    -3.876    2.790    -2.405
    369    C    -4.294    1.646    -1.948
    370    N    -4.278    1.279    -0.623
    371    H    -4.651    0.387    -0.371
    372    C    -3.823    2.096    0.411
    373    O    -3.817    1.715    1.585
    374    C    -3.412    3.370    -0.081
    375    N    -2.961    4.506    0.583
    376    C    -2.760    5.381    -0.381
    377    H    -2.400    6.403    -0.249
    378    C    -4.295    5.962    -3.422
    379    H    -5.141    5.494    -2.870
    380    O    -4.469    5.724    -4.805
    381    H    -5.322    6.126    -5.040
    382    C    -4.217    7.449    -3.111
    383    H    -4.465    7.643    -2.043
    384    O    -5.014    8.256    -4.006
    385    P    -6.592    8.259    -3.902
    386    O    -7.103    9.109    -4.998
    387    O    -6.924    8.684    -2.527
    388    O    -7.138    6.787    -4.159
    389    C    -8.583    6.716    -4.459
    390    H    -8.735    6.895    -5.548
    391    H    -9.172    7.498    -3.924
    392    C    -9.309    5.376    -4.156
    393    H    -9.858    5.071    -5.073
    394    O    -8.357    4.310    -3.910
    395    C    -8.860    3.456    -2.916
    396    H    -8.818    2.444    -3.384
    397    N    -8.060    3.479    -1.679
    398    C    -7.306    4.566    -1.321
    399    H    -7.307    5.394    -2.037
    400    C    -6.636    4.580    -0.158
    401    H    -6.054    5.439    0.179
    402    C    -7.993    2.330    -0.922
    403    O    -8.484    1.306    -1.383
    404    N    -7.389    2.331    0.272
    405    C    -6.771    3.440    0.694
    406    N    -6.291    3.456    1.931
    407    H    -6.266    2.589    2.430
    408    H    -5.738    4.212    2.278
    409    C    -10.325    3.813    -2.663
    410    H    -10.661    3.604    -1.626
    411    O    -11.130    3.101    -3.583
    412    H    -10.778    3.238    -4.479
    413    C    -10.387    5.292    -3.017
    414    H    -11.367    5.524    -3.489
    415    O    -10.187    6.209    -1.937
    416    P    -11.063    6.830    -0.769
    417    O    -11.451    8.217    -1.128
    418    O    -10.279    6.673    0.476
    419    O    -12.411    6.054    -0.576
    420    C    -13.443    6.480    0.382
    421    H    -14.084    7.266    -0.081
    422    H    -12.996    6.931    1.300
    423    C    -14.387    5.321    0.838
    424    H    -15.396    5.449    0.397
    425    O    -13.858    4.083    0.287
    426    C    -13.763    3.099    1.266
    427    H    -14.273    2.243    0.769
    428    N    -12.369    2.722    1.611
    429    C    -11.391    3.668    1.845
    430    H    -11.663    4.716    1.684
    431    C    -10.155    3.296    2.218
    432    H    -9.356    4.006    2.417
    433    C    -12.078    1.366    1.757
    434    O    -12.973    0.532    1.554
    435    N    -10.840    0.981    2.125
    436    C    -9.900    1.901    2.371
    437    N    -8.720    1.485    2.800
    438    H    -8.618    0.536    3.098
    439    H    -8.014    2.132    3.067
    440    C    -14.585    3.514    2.461
    441    H    -14.118    3.182    3.415
    442    O    -15.887    2.962    2.340
    443    H    -16.459    3.325    3.039
    444    C    -14.563    5.046    2.360
    445    H    -13.665    5.444    2.880
    446    O    -15.754    5.674    2.878
    447    H    -15.874    5.443    3.819
 $END
