!*** FMO 5.3 (Gamess) INPUT generated by Facio 22.1.1.32 ***
 $CONTRL RUNTYP=ENERGY NPRINT=-5 ISPHER=1 MAXIT=200 $END
 $SYSTEM MWORDS=63 MEMDDI=63 $END
 $GDDI NGROUP=1 $END
 $SCF DIRSCF=.TRUE. NPUNCH=0 $END
!*** NumCPU : 2  MemPerNode : 512MB
 $PCM SOLVNT=WATER IEF=-10 ICOMP=2 ICAV=1 IDISP=1 IFMO=-1 $END
 $PCMCAV RADII=SUAHF $END
 $TESCAV NTSALL=60 $END
 $FMOPRP
    NAODIR=200
    NGRFMO(1)=1, 1, 0, 0, 0,   0, 0, 0, 0, 0
    IPIEDA=1
    NPRINT=9
 $END
 $FMO
      SCFTYP(1)=RHF
      MODGRD=10
      MODMUL=0
      MAXCAO=5
      MAXBND=16
      NLAYER=1
      MPLEVL(1)=2
      NFRAG=14
      ICHARG(1)=-1, -1, -1, -1, -1, -1, -1, -1, -1, -1, -1, -1, -1, 0
      FRGNAM(1)=F1, F2, F3, F4, F5, F6, F7, F8, F9, F10, F11, F12, F13, F14
      indat(1)=0
               1   -36   0
               37   -70   0
               71   -101   0
               102   -134   0
               135   -165   0
               166   -195   0
               196   -225   0
               226   -256   0
               257   -290   0
               291   -324   0
               325   -354   0
               355   -388   0
               389   -419   0
               420   -447   0
 $END

 $FMOBND
   -37   36       6-31G*    MINI
   -71   70       6-31G*    MINI
   -102   101       6-31G*    MINI
   -135   134       6-31G*    MINI
   -166   165       6-31G*    MINI
   -196   195       6-31G*    MINI
   -226   225       6-31G*    MINI
   -257   256       6-31G*    MINI
   -291   290       6-31G*    MINI
   -325   324       6-31G*    MINI
   -355   354       6-31G*    MINI
   -389   388       6-31G*    MINI
   -420   419       6-31G*    MINI
 $END
 $FMOHYB
 6-31G*      15   5
   1 0  -0.065034   0.288264   0.000000   0.000000   0.604412
         0.290129   0.000000   0.000000   0.319045  -0.017106
        -0.017106   0.057934   0.000000   0.000000   0.000000
   0 1  -0.065040   0.288293   0.569832   0.000000  -0.201456
         0.290147   0.300783   0.000000  -0.106342   0.049598
        -0.017106  -0.008771   0.000000  -0.027223   0.000000
   0 1  -0.065039   0.288293  -0.284916  -0.493490  -0.201455
         0.290145  -0.150392  -0.260486  -0.106340  -0.000427
         0.032923  -0.008771   0.033353   0.013612   0.023576
   0 1  -0.065039   0.288293  -0.284916   0.493490  -0.201455
         0.290145  -0.150392   0.260486  -0.106340  -0.000427
         0.032923  -0.008771  -0.033353   0.013612  -0.023576
   0 1   1.010938  -0.011975   0.000000   0.000000   0.000000
        -0.054085   0.000000   0.000000  -0.000000  -0.003174
        -0.003174  -0.003174   0.000000   0.000000   0.000000
 MINI         5   5
   1 0  -0.104883   0.308874   0.000000   0.000000   0.521806
   0 1  -0.104883   0.308874   0.491961   0.000000  -0.173934
   0 1  -0.104883   0.308876  -0.245980  -0.426050  -0.173933
   0 1  -0.104883   0.308876  -0.245980   0.426050  -0.173933
   0 1   0.988209   0.063992   0.000000   0.000000   0.000000
 $END
 
 $DATA
 FMO calculation
 C1 
 H.1-1    1
      N31 6
   
 O.1-1    8
      N31 6
      d 1
      1 0.800 1.0
   
 C.1-1    6
      N31 6
      d 1
      1 0.800 1.0
   
 N.1-1    7
      N31 6
      d 1
      1 0.800 1.0
   
 P.1-1   15
      N31 6
      d 1
      1 0.550 1.0
   
 $END
 $FMOXYZ
    1    H    -7.599    -7.014    9.604
    2    O    -8.151    -6.669    8.876
    3    C    -9.062    -7.723    8.517
    4    H    -9.591    -8.047    9.442
    5    H    -8.495    -8.597    8.136
    6    C    -10.129    -7.329    7.477
    7    H    -10.968    -8.054    7.501
    8    O    -10.681    -6.023    7.820
    9    C    -10.869    -5.267    6.642
    10    H    -11.927    -4.918    6.646
    11    N    -9.981    -4.095    6.594
    12    C    -10.145    -3.068    5.724
    13    N    -11.831    -1.779    3.056
    14    H    -12.652    -2.347    3.059
    15    H    -11.849    -0.930    2.516
    16    N    -11.111    -2.996    4.807
    17    C    -10.994    -1.933    4.044
    18    N    -10.041    -0.967    4.230
    19    H    -10.093    -0.140    3.653
    20    C    -9.058    -0.979    5.209
    21    O    -8.249    -0.048    5.303
    22    C    -9.135    -2.166    5.997
    23    N    -8.337    -2.625    7.040
    24    C    -8.878    -3.784    7.358
    25    H    -8.530    -4.453    8.148
    26    C    -10.658    -6.186    5.457
    27    H    -10.239    -5.653    4.578
    28    O    -11.873    -6.813    5.090
    29    H    -11.649    -7.434    4.381
    30    C    -9.667    -7.203    6.000
    31    H    -8.632    -6.790    6.022
    32    O    -9.733    -8.481    5.327
    33    P    -9.070    -8.723    3.908
    34    O    -9.275    -10.149    3.574
    35    O    -7.670    -8.251    3.988
    36    O    -9.833    -7.815    2.861
    37    C    -10.572    -8.235    1.672
    38    H    -11.494    -8.757    2.012
    39    H    -9.994    -8.959    1.065
    40    C    -11.067    -7.080    0.709
    41    H    -12.076    -7.345    0.318
    42    O    -11.251    -5.901    1.545
    43    C    -10.735    -4.759    0.904
    44    H    -11.526    -3.980    1.011
    45    N    -9.520    -4.248    1.547
    46    C    -8.970    -3.049    1.238
    47    N    -9.010    -0.299    -0.745
    48    H    -9.834    -0.464    -1.277
    49    H    -8.478    0.536    -0.923
    50    N    -9.433    -2.223    0.306
    51    C    -8.701    -1.143    0.191
    52    N    -7.625    -0.861    0.991
    53    H    -7.150    0.015    0.831
    54    C    -7.154    -1.671    2.017
    55    O    -6.184    -1.340    2.708
    56    C    -7.890    -2.891    2.080
    57    N    -7.744    -4.003    2.894
    58    C    -8.743    -4.783    2.545
    59    H    -8.976    -5.745    2.993
    60    C    -10.552    -5.076    -0.559
    61    H    -9.734    -4.495    -1.037
    62    O    -11.773    -4.821    -1.236
    63    H    -11.758    -5.328    -2.064
    64    C    -10.222    -6.559    -0.544
    65    H    -9.149    -6.727    -0.301
    66    O    -10.600    -7.172    -1.805
    67    P    -9.701    -7.353    -3.111
    68    O    -10.531    -8.060    -4.109
    69    O    -8.459    -8.030    -2.695
    70    O    -9.256    -5.986    -3.809
    71    C    -8.504    -6.121    -5.093
    72    H    -9.165    -5.901    -5.960
    73    H    -8.073    -7.142    -5.247
    74    C    -7.293    -5.157    -5.105
    75    H    -6.818    -5.380    -4.129
    76    O    -7.750    -3.788    -5.085
    77    C    -6.601    -3.020    -4.892
    78    H    -6.836    -1.996    -5.269
    79    N    -6.235    -2.942    -3.436
    80    C    -6.839    -3.708    -2.448
    81    H    -7.672    -4.350    -2.761
    82    C    -6.428    -3.683    -1.186
    83    H    -6.839    -4.346    -0.422
    84    C    -5.207    -2.089    -3.068
    85    O    -4.633    -1.467    -3.953
    86    N    -4.857    -1.956    -1.777
    87    C    -5.383    -2.772    -0.853
    88    N    -4.914    -2.715    0.377
    89    H    -4.241    -2.013    0.602
    90    H    -5.211    -3.341    1.099
    91    C    -5.523    -3.660    -5.796
    92    H    -4.512    -3.610    -5.346
    93    O    -5.535    -2.991    -7.047
    94    H    -6.442    -2.993    -7.397
    95    C    -6.006    -5.118    -5.989
    96    H    -6.323    -5.277    -7.040
    97    O    -5.086    -6.144    -5.602
    98    P    -3.600    -6.647    -5.705
    99    O    -3.636    -7.984    -6.341
    100    O    -3.026    -6.586    -4.347
    101    O    -2.756    -5.712    -6.645
    102    C    -1.550    -6.191    -7.333
    103    H    -1.856    -6.802    -8.212
    104    H    -0.935    -6.852    -6.678
    105    C    -0.617    -5.056    -7.873
    106    H    -0.613    -5.056    -8.983
    107    O    -1.182    -3.772    -7.463
    108    C    -0.207    -2.961    -6.884
    109    H    -0.345    -1.948    -7.330
    110    N    -0.357    -2.882    -5.425
    111    C    -0.330    -2.123    -3.366
    112    N    -0.731    -3.448    -3.282
    113    C    -0.752    -3.852    -4.530
    114    H    -1.055    -4.850    -4.857
    115    N    0.270    0.092    -2.812
    116    C    0.481    0.287    -4.116
    117    H    0.823    1.289    -4.395
    118    N    0.325    -0.572    -5.127
    119    C    -0.097    -1.765    -4.678
    120    C    -0.137    -1.132    -2.388
    121    N    -0.318    -1.377    -1.079
    122    H    -0.488    -2.307    -0.743
    123    H    -0.065    -0.679    -0.404
    124    C    1.128    -3.510    -7.295
    125    H    1.904    -3.287    -6.543
    126    O    1.512    -2.972    -8.547
    127    H    2.418    -3.276    -8.702
    128    C    0.871    -5.013    -7.377
    129    H    0.894    -5.470    -6.363
    130    O    1.749    -5.708    -8.293
    131    P    3.239    -6.157    -8.003
    132    O    3.855    -6.582    -9.278
    133    O    3.204    -7.165    -6.922
    134    O    4.034    -4.913    -7.466
    135    C    5.038    -4.172    -8.213
    136    H    4.776    -4.143    -9.296
    137    H    6.027    -4.678    -8.137
    138    C    5.203    -2.684    -7.766
    139    H    5.287    -2.040    -8.669
    140    O    3.992    -2.266    -7.085
    141    C    4.279    -1.486    -5.951
    142    H    3.673    -0.562    -6.098
    143    N    3.847    -2.109    -4.664
    144    C    3.445    -3.423    -4.581
    145    H    3.515    -4.003    -5.498
    146    C    3.008    -3.954    -3.431
    147    H    2.693    -4.993    -3.348
    148    C    3.784    -1.307    -3.534
    149    O    4.095    -0.109    -3.631
    150    N    3.391    -1.836    -2.360
    151    C    2.994    -3.114    -2.283
    152    N    2.589    -3.574    -1.105
    153    H    2.639    -2.940    -0.333
    154    H    2.284    -4.519    -0.958
    155    C    5.749    -1.128    -5.997
    156    H    6.210    -1.067    -4.989
    157    O    5.893    0.117    -6.658
    158    H    6.817    0.182    -6.947
    159    C    6.362    -2.271    -6.809
    160    H    6.575    -3.149    -6.160
    161    O    7.515    -1.838    -7.554
    162    P    9.024    -2.185    -7.331
    163    O    9.809    -1.448    -8.343
    164    O    9.145    -3.657    -7.325
    165    O    9.398    -1.636    -5.910
    166    C    10.441    -0.656    -5.662
    167    H    10.172    0.310    -6.151
    168    H    11.417    -0.981    -6.083
    169    C    10.620    -0.358    -4.149
    170    H    11.235    0.559    -4.019
    171    O    9.290    -0.084    -3.581
    172    C    9.226    -0.595    -2.257
    173    H    8.866    0.250    -1.624
    174    N    8.290    -1.761    -2.135
    175    C    7.879    -2.479    -3.232
    176    H    8.182    -2.066    -4.185
    177    C    7.860    -2.122    -0.882
    178    O    8.195    -1.513    0.123
    179    N    7.019    -3.203    -0.827
    180    H    6.775    -3.532    0.094
    181    C    6.626    -4.001    -1.877
    182    O    5.917    -4.985    -1.682
    183    C    7.089    -3.560    -3.154
    184    H    6.787    -4.120    -4.036
    185    C    10.655    -0.946    -1.876
    186    H    10.719    -1.719    -1.081
    187    O    11.326    0.237    -1.474
    188    H    11.212    0.349    -0.510
    189    C    11.206    -1.452    -3.199
    190    H    10.718    -2.405    -3.501
    191    O    12.664    -1.535    -3.223
    192    P    13.372    -2.873    -2.689
    193    O    14.579    -3.089    -3.516
    194    O    12.389    -3.975    -2.713
    195    O    13.826    -2.680    -1.168
    196    C    14.680    -3.710    -0.568
    197    H    15.438    -4.085    -1.301
    198    H    14.091    -4.608    -0.275
    199    C    15.497    -3.257    0.674
    200    H    16.059    -4.141    1.057
    201    O    16.466    -2.269    0.249
    202    C    16.231    -1.055    0.931
    203    H    16.988    -1.046    1.746
    204    N    16.373    0.093    0.028
    205    C    15.669    0.121    -1.150
    206    H    15.048    -0.752    -1.344
    207    C    17.177    1.136    0.409
    208    O    17.793    1.146    1.471
    209    N    17.248    2.166    -0.493
    210    H    17.797    2.958    -0.204
    211    C    16.585    2.264    -1.700
    212    O    16.726    3.265    -2.401
    213    C    15.755    1.140    -2.015
    214    H    15.191    1.151    -2.944
    215    C    14.853    -1.123    1.548
    216    H    14.054    -0.846    0.826
    217    O    14.786    -0.334    2.719
    218    H    15.270    -0.826    3.399
    219    C    14.773    -2.598    1.880
    220    H    13.709    -2.917    1.849
    221    O    15.419    -2.893    3.147
    222    P    14.711    -3.685    4.296
    223    O    15.380    -3.357    5.577
    224    O    14.697    -5.108    3.902
    225    O    13.237    -3.159    4.315
    226    C    12.624    -2.487    5.435
    227    H    12.822    -1.394    5.352
    228    H    13.032    -2.832    6.414
    229    C    11.090    -2.671    5.468
    230    H    10.631    -1.861    6.077
    231    O    10.506    -2.616    4.135
    232    C    9.849    -3.831    3.850
    233    H    8.788    -3.645    4.117
    234    N    9.981    -4.219    2.429
    235    C    11.203    -4.073    1.837
    236    H    11.975    -3.631    2.466
    237    C    11.392    -4.407    0.557
    238    H    12.326    -4.247    0.047
    239    C    8.913    -4.748    1.707
    240    O    7.805    -4.859    2.255
    241    N    9.103    -5.130    0.420
    242    C    10.304    -4.973    -0.157
    243    N    10.475    -5.343    -1.423
    244    H    11.255    -4.966    -1.950
    245    H    9.727    -5.777    -1.919
    246    C    10.426    -4.865    4.785
    247    H    11.409    -5.228    4.405
    248    O    9.550    -5.953    5.002
    249    H    8.789    -5.599    5.490
    250    C    10.648    -4.031    6.045
    251    H    11.518    -4.480    6.576
    252    O    9.473    -3.921    6.891
    253    P    9.685    -3.690    8.443
    254    O    10.952    -4.320    8.879
    255    O    8.463    -4.134    9.149
    256    O    9.829    -2.141    8.644
    257    C    8.734    -1.225    8.417
    258    H    7.986    -1.294    9.240
    259    H    8.215    -1.483    7.470
    260    C    9.204    0.244    8.296
    261    H    9.392    0.680    9.306
    262    O    10.467    0.313    7.574
    263    C    10.552    1.533    6.870
    264    H    11.366    2.097    7.380
    265    N    10.921    1.328    5.476
    266    C    10.228    0.721    4.452
    267    N    7.466    -1.022    3.276
    268    H    7.188    -1.484    2.442
    269    H    6.901    -1.087    4.093
    270    N    8.989    0.187    4.510
    271    C    8.627    -0.385    3.374
    272    N    9.396    -0.351    2.245
    273    H    9.061    -0.836    1.430
    274    C    10.657    0.215    2.151
    275    O    11.287    0.221    1.094
    276    C    11.064    0.812    3.361
    277    N    12.232    1.497    3.672
    278    C    12.101    1.778    4.940
    279    H    12.840    2.300    5.549
    280    C    9.248    2.282    7.026
    281    H    8.870    2.701    6.066
    282    O    9.404    3.318    7.976
    283    H    8.513    3.575    8.254
    284    C    8.295    1.193    7.513
    285    H    7.949    0.600    6.639
    286    O    7.209    1.679    8.335
    287    P    5.767    1.726    7.707
    288    O    4.905    2.521    8.606
    289    O    5.328    0.344    7.416
    290    O    5.934    2.517    6.371
    291    C    6.065    3.952    6.293
    292    H    6.886    4.311    6.956
    293    H    5.121    4.444    6.624
    294    C    6.389    4.453    4.866
    295    H    7.019    5.367    4.912
    296    O    7.116    3.443    4.085
    297    C    6.595    3.419    2.757
    298    H    7.462    3.415    2.059
    299    N    5.753    2.229    2.527
    300    C    5.501    1.600    1.338
    301    N    5.928    1.340    -2.084
    302    H    6.550    2.090    -2.298
    303    H    5.478    0.842    -2.827
    304    N    5.998    1.945    0.139
    305    C    5.546    1.158    -0.834
    306    N    4.684    0.111    -0.618
    307    H    4.347    -0.418    -1.407
    308    C    4.158    -0.271    0.608
    309    O    3.391    -1.232    0.739
    310    C    4.628    0.568    1.643
    311    N    4.341    0.545    2.992
    312    C    5.036    1.538    3.474
    313    H    5.046    1.825    4.519
    314    C    5.800    4.695    2.596
    315    H    5.030    4.629    1.796
    316    O    6.682    5.778    2.335
    317    H    6.183    6.605    2.405
    318    C    5.172    4.779    3.983
    319    H    4.464    3.931    4.131
    320    O    4.597    6.060    4.331
    321    P    3.022    6.173    4.407
    322    O    2.646    7.431    5.090
    323    O    2.452    4.925    4.956
    324    O    2.622    6.268    2.899
    325    C    3.086    7.353    2.070
    326    H    4.196    7.440    2.101
    327    H    2.652    8.318    2.419
    328    C    2.675    7.162    0.608
    329    H    3.061    7.993    -0.020
    330    O    3.237    5.931    0.066
    331    C    2.298    5.349    -0.826
    332    H    2.833    5.266    -1.805
    333    N    1.850    4.010    -0.355
    334    C    1.878    3.668    0.983
    335    H    2.265    4.430    1.654
    336    C    1.410    3.117    -1.301
    337    O    1.401    3.376    -2.499
    338    N    1.011    1.907    -0.803
    339    H    0.695    1.239    -1.500
    340    C    1.005    1.494    0.511
    341    O    0.596    0.377    0.812
    342    C    1.491    2.467    1.435
    343    H    1.526    2.207    2.493
    344    C    1.132    6.326    -0.967
    345    H    0.158    5.808    -1.098
    346    O    1.351    7.211    -2.050
    347    H    0.618    7.842    -2.040
    348    C    1.178    7.056    0.373
    349    H    0.800    6.380    1.175
    350    O    0.594    8.387    0.402
    351    P    -0.912    8.480    0.864
    352    O    -1.295    9.892    1.087
    353    O    -1.145    7.556    1.991
    354    O    -1.689    7.939    -0.365
    355    C    -2.180    8.821    -1.392
    356    H    -1.337    9.311    -1.934
    357    H    -2.836    9.618    -0.969
    358    C    -3.008    8.021    -2.389
    359    H    -3.209    8.618    -3.308
    360    O    -2.302    6.801    -2.776
    361    C    -3.251    5.761    -2.923
    362    H    -3.081    5.326    -3.936
    363    N    -3.102    4.721    -1.888
    364    C    -3.430    3.419    -2.081
    365    N    -4.831    1.089    -4.127
    366    H    -4.385    1.258    -5.002
    367    H    -5.175    0.155    -4.012
    368    N    -3.903    2.920    -3.218
    369    C    -4.268    1.662    -3.097
    370    N    -4.087    0.922    -1.951
    371    H    -4.311    -0.065    -1.970
    372    C    -3.526    1.394    -0.769
    373    O    -3.377    0.673    0.226
    374    C    -3.204    2.781    -0.875
    375    N    -2.722    3.681    0.068
    376    C    -2.674    4.822    -0.584
    377    H    -2.336    5.768    -0.161
    378    C    -4.623    6.406    -2.867
    379    H    -5.406    5.703    -2.512
    380    O    -4.969    6.921    -4.145
    381    H    -5.816    7.385    -4.065
    382    C    -4.351    7.504    -1.847
    383    H    -4.133    7.048    -0.854
    384    O    -5.338    8.554    -1.773
    385    P    -6.115    8.857    -0.423
    386    O    -6.539    10.280    -0.433
    387    O    -5.382    8.393    0.774
    388    O    -7.395    7.970    -0.524
    389    C    -8.344    8.190    -1.586
    390    H    -7.904    8.712    -2.471
    391    H    -9.175    8.824    -1.201
    392    C    -8.918    6.865    -2.067
    393    H    -9.432    6.981    -3.046
    394    O    -7.875    5.867    -2.237
    395    C    -8.398    4.604    -1.896
    396    H    -8.339    4.036    -2.853
    397    N    -7.604    3.906    -0.846
    398    C    -6.854    4.570    0.098
    399    H    -6.863    5.663    0.033
    400    C    -6.150    3.894    1.020
    401    H    -5.535    4.385    1.773
    402    C    -7.590    2.523    -0.878
    403    O    -8.197    1.958    -1.793
    404    N    -6.921    1.822    0.062
    405    C    -6.213    2.467    1.002
    406    N    -5.576    1.756    1.935
    407    H    -5.556    0.760    1.894
    408    H    -4.981    2.194    2.610
    409    C    -9.872    4.773    -1.526
    410    H    -10.184    4.110    -0.690
    411    O    -10.692    4.532    -2.657
    412    H    -11.601    4.773    -2.421
    413    C    -9.900    6.236    -1.093
    414    H    -9.421    6.332    -0.093
    415    O    -11.172    6.910    -1.201
    416    P    -11.954    7.369    0.080
    417    O    -12.722    8.600    -0.208
    418    O    -11.070    7.372    1.264
    419    O    -12.907    6.175    0.218
    420    C    -14.314    6.154    0.475
    421    H    -14.876    6.464    -0.434
    422    H    -14.580    6.860    1.295
    423    C    -14.766    4.734    0.878
    424    H    -15.747    4.476    0.426
    425    O    -13.800    3.733    0.431
    426    C    -13.584    2.792    1.444
    427    H    -13.906    1.851    0.943
    428    N    -12.162    2.703    1.872
    429    C    -11.369    3.810    2.067
    430    H    -11.825    4.778    1.836
    431    C    -10.101    3.685    2.491
    432    H    -9.449    4.537    2.664
    433    C    -11.638    1.440    2.086
    434    O    -12.361    0.466    1.860
    435    N    -10.371    1.291    2.528
    436    C    -9.612    2.371    2.764
    437    N    -8.403    2.198    3.294
    438    H    -8.156    1.297    3.650
    439    H    -7.853    2.977    3.599
    440    C    -14.538    3.062    2.594
    441    H    -14.045    2.911    3.580
    442    O    -15.677    2.220    2.490
    443    H    -16.343    2.490    3.152
    444    C    -14.866    4.540    2.396
    445    H    -14.071    5.167    2.854
    446    O    -16.164    4.937    2.876
    447    H    -16.240    4.762    3.832
 $END
