!*** FMO 5.3 (Gamess) INPUT generated by Facio 22.1.1.32 ***
 $CONTRL RUNTYP=ENERGY NPRINT=-5 ISPHER=1 MAXIT=200 $END
 $SYSTEM MWORDS=63 MEMDDI=63 $END
 $GDDI NGROUP=1 $END
 $SCF DIRSCF=.TRUE. NPUNCH=0 $END
!*** NumCPU : 2  MemPerNode : 512MB
 $PCM SOLVNT=WATER IEF=-10 ICOMP=2 ICAV=1 IDISP=1 IFMO=-1 $END
 $PCMCAV RADII=SUAHF $END
 $TESCAV NTSALL=60 $END
 $FMOPRP
    NAODIR=200
    NGRFMO(1)=1, 1, 0, 0, 0,   0, 0, 0, 0, 0
    IPIEDA=1
    NPRINT=9
 $END
 $FMO
      SCFTYP(1)=RHF
      MODGRD=10
      MODMUL=0
      MAXCAO=5
      MAXBND=16
      NLAYER=1
      MPLEVL(1)=2
      NFRAG=14
      ICHARG(1)=-1, -1, -1, -1, -1, -1, -1, -1, -1, -1, -1, -1, -1, 0
      FRGNAM(1)=F1, F2, F3, F4, F5, F6, F7, F8, F9, F10, F11, F12, F13, F14
      indat(1)=0
               1   -36   0
               37   -70   0
               71   -101   0
               102   -134   0
               135   -165   0
               166   -195   0
               196   -225   0
               226   -256   0
               257   -290   0
               291   -324   0
               325   -354   0
               355   -388   0
               389   -419   0
               420   -447   0
 $END

 $FMOBND
   -37   36       6-31G*    MINI
   -71   70       6-31G*    MINI
   -102   101       6-31G*    MINI
   -135   134       6-31G*    MINI
   -166   165       6-31G*    MINI
   -196   195       6-31G*    MINI
   -226   225       6-31G*    MINI
   -257   256       6-31G*    MINI
   -291   290       6-31G*    MINI
   -325   324       6-31G*    MINI
   -355   354       6-31G*    MINI
   -389   388       6-31G*    MINI
   -420   419       6-31G*    MINI
 $END
 $FMOHYB
 6-31G*      15   5
   1 0  -0.065034   0.288264   0.000000   0.000000   0.604412
         0.290129   0.000000   0.000000   0.319045  -0.017106
        -0.017106   0.057934   0.000000   0.000000   0.000000
   0 1  -0.065040   0.288293   0.569832   0.000000  -0.201456
         0.290147   0.300783   0.000000  -0.106342   0.049598
        -0.017106  -0.008771   0.000000  -0.027223   0.000000
   0 1  -0.065039   0.288293  -0.284916  -0.493490  -0.201455
         0.290145  -0.150392  -0.260486  -0.106340  -0.000427
         0.032923  -0.008771   0.033353   0.013612   0.023576
   0 1  -0.065039   0.288293  -0.284916   0.493490  -0.201455
         0.290145  -0.150392   0.260486  -0.106340  -0.000427
         0.032923  -0.008771  -0.033353   0.013612  -0.023576
   0 1   1.010938  -0.011975   0.000000   0.000000   0.000000
        -0.054085   0.000000   0.000000  -0.000000  -0.003174
        -0.003174  -0.003174   0.000000   0.000000   0.000000
 MINI         5   5
   1 0  -0.104883   0.308874   0.000000   0.000000   0.521806
   0 1  -0.104883   0.308874   0.491961   0.000000  -0.173934
   0 1  -0.104883   0.308876  -0.245980  -0.426050  -0.173933
   0 1  -0.104883   0.308876  -0.245980   0.426050  -0.173933
   0 1   0.988209   0.063992   0.000000   0.000000   0.000000
 $END
 
 $DATA
 FMO calculation
 C1 
 H.1-1    1
      N31 6
   
 O.1-1    8
      N31 6
      d 1
      1 0.800 1.0
   
 C.1-1    6
      N31 6
      d 1
      1 0.800 1.0
   
 N.1-1    7
      N31 6
      d 1
      1 0.800 1.0
   
 P.1-1   15
      N31 6
      d 1
      1 0.550 1.0
   
 $END
 $FMOXYZ
    1    H    -12.863    -1.535    9.894
    2    O    -12.407    -2.010    9.174
    3    C    -11.721    -3.129    9.764
    4    H    -12.414    -3.624    10.482
    5    H    -10.849    -2.755    10.339
    6    C    -11.229    -4.204    8.764
    7    H    -11.171    -5.188    9.275
    8    O    -12.193    -4.343    7.677
    9    C    -11.526    -4.477    6.441
    10    H    -11.902    -5.425    5.989
    11    N    -11.840    -3.362    5.512
    12    C    -11.585    -3.318    4.158
    13    N    -10.369    -4.807    1.276
    14    H    -9.981    -5.657    1.623
    15    H    -10.214    -4.555    0.324
    16    N    -11.003    -4.288    3.429
    17    C    -10.906    -3.966    2.137
    18    N    -11.393    -2.796    1.609
    19    H    -11.274    -2.622    0.626
    20    C    -12.041    -1.799    2.329
    21    O    -12.484    -0.785    1.777
    22    C    -12.107    -2.114    3.718
    23    N    -12.676    -1.408    4.772
    24    C    -12.507    -2.192    5.814
    25    H    -12.853    -1.979    6.829
    26    C    -10.043    -4.627    6.726
    27    H    -9.452    -4.121    5.947
    28    O    -9.672    -5.988    6.774
    29    H    -8.700    -5.978    6.812
    30    C    -9.850    -3.959    8.092
    31    H    -9.740    -2.857    7.979
    32    O    -8.792    -4.519    8.909
    33    P    -7.227    -4.503    8.669
    34    O    -6.637    -5.388    9.699
    35    O    -6.794    -3.090    8.703
    36    O    -6.966    -5.119    7.238
    37    C    -5.814    -5.832    6.671
    38    H    -5.653    -6.754    7.269
    39    H    -4.886    -5.234    6.770
    40    C    -5.960    -6.307    5.140
    41    H    -5.977    -7.414    5.132
    42    O    -7.296    -5.881    4.743
    43    C    -7.260    -5.038    3.622
    44    H    -8.143    -5.356    3.022
    45    N    -7.474    -3.603    3.907
    46    C    -7.684    -2.659    2.944
    47    N    -7.877    -1.755    -0.366
    48    H    -7.579    -2.586    -0.821
    49    H    -7.737    -0.902    -0.868
    50    N    -7.681    -2.870    1.621
    51    C    -7.886    -1.751    0.938
    52    N    -8.154    -0.547    1.522
    53    H    -8.231    0.267    0.930
    54    C    -8.209    -0.318    2.888
    55    O    -8.471    0.773    3.392
    56    C    -7.932    -1.484    3.621
    57    N    -7.868    -1.668    4.983
    58    C    -7.591    -2.935    5.105
    59    H    -7.490    -3.415    6.064
    60    C    -6.011    -5.339    2.846
    61    H    -5.612    -4.444    2.327
    62    O    -6.321    -6.349    1.895
    63    H    -5.483    -6.627    1.499
    64    C    -5.016    -5.835    3.901
    65    H    -4.403    -4.990    4.289
    66    O    -4.160    -6.888    3.345
    67    P    -2.983    -6.887    2.227
    68    O    -2.514    -8.286    2.169
    69    O    -1.998    -5.881    2.665
    70    O    -3.444    -6.521    0.724
    71    C    -2.685    -6.345    -0.595
    72    H    -2.827    -7.253    -1.218
    73    H    -1.596    -6.262    -0.380
    74    C    -3.044    -5.046    -1.559
    75    H    -2.468    -4.207    -1.120
    76    O    -4.404    -5.035    -1.130
    77    C    -4.884    -3.793    -1.279
    78    H    -5.990    -3.927    -1.339
    79    N    -4.545    -2.973    -0.129
    80    C    -3.708    -3.419    0.891
    81    H    -3.305    -4.409    0.825
    82    C    -3.435    -2.686    1.952
    83    H    -2.856    -3.054    2.797
    84    C    -4.899    -1.647    -0.152
    85    O    -5.351    -1.111    -1.171
    86    N    -4.808    -0.989    0.993
    87    C    -4.100    -1.474    2.017
    88    N    -4.063    -0.829    3.134
    89    H    -4.744    -0.100    3.244
    90    H    -3.183    -0.633    3.563
    91    C    -4.319    -3.299    -2.538
    92    H    -3.640    -2.421    -2.373
    93    O    -5.414    -2.978    -3.343
    94    H    -5.232    -3.175    -4.278
    95    C    -3.519    -4.468    -3.068
    96    H    -4.154    -5.230    -3.571
    97    O    -2.585    -3.777    -4.000
    98    P    -3.203    -3.115    -5.420
    99    O    -4.492    -3.800    -5.676
    100    O    -2.161    -3.338    -6.442
    101    O    -3.542    -1.517    -5.511
    102    C    -3.317    -0.660    -6.744
    103    H    -4.215    -0.755    -7.386
    104    H    -2.485    -1.070    -7.358
    105    C    -3.037    0.984    -6.739
    106    H    -3.624    1.414    -7.582
    107    O    -3.539    1.648    -5.537
    108    C    -2.463    2.187    -4.763
    109    H    -2.870    3.059    -4.194
    110    N    -1.926    1.190    -3.857
    111    C    -1.016    -0.005    -2.281
    112    N    -1.449    -0.892    -3.203
    113    C    -1.870    -0.123    -4.127
    114    H    -1.805    -0.435    -5.148
    115    N    0.468    0.853    -0.706
    116    C    0.268    2.040    -1.303
    117    H    0.870    2.865    -0.924
    118    N    -0.600    2.388    -2.254
    119    C    -1.225    1.303    -2.708
    120    C    -0.189    -0.227    -1.189
    121    N    -0.022    -1.490    -0.739
    122    H    -0.338    -2.214    -1.356
    123    H    0.727    -1.701    -0.119
    124    C    -1.406    2.621    -5.694
    125    H    -0.389    2.545    -5.247
    126    O    -1.605    3.973    -6.080
    127    H    -2.277    3.991    -6.776
    128    C    -1.546    1.606    -6.852
    129    H    -0.855    0.751    -6.686
    130    O    -1.264    2.250    -8.116
    131    P    0.217    2.721    -8.510
    132    O    0.174    3.957    -9.324
    133    O    0.830    1.549    -9.163
    134    O    1.107    3.048    -7.220
    135    C    2.549    3.158    -7.484
    136    H    2.740    4.015    -8.173
    137    H    2.930    2.239    -7.989
    138    C    3.486    3.390    -6.265
    139    H    4.134    4.277    -6.442
    140    O    2.755    3.579    -4.990
    141    C    3.377    2.763    -3.974
    142    H    3.420    3.354    -3.032
    143    N    2.680    1.445    -3.758
    144    C    1.776    0.954    -4.672
    145    H    1.478    1.646    -5.458
    146    C    1.334    -0.306    -4.611
    147    H    0.662    -0.730    -5.354
    148    C    3.159    0.592    -2.778
    149    O    4.081    0.980    -2.075
    150    N    2.652    -0.640    -2.622
    151    C    1.800    -1.115    -3.536
    152    N    1.399    -2.374    -3.435
    153    H    1.745    -2.921    -2.676
    154    H    0.768    -2.783    -4.092
    155    C    4.777    2.520    -4.503
    156    H    5.290    1.666    -4.020
    157    O    5.584    3.684    -4.404
    158    H    5.112    4.423    -4.813
    159    C    4.379    2.188    -5.922
    160    H    3.655    1.360    -5.932
    161    O    5.451    1.913    -6.841
    162    P    5.605    0.385    -7.289
    163    O    6.456    0.339    -8.493
    164    O    4.268    -0.238    -7.405
    165    O    6.375    -0.313    -6.121
    166    C    7.722    0.123    -5.842
    167    H    7.880    1.210    -6.048
    168    H    8.440    -0.440    -6.486
    169    C    8.089    -0.127    -4.384
    170    H    8.900    0.567    -4.071
    171    O    6.974    0.046    -3.462
    172    C    7.149    -0.849    -2.377
    173    H    7.218    -0.208    -1.467
    174    N    6.029    -1.818    -2.248
    175    C    5.324    -2.231    -3.355
    176    H    5.534    -1.683    -4.276
    177    C    5.797    -2.381    -1.011
    178    O    6.479    -2.119    -0.023
    179    N    4.748    -3.264    -0.966
    180    H    4.567    -3.693    -0.073
    181    C    3.964    -3.681    -2.020
    182    O    3.000    -4.420    -1.830
    183    C    4.349    -3.146    -3.291
    184    H    3.739    -3.384    -4.158
    185    C    8.473    -1.555    -2.622
    186    H    8.495    -2.570    -2.188
    187    O    9.539    -0.788    -2.123
    188    H    10.330    -1.333    -2.157
    189    C    8.545    -1.553    -4.133
    190    H    7.782    -2.226    -4.585
    191    O    9.855    -1.732    -4.707
    192    P    10.449    -3.171    -4.831
    193    O    11.233    -3.212    -6.086
    194    O    9.364    -4.163    -4.654
    195    O    11.390    -3.216    -3.574
    196    C    12.698    -3.822    -3.600
    197    H    13.092    -3.987    -4.630
    198    H    12.642    -4.810    -3.100
    199    C    13.707    -2.957    -2.839
    200    H    14.708    -3.448    -2.826
    201    O    13.875    -1.696    -3.532
    202    C    13.905    -0.640    -2.606
    203    H    14.971    -0.546    -2.286
    204    N    13.378    0.594    -3.247
    205    C    12.184    0.557    -3.933
    206    H    11.703    -0.422    -3.965
    207    C    14.101    1.758    -3.152
    208    O    15.164    1.826    -2.540
    209    N    13.550    2.839    -3.793
    210    H    14.092    3.691    -3.757
    211    C    12.368    2.879    -4.504
    212    O    12.005    3.925    -5.044
    213    C    11.667    1.631    -4.550
    214    H    10.733    1.579    -5.103
    215    C    13.074    -1.077    -1.415
    216    H    12.000    -0.867    -1.598
    217    O    13.493    -0.429    -0.224
    218    H    12.932    -0.715    0.512
    219    C    13.295    -2.602    -1.389
    220    H    12.300    -3.069    -1.190
    221    O    14.298    -3.047    -0.447
    222    P    14.200    -4.516    0.136
    223    O    15.431    -4.810    0.904
    224    O    13.880    -5.455    -0.957
    225    O    12.974    -4.481    1.102
    226    C    13.051    -3.953    2.443
    227    H    13.169    -2.845    2.418
    228    H    13.916    -4.379    3.003
    229    C    11.784    -4.292    3.241
    230    H    11.734    -3.654    4.153
    231    O    10.602    -4.011    2.459
    232    C    9.780    -5.147    2.348
    233    H    9.035    -5.064    3.172
    234    N    9.115    -5.180    1.012
    235    C    9.853    -4.816    -0.090
    236    H    10.887    -4.526    0.105
    237    C    9.317    -4.796    -1.314
    238    H    9.882    -4.492    -2.190
    239    C    7.769    -5.510    0.856
    240    O    7.091    -5.782    1.858
    241    N    7.214    -5.512    -0.382
    242    C    7.947    -5.149    -1.451
    243    N    7.381    -5.086    -2.657
    244    H    7.937    -4.850    -3.463
    245    H    6.449    -5.423    -2.789
    246    C    10.657    -6.343    2.627
    247    H    11.198    -6.645    1.701
    248    O    9.923    -7.429    3.152
    249    H    9.616    -7.165    4.035
    250    C    11.669    -5.773    3.646
    251    H    12.637    -6.274    3.407
    252    O    11.309    -5.921    5.054
    253    P    12.502    -5.791    6.106
    254    O    13.791    -6.040    5.423
    255    O    12.215    -6.647    7.275
    256    O    12.527    -4.301    6.599
    257    C    11.480    -3.704    7.406
    258    H    11.532    -4.097    8.448
    259    H    10.472    -3.967    7.011
    260    C    11.560    -2.151    7.479
    261    H    12.067    -1.847    8.417
    262    O    12.388    -1.619    6.397
    263    C    11.928    -0.338    6.019
    264    H    12.776    0.347    6.251
    265    N    11.641    -0.254    4.583
    266    C    10.642    -0.853    3.847
    267    N    7.799    -2.824    3.688
    268    H    7.253    -3.287    3.000
    269    H    7.826    -3.194    4.613
    270    N    9.667    -1.654    4.306
    271    C    8.800    -2.017    3.380
    272    N    8.893    -1.617    2.074
    273    H    8.250    -1.992    1.403
    274    C    9.928    -0.834    1.575
    275    O    10.009    -0.500    0.404
    276    C    10.841    -0.426    2.562
    277    N    11.947    0.409    2.463
    278    C    12.392    0.485    3.693
    279    H    13.269    1.058    4.008
    280    C    10.743    0.018    6.897
    281    H    9.942    0.563    6.352
    282    O    11.201    0.790    7.993
    283    H    10.505    0.767    8.668
    284    C    10.247    -1.351    7.363
    285    H    9.667    -1.873    6.585
    286    O    9.524    -1.305    8.608
    287    P    7.957    -1.505    8.632
    288    O    7.491    -1.304    10.021
    289    O    7.658    -2.816    8.022
    290    O    7.343    -0.373    7.751
    291    C    7.016    0.947    8.258
    292    H    7.710    1.263    9.079
    293    H    5.993    0.924    8.700
    294    C    7.019    2.043    7.154
    295    H    7.680    2.886    7.445
    296    O    7.544    1.500    5.898
    297    C    6.685    1.848    4.842
    298    H    7.333    2.143    3.985
    299    N    5.811    0.718    4.460
    300    C    5.294    0.563    3.217
    301    N    4.888    1.888    0.130
    302    H    5.783    2.301    -0.027
    303    H    4.375    1.655    -0.701
    304    N    5.514    1.388    2.204
    305    C    4.818    1.073    1.141
    306    N    4.002    -0.035    1.044
    307    H    3.573    -0.244    0.160
    308    C    3.807    -0.959    2.075
    309    O    3.087    -1.953    1.948
    310    C    4.511    -0.570    3.255
    311    N    4.540    -1.134    4.521
    312    C    5.335    -0.340    5.207
    313    H    5.609    -0.482    6.254
    314    C    5.893    3.041    5.318
    315    H    4.954    3.196    4.744
    316    O    6.695    4.208    5.265
    317    H    6.247    4.895    5.781
    318    C    5.631    2.629    6.757
    319    H    4.911    1.781    6.793
    320    O    5.252    3.728    7.621
    321    P    3.723    3.983    7.944
    322    O    3.651    4.961    9.053
    323    O    3.084    2.671    8.178
    324    O    3.098    4.614    6.650
    325    C    2.969    6.040    6.427
    326    H    3.955    6.535    6.585
    327    H    2.255    6.492    7.155
    328    C    2.499    6.400    4.987
    329    H    2.890    7.400    4.706
    330    O    3.061    5.453    4.031
    331    C    2.107    5.120    3.049
    332    H    2.608    5.356    2.080
    333    N    1.739    3.672    3.081
    334    C    2.019    2.845    4.148
    335    H    2.558    3.310    4.966
    336    C    1.168    3.168    1.949
    337    O    0.957    3.877    0.966
    338    N    0.849    1.837    1.989
    339    H    0.523    1.431    1.121
    340    C    1.044    0.963    3.033
    341    O    0.654    -0.195    2.938
    342    C    1.687    1.545    4.171
    343    H    1.899    0.907    5.029
    344    C    0.912    6.049    3.212
    345    H    -0.047    5.536    2.982
    346    O    1.045    7.193    2.378
    347    H    0.218    7.687    2.501
    348    C    0.970    6.422    4.695
    349    H    0.516    5.620    5.320
    350    O    0.421    7.717    5.010
    351    P    -1.080    8.197    4.875
    352    O    -1.108    9.639    5.201
    353    O    -1.914    7.305    5.708
    354    O    -1.490    8.038    3.359
    355    C    -2.640    8.664    2.688
    356    H    -2.532    9.769    2.738
    357    H    -3.583    8.401    3.211
    358    C    -2.802    8.299    1.149
    359    H    -2.372    9.122    0.543
    360    O    -1.935    7.167    0.925
    361    C    -2.675    6.040    0.586
    362    H    -2.008    5.496    -0.109
    363    N    -2.941    5.127    1.645
    364    C    -3.294    3.860    1.355
    365    N    -4.164    1.436    -0.959
    366    H    -4.622    0.541    -0.963
    367    H    -4.057    1.928    -1.812
    368    N    -3.438    3.332    0.114
    369    C    -3.990    2.145    0.142
    370    N    -4.445    1.605    1.310
    371    H    -4.779    0.658    1.244
    372    C    -4.275    2.105    2.596
    373    O    -4.680    1.579    3.635
    374    C    -3.584    3.304    2.574
    375    N    -3.301    4.165    3.616
    376    C    -2.935    5.256    3.010
    377    H    -2.670    6.175    3.520
    378    C    -3.918    6.463    -0.100
    379    H    -4.796    5.799    0.062
    380    O    -3.573    6.487    -1.467
    381    H    -3.175    7.346    -1.648
    382    C    -4.199    7.852    0.484
    383    H    -4.931    7.784    1.320
    384    O    -4.686    8.771    -0.531
    385    P    -5.950    8.604    -1.524
    386    O    -5.719    9.568    -2.625
    387    O    -7.164    8.824    -0.709
    388    O    -6.065    7.152    -2.169
    389    C    -6.726    6.676    -3.383
    390    H    -6.617    7.416    -4.208
    391    H    -7.815    6.572    -3.185
    392    C    -6.206    5.268    -3.923
    393    H    -5.332    5.465    -4.578
    394    O    -5.740    4.465    -2.808
    395    C    -6.651    3.420    -2.552
    396    H    -6.083    2.505    -2.820
    397    N    -7.126    3.373    -1.163
    398    C    -7.241    4.547    -0.463
    399    H    -6.851    5.435    -0.958
    400    C    -7.724    4.567    0.783
    401    H    -7.788    5.478    1.373
    402    C    -7.640    2.189    -0.639
    403    O    -7.647    1.156    -1.334
    404    N    -8.122    2.192    0.618
    405    C    -8.174    3.335    1.325
    406    N    -8.646    3.299    2.562
    407    H    -8.775    2.372    2.932
    408    H    -8.517    4.051    3.208
    409    C    -7.816    3.569    -3.469
    410    H    -8.610    4.221    -3.037
    411    O    -8.355    2.308    -3.749
    412    H    -7.922    1.647    -3.183
    413    C    -7.196    4.266    -4.664
    414    H    -7.983    4.873    -5.173
    415    O    -6.543    3.398    -5.635
    416    P    -7.197    2.209    -6.515
    417    O    -6.539    2.219    -7.813
    418    O    -8.654    2.368    -6.586
    419    O    -6.932    0.779    -5.803
    420    C    -7.111    -0.385    -6.674
    421    H    -6.183    -0.540    -7.256
    422    H    -7.915    -0.208    -7.427
    423    C    -7.474    -1.767    -6.033
    424    H    -6.703    -2.515    -6.306
    425    O    -7.503    -1.740    -4.598
    426    C    -8.597    -2.476    -4.072
    427    H    -8.143    -3.307    -3.484
    428    N    -9.412    -1.622    -3.185
    429    C    -9.578    -0.316    -3.562
    430    H    -9.009    0.013    -4.441
    431    C    -10.310    0.530    -2.833
    432    H    -10.422    1.578    -3.099
    433    C    -10.127    -2.119    -2.093
    434    O    -10.115    -3.338    -1.852
    435    N    -10.812    -1.254    -1.298
    436    C    -10.881    0.048    -1.634
    437    N    -11.505    0.907    -0.835
    438    H    -11.904    0.569    0.014
    439    H    -11.554    1.880    -1.057
    440    C    -9.408    -3.054    -5.217
    441    H    -10.488    -2.809    -5.104
    442    O    -9.276    -4.465    -5.311
    443    H    -8.359    -4.676    -5.551
    444    C    -8.858    -2.299    -6.438
    445    H    -9.499    -1.407    -6.620
    446    O    -8.754    -3.092    -7.632
    447    H    -9.603    -3.542    -7.784
 $END
