!*** FMO 5.3 (Gamess) INPUT generated by Facio 22.1.1.32 ***
 $CONTRL RUNTYP=ENERGY NPRINT=-5 ISPHER=1 MAXIT=200 $END
 $SYSTEM MWORDS=63 MEMDDI=63 $END
 $GDDI NGROUP=1 $END
 $SCF DIRSCF=.TRUE. NPUNCH=0 $END
!*** NumCPU : 2  MemPerNode : 512MB
 $PCM SOLVNT=WATER IEF=-10 ICOMP=2 ICAV=1 IDISP=1 IFMO=-1 $END
 $PCMCAV RADII=SUAHF $END
 $TESCAV NTSALL=60 $END
 $FMOPRP
    NAODIR=200
    NGRFMO(1)=1, 1, 0, 0, 0,   0, 0, 0, 0, 0
    IPIEDA=1
    NPRINT=9
 $END
 $FMO
      SCFTYP(1)=RHF
      MODGRD=10
      MODMUL=0
      MAXCAO=5
      MAXBND=16
      NLAYER=1
      MPLEVL(1)=2
      NFRAG=14
      ICHARG(1)=-1, -1, -1, -1, -1, -1, -1, -1, -1, -1, -1, -1, -1, 0
      FRGNAM(1)=F1, F2, F3, F4, F5, F6, F7, F8, F9, F10, F11, F12, F13, F14
      indat(1)=0
               1   -36   0
               37   -70   0
               71   -101   0
               102   -134   0
               135   -165   0
               166   -195   0
               196   -225   0
               226   -256   0
               257   -290   0
               291   -324   0
               325   -354   0
               355   -388   0
               389   -419   0
               420   -447   0
 $END

 $FMOBND
   -37   36       6-31G*    MINI
   -71   70       6-31G*    MINI
   -102   101       6-31G*    MINI
   -135   134       6-31G*    MINI
   -166   165       6-31G*    MINI
   -196   195       6-31G*    MINI
   -226   225       6-31G*    MINI
   -257   256       6-31G*    MINI
   -291   290       6-31G*    MINI
   -325   324       6-31G*    MINI
   -355   354       6-31G*    MINI
   -389   388       6-31G*    MINI
   -420   419       6-31G*    MINI
 $END
 $FMOHYB
 6-31G*      15   5
   1 0  -0.065034   0.288264   0.000000   0.000000   0.604412
         0.290129   0.000000   0.000000   0.319045  -0.017106
        -0.017106   0.057934   0.000000   0.000000   0.000000
   0 1  -0.065040   0.288293   0.569832   0.000000  -0.201456
         0.290147   0.300783   0.000000  -0.106342   0.049598
        -0.017106  -0.008771   0.000000  -0.027223   0.000000
   0 1  -0.065039   0.288293  -0.284916  -0.493490  -0.201455
         0.290145  -0.150392  -0.260486  -0.106340  -0.000427
         0.032923  -0.008771   0.033353   0.013612   0.023576
   0 1  -0.065039   0.288293  -0.284916   0.493490  -0.201455
         0.290145  -0.150392   0.260486  -0.106340  -0.000427
         0.032923  -0.008771  -0.033353   0.013612  -0.023576
   0 1   1.010938  -0.011975   0.000000   0.000000   0.000000
        -0.054085   0.000000   0.000000  -0.000000  -0.003174
        -0.003174  -0.003174   0.000000   0.000000   0.000000
 MINI         5   5
   1 0  -0.104883   0.308874   0.000000   0.000000   0.521806
   0 1  -0.104883   0.308874   0.491961   0.000000  -0.173934
   0 1  -0.104883   0.308876  -0.245980  -0.426050  -0.173933
   0 1  -0.104883   0.308876  -0.245980   0.426050  -0.173933
   0 1   0.988209   0.063992   0.000000   0.000000   0.000000
 $END
 
 $DATA
 FMO calculation
 C1 
 H.1-1    1
      N31 6
   
 O.1-1    8
      N31 6
      d 1
      1 0.800 1.0
   
 C.1-1    6
      N31 6
      d 1
      1 0.800 1.0
   
 N.1-1    7
      N31 6
      d 1
      1 0.800 1.0
   
 P.1-1   15
      N31 6
      d 1
      1 0.550 1.0
   
 $END
 $FMOXYZ
    1    H    -14.898    -4.771    7.151
    2    O    -14.963    -4.577    6.198
    3    C    -15.493    -5.757    5.579
    4    H    -16.518    -5.937    5.970
    5    H    -14.864    -6.626    5.868
    6    C    -15.557    -5.699    4.044
    7    H    -16.247    -6.477    3.651
    8    O    -16.019    -4.410    3.550
    9    C    -15.236    -4.038    2.420
    10    H    -15.945    -3.832    1.583
    11    N    -14.454    -2.830    2.691
    12    C    -13.859    -2.035    1.752
    13    N    -13.155    -1.294    -1.558
    14    H    -13.597    -2.047    -2.044
    15    H    -12.652    -0.608    -2.078
    16    N    -13.881    -2.229    0.421
    17    C    -13.224    -1.279    -0.240
    18    N    -12.614    -0.219    0.377
    19    H    -12.171    0.466    -0.209
    20    C    -12.593    0.003    1.754
    21    O    -12.032    0.980    2.256
    22    C    -13.271    -1.011    2.462
    23    N    -13.473    -1.165    3.827
    24    C    -14.173    -2.269    3.919
    25    H    -14.527    -2.717    4.848
    26    C    -14.345    -5.204    2.057
    27    H    -13.360    -4.871    1.669
    28    O    -14.959    -6.045    1.099
    29    H    -14.358    -6.793    0.983
    30    C    -14.194    -5.897    3.398
    31    H    -13.473    -5.328    4.035
    32    O    -13.923    -7.309    3.313
    33    P    -12.492    -7.823    3.664
    34    O    -12.527    -9.302    3.707
    35    O    -12.012    -7.116    4.866
    36    O    -11.661    -7.352    2.423
    37    C    -11.948    -7.929    1.132
    38    H    -13.038    -7.922    0.889
    39    H    -11.614    -8.989    1.091
    40    C    -11.209    -7.160    0.053
    41    H    -11.303    -7.705    -0.915
    42    O    -11.844    -5.844    -0.118
    43    C    -10.825    -4.900    -0.450
    44    H    -11.165    -4.329    -1.344
    45    N    -10.530    -3.977    0.664
    46    C    -9.800    -2.819    0.583
    47    N    -7.966    -0.508    -1.252
    48    H    -8.116    -0.803    -2.192
    49    H    -7.513    0.368    -1.083
    50    N    -9.245    -2.307    -0.531
    51    C    -8.569    -1.181    -0.289
    52    N    -8.431    -0.650    0.964
    53    H    -7.891    0.196    1.049
    54    C    -8.965    -1.179    2.131
    55    O    -8.777    -0.655    3.230
    56    C    -9.721    -2.346    1.877
    57    N    -10.402    -3.173    2.756
    58    C    -10.860    -4.134    1.993
    59    H    -11.434    -4.995    2.338
    60    C    -9.607    -5.726    -0.782
    61    H    -8.681    -5.132    -0.674
    62    O    -9.731    -6.243    -2.097
    63    H    -9.073    -6.947    -2.190
    64    C    -9.723    -6.818    0.283
    65    H    -9.627    -6.382    1.300
    66    O    -8.863    -7.962    0.108
    67    P    -7.765    -8.423    1.168
    68    O    -7.653    -9.898    1.120
    69    O    -7.959    -7.834    2.512
    70    O    -6.396    -7.906    0.615
    71    C    -6.035    -8.289    -0.735
    72    H    -6.749    -9.000    -1.221
    73    H    -5.065    -8.826    -0.692
    74    C    -5.897    -7.081    -1.660
    75    H    -6.364    -7.291    -2.650
    76    O    -6.549    -5.918    -1.138
    77    C    -5.825    -4.766    -1.455
    78    H    -6.526    -4.198    -2.113
    79    N    -5.568    -3.904    -0.295
    80    C    -5.642    -4.433    0.972
    81    H    -5.810    -5.513    1.041
    82    C    -5.547    -3.652    2.048
    83    H    -5.644    -4.037    3.061
    84    C    -5.293    -2.550    -0.479
    85    O    -5.183    -2.094    -1.630
    86    N    -5.186    -1.749    0.605
    87    C    -5.387    -2.259    1.836
    88    N    -5.467    -1.442    2.873
    89    H    -5.065    -0.528    2.785
    90    H    -5.511    -1.811    3.805
    91    C    -4.605    -5.180    -2.237
    92    H    -3.696    -4.612    -1.959
    93    O    -4.945    -4.970    -3.584
    94    H    -5.058    -5.838    -3.993
    95    C    -4.465    -6.679    -1.889
    96    H    -3.932    -6.800    -0.920
    97    O    -3.976    -7.595    -2.870
    98    P    -2.726    -7.587    -3.763
    99    O    -2.782    -8.784    -4.621
    100    O    -1.530    -7.393    -2.915
    101    O    -2.950    -6.332    -4.618
    102    C    -2.726    -6.102    -6.003
    103    H    -3.707    -6.072    -6.524
    104    H    -2.115    -6.909    -6.467
    105    C    -2.030    -4.758    -6.223
    106    H    -2.196    -4.394    -7.257
    107    O    -2.522    -3.716    -5.304
    108    C    -1.447    -2.900    -4.899
    109    H    -1.711    -1.845    -5.142
    110    N    -1.152    -3.025    -3.456
    111    C    -0.462    -2.689    -1.390
    112    N    -0.927    -3.993    -1.436
    113    C    -1.301    -4.147    -2.682
    114    H    -1.714    -5.060    -3.101
    115    N    0.446    -0.647    -0.627
    116    C    0.271    -0.196    -1.871
    117    H    0.598    0.835    -2.030
    118    N    -0.226    -0.827    -2.944
    119    C    -0.590    -2.079    -2.628
    120    C    0.096    -1.925    -0.345
    121    N    0.285    -2.406    0.902
    122    H    0.065    -3.358    1.136
    123    H    0.625    -1.819    1.639
    124    C    -0.268    -3.330    -5.719
    125    H    0.624    -3.213    -5.089
    126    O    -0.187    -2.586    -6.922
    127    H    0.590    -2.926    -7.384
    128    C    -0.524    -4.809    -5.982
    129    H    -0.362    -5.411    -5.057
    130    O    0.158    -5.354    -7.136
    131    P    1.351    -6.386    -7.049
    132    O    1.619    -6.910    -8.401
    133    O    1.093    -7.382    -5.988
    134    O    2.597    -5.536    -6.623
    135    C    3.166    -4.583    -7.560
    136    H    2.467    -4.319    -8.391
    137    H    4.076    -5.016    -8.031
    138    C    3.555    -3.262    -6.886
    139    H    3.564    -2.442    -7.633
    140    O    2.595    -2.901    -5.886
    141    C    3.212    -2.258    -4.800
    142    H    2.665    -1.295    -4.667
    143    N    3.155    -3.046    -3.523
    144    C    2.792    -4.379    -3.485
    145    H    2.531    -4.834    -4.441
    146    C    2.764    -5.063    -2.330
    147    H    2.489    -6.115    -2.275
    148    C    3.467    -2.393    -2.337
    149    O    3.743    -1.185    -2.371
    150    N    3.474    -3.078    -1.173
    151    C    3.138    -4.375    -1.140
    152    N    3.174    -5.014    0.028
    153    H    3.479    -4.522    0.849
    154    H    2.881    -5.969    0.137
    155    C    4.623    -1.993    -5.254
    156    H    5.312    -1.956    -4.394
    157    O    4.671    -0.777    -5.980
    158    H    5.555    -0.699    -6.365
    159    C    4.869    -3.211    -6.140
    160    H    4.929    -4.120    -5.505
    161    O    5.936    -3.097    -7.090
    162    P    7.157    -4.086    -7.064
    163    O    7.818    -4.076    -8.392
    164    O    6.773    -5.426    -6.565
    165    O    8.112    -3.403    -6.015
    166    C    8.397    -1.984    -6.166
    167    H    7.625    -1.412    -6.739
    168    H    9.347    -1.871    -6.738
    169    C    8.566    -1.272    -4.819
    170    H    8.616    -0.170    -4.953
    171    O    7.497    -1.555    -3.885
    172    C    8.012    -1.623    -2.567
    173    H    7.488    -0.823    -1.993
    174    N    7.752    -2.962    -1.937
    175    C    7.423    -4.070    -2.693
    176    H    7.388    -3.910    -3.773
    177    C    7.829    -3.055    -0.564
    178    O    8.135    -2.108    0.150
    179    N    7.530    -4.287    -0.040
    180    H    7.581    -4.377    0.958
    181    C    7.189    -5.428    -0.728
    182    O    6.964    -6.472    -0.118
    183    C    7.144    -5.266    -2.149
    184    H    6.885    -6.130    -2.753
    185    C    9.495    -1.275    -2.668
    186    H    10.079    -1.831    -1.913
    187    O    9.690    0.112    -2.502
    188    H    10.634    0.302    -2.623
    189    C    9.798    -1.723    -4.090
    190    H    9.744    -2.831    -4.156
    191    O    10.950    -1.271    -4.766
    192    P    12.062    -0.217    -4.941
    193    O    11.758    0.616    -6.119
    194    O    13.312    -1.008    -4.980
    195    O    12.130    0.738    -3.673
    196    C    13.429    1.428    -3.588
    197    H    13.810    1.781    -4.585
    198    H    14.196    0.736    -3.169
    199    C    13.405    2.679    -2.705
    200    H    14.411    3.152    -2.699
    201    O    12.475    3.651    -3.260
    202    C    11.611    4.136    -2.264
    203    H    12.061    5.090    -1.896
    204    N    10.236    4.321    -2.827
    205    C    9.665    3.316    -3.583
    206    H    10.293    2.434    -3.731
    207    C    9.558    5.498    -2.599
    208    O    10.043    6.429    -1.964
    209    N    8.301    5.562    -3.148
    210    H    7.804    6.422    -2.986
    211    C    7.677    4.618    -3.936
    212    O    6.562    4.844    -4.408
    213    C    8.445    3.423    -4.137
    214    H    8.026    2.639    -4.765
    215    C    11.622    3.121    -1.137
    216    H    10.815    2.379    -1.323
    217    O    11.447    3.758    0.112
    218    H    11.580    3.102    0.824
    219    C    12.980    2.396    -1.260
    220    H    12.754    1.305    -1.192
    221    O    14.017    2.775    -0.313
    222    P    15.103    1.694    0.127
    223    O    16.129    2.363    0.953
    224    O    15.613    1.000    -1.077
    225    O    14.342    0.648    1.014
    226    C    14.564    0.566    2.448
    227    H    14.143    1.475    2.936
    228    H    15.650    0.549    2.690
    229    C    13.903    -0.669    3.124
    230    H    13.469    -0.367    4.094
    231    O    12.836    -1.217    2.298
    232    C    13.132    -2.551    1.985
    233    H    12.627    -3.151    2.776
    234    N    12.658    -2.924    0.647
    235    C    12.840    -2.041    -0.388
    236    H    13.236    -1.060    -0.112
    237    C    12.495    -2.371    -1.638
    238    H    12.615    -1.682    -2.471
    239    C    12.108    -4.181    0.419
    240    O    11.984    -4.975    1.367
    241    N    11.727    -4.519    -0.833
    242    C    11.934    -3.667    -1.850
    243    N    11.591    -4.047    -3.076
    244    H    11.680    -3.426    -3.855
    245    H    11.169    -4.943    -3.218
    246    C    14.625    -2.680    2.134
    247    H    15.155    -2.192    1.287
    248    O    15.043    -4.017    2.308
    249    H    14.692    -4.291    3.170
    250    C    14.808    -1.888    3.411
    251    H    15.862    -1.548    3.512
    252    O    14.354    -2.629    4.561
    253    P    15.134    -2.900    5.884
    254    O    16.569    -2.556    5.729
    255    O    14.824    -4.291    6.294
    256    O    14.478    -1.931    6.941
    257    C    13.049    -1.985    7.209
    258    H    12.853    -2.596    8.122
    259    H    12.473    -2.452    6.371
    260    C    12.462    -0.580    7.421
    261    H    12.820    -0.146    8.383
    262    O    12.947    0.304    6.369
    263    C    12.016    1.332    6.152
    264    H    12.527    2.260    6.498
    265    N    11.662    1.484    4.726
    266    C    11.000    0.616    3.878
    267    N    9.489    -2.436    3.246
    268    H    9.154    -2.937    2.460
    269    H    9.599    -2.899    4.124
    270    N    10.517    -0.605    4.187
    271    C    9.985    -1.217    3.142
    272    N    9.900    -0.665    1.897
    273    H    9.475    -1.191    1.156
    274    C    10.394    0.576    1.549
    275    O    10.273    0.979    0.396
    276    C    10.971    1.257    2.653
    277    N    11.576    2.509    2.724
    278    C    11.983    2.592    3.970
    279    H    12.519    3.443    4.399
    280    C    10.821    1.067    7.044
    281    H    9.890    1.278    6.510
    282    O    10.901    1.861    8.213
    283    H    10.246    1.515    8.836
    284    C    10.929    -0.430    7.358
    285    H    10.580    -1.046    6.509
    286    O    10.300    -0.841    8.589
    287    P    8.777    -1.287    8.662
    288    O    8.289    -1.008    10.033
    289    O    8.665    -2.689    8.211
    290    O    7.975    -0.409    7.663
    291    C    7.520    0.933    7.922
    292    H    8.221    1.478    8.594
    293    H    6.533    0.901    8.439
    294    C    7.368    1.772    6.629
    295    H    7.987    2.692    6.717
    296    O    7.880    1.054    5.469
    297    C    6.986    1.139    4.410
    298    H    7.591    1.360    3.501
    299    N    6.284    -0.121    4.209
    300    C    5.709    -0.522    3.043
    301    N    4.987    0.053    -0.285
    302    H    5.341    0.972    -0.439
    303    H    4.531    -0.432    -1.039
    304    N    5.667    0.188    1.905
    305    C    5.110    -0.493    0.911
    306    N    4.628    -1.768    1.058
    307    H    4.233    -2.217    0.245
    308    C    4.648    -2.520    2.225
    309    O    4.196    -3.669    2.282
    310    C    5.229    -1.793    3.291
    311    N    5.468    -2.171    4.603
    312    C    6.106    -1.146    5.111
    313    H    6.468    -1.076    6.135
    314    C    6.083    2.285    4.715
    315    H    5.113    2.222    4.193
    316    O    6.770    3.462    4.353
    317    H    7.351    3.686    5.090
    318    C    5.947    2.199    6.233
    319    H    5.245    1.390    6.537
    320    O    5.668    3.426    6.909
    321    P    4.511    4.456    6.686
    322    O    5.010    5.746    7.221
    323    O    3.288    3.896    7.286
    324    O    4.262    4.589    5.151
    325    C    4.720    5.691    4.340
    326    H    5.823    5.671    4.208
    327    H    4.454    6.667    4.802
    328    C    4.056    5.649    2.961
    329    H    4.424    6.478    2.320
    330    O    4.346    4.403    2.255
    331    C    3.206    4.027    1.495
    332    H    3.554    3.924    0.444
    333    N    2.612    2.746    1.972
    334    C    2.789    2.325    3.266
    335    H    3.379    3.000    3.876
    336    C    1.859    2.010    1.094
    337    O    1.664    2.359    -0.064
    338    N    1.327    0.861    1.613
    339    H    0.852    0.293    0.920
    340    C    1.477    0.361    2.888
    341    O    0.943    -0.701    3.202
    342    C    2.274    1.184    3.747
    343    H    2.434    0.872    4.778
    344    C    2.221    5.182    1.588
    345    H    1.167    4.842    1.514
    346    O    2.498    6.150    0.583
    347    H    1.860    6.867    0.707
    348    C    2.528    5.695    2.988
    349    H    2.219    4.937    3.744
    350    O    2.048    7.022    3.291
    351    P    0.810    7.208    4.264
    352    O    0.883    8.575    4.827
    353    O    0.710    6.104    5.248
    354    O    -0.424    7.127    3.324
    355    C    -0.682    8.145    2.339
    356    H    0.253    8.642    1.977
    357    H    -1.344    8.923    2.773
    358    C    -1.384    7.539    1.134
    359    H    -1.310    8.222    0.260
    360    O    -0.746    6.264    0.778
    361    C    -1.740    5.374    0.325
    362    H    -1.414    4.988    -0.669
    363    N    -1.995    4.250    1.242
    364    C    -2.542    3.033    0.902
    365    N    -3.803    0.825    -1.472
    366    H    -4.282    -0.051    -1.491
    367    H    -3.722    1.351    -2.322
    368    N    -2.900    2.626    -0.338
    369    C    -3.449    1.412    -0.338
    370    N    -3.649    0.688    0.807
    371    H    -4.132    -0.192    0.720
    372    C    -3.312    1.096    2.094
    373    O    -3.527    0.404    3.086
    374    C    -2.689    2.362    2.098
    375    N    -2.223    3.118    3.166
    376    C    -1.826    4.234    2.609
    377    H    -1.397    5.078    3.148
    378    C    -2.983    6.194    0.168
    379    H    -3.861    5.533    0.277
    380    O    -2.976    6.852    -1.089
    381    H    -3.758    7.418    -1.092
    382    C    -2.871    7.180    1.328
    383    H    -2.965    6.666    2.309
    384    O    -3.724    8.343    1.236
    385    P    -4.986    8.669    2.145
    386    O    -5.115    10.143    2.215
    387    O    -4.948    7.939    3.435
    388    O    -6.249    8.170    1.349
    389    C    -6.502    8.558    -0.031
    390    H    -5.789    9.335    -0.389
    391    H    -7.517    9.007    -0.084
    392    C    -6.429    7.391    -1.049
    393    H    -5.746    7.661    -1.883
    394    O    -5.847    6.271    -0.396
    395    C    -6.338    5.054    -0.832
    396    H    -5.481    4.633    -1.411
    397    N    -6.602    4.102    0.282
    398    C    -6.587    4.557    1.587
    399    H    -6.449    5.634    1.729
    400    C    -6.727    3.716    2.617
    401    H    -6.699    4.050    3.653
    402    C    -6.753    2.737    0.027
    403    O    -6.710    2.318    -1.141
    404    N    -6.930    1.881    1.062
    405    C    -6.891    2.336    2.328
    406    N    -7.001    1.473    3.332
    407    H    -7.349    0.550    3.160
    408    H    -7.031    1.798    4.281
    409    C    -7.503    5.323    -1.742
    410    H    -8.415    4.781    -1.431
    411    O    -7.092    4.903    -3.012
    412    H    -6.701    5.659    -3.471
    413    C    -7.728    6.858    -1.655
    414    H    -8.524    7.073    -0.908
    415    O    -7.966    7.570    -2.878
    416    P    -9.033    7.409    -4.010
    417    O    -8.881    8.575    -4.910
    418    O    -10.373    7.185    -3.430
    419    O    -8.622    6.136    -4.809
    420    C    -9.021    5.790    -6.147
    421    H    -8.200    6.079    -6.839
    422    H    -9.923    6.363    -6.465
    423    C    -9.312    4.274    -6.368
    424    H    -8.837    3.925    -7.309
    425    O    -8.778    3.449    -5.292
    426    C    -9.700    2.428    -4.942
    427    H    -9.134    1.484    -5.130
    428    N    -10.105    2.488    -3.516
    429    C    -10.331    3.712    -2.941
    430    H    -10.097    4.584    -3.558
    431    C    -10.723    3.815    -1.668
    432    H    -10.859    4.776    -1.176
    433    C    -10.359    1.322    -2.793
    434    O    -10.232    0.226    -3.363
    435    N    -10.748    1.406    -1.491
    436    C    -10.904    2.618    -0.926
    437    N    -11.248    2.722    0.351
    438    H    -11.356    1.921    0.945
    439    H    -11.447    3.614    0.760
    440    C    -10.887    2.485    -5.885
    441    H    -11.850    2.348    -5.345
    442    O    -10.761    1.495    -6.893
    443    H    -11.465    1.622    -7.554
    444    C    -10.805    3.913    -6.433
    445    H    -11.328    4.613    -5.744
    446    O    -11.307    4.054    -7.777
    447    H    -12.256    3.826    -7.808
 $END
