!*** FMO 5.3 (Gamess) INPUT generated by Facio 22.1.1.32 ***
 $CONTRL RUNTYP=ENERGY NPRINT=-5 ISPHER=1 MAXIT=200 $END
 $SYSTEM MWORDS=63 MEMDDI=63 $END
 $GDDI NGROUP=1 $END
 $SCF DIRSCF=.TRUE. NPUNCH=0 $END
!*** NumCPU : 2  MemPerNode : 512MB
 $PCM SOLVNT=WATER IEF=-10 ICOMP=2 ICAV=1 IDISP=1 IFMO=-1 $END
 $PCMCAV RADII=SUAHF $END
 $TESCAV NTSALL=60 $END
 $FMOPRP
    NAODIR=200
    NGRFMO(1)=1, 1, 0, 0, 0,   0, 0, 0, 0, 0
    IPIEDA=1
    NPRINT=9
 $END
 $FMO
      SCFTYP(1)=RHF
      MODGRD=10
      MODMUL=0
      MAXCAO=5
      MAXBND=16
      NLAYER=1
      MPLEVL(1)=2
      NFRAG=14
      ICHARG(1)=-1, -1, -1, -1, -1, -1, -1, -1, -1, -1, -1, -1, -1, 0
      FRGNAM(1)=F1, F2, F3, F4, F5, F6, F7, F8, F9, F10, F11, F12, F13, F14
      indat(1)=0
               1   -36   0
               37   -70   0
               71   -101   0
               102   -134   0
               135   -165   0
               166   -195   0
               196   -225   0
               226   -256   0
               257   -290   0
               291   -324   0
               325   -354   0
               355   -388   0
               389   -419   0
               420   -447   0
 $END

 $FMOBND
   -37   36       6-31G*    MINI
   -71   70       6-31G*    MINI
   -102   101       6-31G*    MINI
   -135   134       6-31G*    MINI
   -166   165       6-31G*    MINI
   -196   195       6-31G*    MINI
   -226   225       6-31G*    MINI
   -257   256       6-31G*    MINI
   -291   290       6-31G*    MINI
   -325   324       6-31G*    MINI
   -355   354       6-31G*    MINI
   -389   388       6-31G*    MINI
   -420   419       6-31G*    MINI
 $END
 $FMOHYB
 6-31G*      15   5
   1 0  -0.065034   0.288264   0.000000   0.000000   0.604412
         0.290129   0.000000   0.000000   0.319045  -0.017106
        -0.017106   0.057934   0.000000   0.000000   0.000000
   0 1  -0.065040   0.288293   0.569832   0.000000  -0.201456
         0.290147   0.300783   0.000000  -0.106342   0.049598
        -0.017106  -0.008771   0.000000  -0.027223   0.000000
   0 1  -0.065039   0.288293  -0.284916  -0.493490  -0.201455
         0.290145  -0.150392  -0.260486  -0.106340  -0.000427
         0.032923  -0.008771   0.033353   0.013612   0.023576
   0 1  -0.065039   0.288293  -0.284916   0.493490  -0.201455
         0.290145  -0.150392   0.260486  -0.106340  -0.000427
         0.032923  -0.008771  -0.033353   0.013612  -0.023576
   0 1   1.010938  -0.011975   0.000000   0.000000   0.000000
        -0.054085   0.000000   0.000000  -0.000000  -0.003174
        -0.003174  -0.003174   0.000000   0.000000   0.000000
 MINI         5   5
   1 0  -0.104883   0.308874   0.000000   0.000000   0.521806
   0 1  -0.104883   0.308874   0.491961   0.000000  -0.173934
   0 1  -0.104883   0.308876  -0.245980  -0.426050  -0.173933
   0 1  -0.104883   0.308876  -0.245980   0.426050  -0.173933
   0 1   0.988209   0.063992   0.000000   0.000000   0.000000
 $END
 
 $DATA
 FMO calculation
 C1 
 H.1-1    1
      N31 6
   
 O.1-1    8
      N31 6
      d 1
      1 0.800 1.0
   
 C.1-1    6
      N31 6
      d 1
      1 0.800 1.0
   
 N.1-1    7
      N31 6
      d 1
      1 0.800 1.0
   
 P.1-1   15
      N31 6
      d 1
      1 0.550 1.0
   
 $END
 $FMOXYZ
    1    H    -7.457    -5.937    10.978
    2    O    -7.497    -5.679    10.038
    3    C    -7.099    -6.833    9.285
    4    H    -7.744    -7.697    9.565
    5    H    -6.047    -7.092    9.536
    6    C    -7.185    -6.628    7.775
    7    H    -6.968    -7.585    7.250
    8    O    -8.528    -6.186    7.380
    9    C    -8.379    -5.277    6.286
    10    H    -9.059    -5.608    5.467
    11    N    -8.682    -3.894    6.673
    12    C    -8.900    -2.887    5.790
    13    N    -9.139    -1.814    2.532
    14    H    -9.031    -2.671    2.032
    15    H    -9.362    -0.989    2.007
    16    N    -8.897    -3.013    4.456
    17    C    -9.120    -1.863    3.846
    18    N    -9.334    -0.684    4.513
    19    H    -9.555    0.117    3.974
    20    C    -9.348    -0.526    5.896
    21    O    -9.557    0.572    6.422
    22    C    -9.099    -1.755    6.556
    23    N    -8.992    -2.045    7.910
    24    C    -8.720    -3.330    7.930
    25    H    -8.566    -3.934    8.827
    26    C    -6.942    -5.377    5.842
    27    H    -6.586    -4.473    5.302
    28    O    -6.765    -6.531    5.041
    29    H    -5.831    -6.572    4.793
    30    C    -6.286    -5.525    7.198
    31    H    -6.491    -4.639    7.841
    32    O    -4.884    -5.883    7.172
    33    P    -3.833    -4.685    7.302
    34    O    -2.577    -5.253    7.830
    35    O    -4.440    -3.610    8.125
    36    O    -3.588    -4.156    5.840
    37    C    -2.972    -4.948    4.791
    38    H    -3.164    -6.040    4.942
    39    H    -1.871    -4.795    4.795
    40    C    -3.489    -4.626    3.362
    41    H    -3.439    -5.548    2.744
    42    O    -4.896    -4.277    3.429
    43    C    -5.156    -3.228    2.539
    44    H    -6.074    -3.508    1.974
    45    N    -5.399    -1.967    3.246
    46    C    -5.850    -0.836    2.653
    47    N    -6.976    0.830    -0.137
    48    H    -6.692    0.207    -0.862
    49    H    -7.078    1.794    -0.384
    50    N    -6.154    -0.705    1.354
    51    C    -6.693    0.472    1.095
    52    N    -6.951    1.411    2.058
    53    H    -7.079    2.339    1.705
    54    C    -6.449    1.384    3.346
    55    O    -6.559    2.357    4.097
    56    C    -5.936    0.108    3.661
    57    N    -5.570    -0.432    4.878
    58    C    -5.270    -1.677    4.588
    59    H    -4.982    -2.444    5.304
    60    C    -3.972    -3.156    1.591
    61    H    -3.847    -2.156    1.126
    62    O    -4.107    -4.148    0.592
    63    H    -3.228    -4.200    0.200
    64    C    -2.805    -3.508    2.497
    65    H    -2.553    -2.674    3.178
    66    O    -1.637    -4.004    1.782
    67    P    -0.547    -3.106    1.005
    68    O    0.684    -3.914    1.081
    69    O    -0.627    -1.657    1.325
    70    O    -0.927    -3.215    -0.422
    71    C    -0.147    -3.448    -1.608
    72    H    0.574    -4.281    -1.446
    73    H    0.444    -2.538    -1.855
    74    C    -1.093    -3.834    -2.798
    75    H    -0.902    -4.887    -3.067
    76    O    -2.452    -3.765    -2.279
    77    C    -3.108    -2.667    -2.794
    78    H    -4.091    -3.178    -2.863
    79    N    -3.354    -1.459    -1.994
    80    C    -2.560    -0.816    -1.038
    81    H    -1.623    -1.248    -0.729
    82    C    -2.969    0.335    -0.498
    83    H    -2.391    0.914    0.221
    84    C    -4.508    -0.821    -2.469
    85    O    -5.190    -1.299    -3.381
    86    N    -4.854    0.333    -2.007
    87    C    -4.084    0.910    -1.130
    88    N    -4.310    2.116    -1.118
    89    H    -3.853    2.687    -0.445
    90    H    -5.253    2.402    -1.303
    91    C    -2.575    -2.356    -4.152
    92    H    -2.476    -1.259    -4.322
    93    O    -3.502    -2.893    -5.075
    94    H    -3.052    -3.037    -5.913
    95    C    -1.164    -2.976    -4.129
    96    H    -0.453    -2.132    -3.962
    97    O    -0.722    -3.684    -5.310
    98    P    -1.291    -4.365    -6.627
    99    O    -2.473    -5.193    -6.297
    100    O    -0.160    -5.087    -7.227
    101    O    -1.736    -3.325    -7.742
    102    C    -1.627    -3.571    -9.193
    103    H    -2.618    -3.958    -9.524
    104    H    -0.909    -4.388    -9.428
    105    C    -1.302    -2.385    -10.221
    106    H    -1.610    -2.743    -11.225
    107    O    -2.143    -1.196    -9.980
    108    C    -1.309    -0.030    -9.848
    109    H    -1.849    0.840    -10.287
    110    N    -1.010    0.231    -8.448
    111    C    -0.287    0.841    -6.501
    112    N    -0.850    -0.389    -6.315
    113    C    -1.281    -0.663    -7.485
    114    H    -2.056    -1.356    -7.711
    115    N    0.677    2.929    -6.020
    116    C    0.367    3.263    -7.284
    117    H    0.607    4.294    -7.577
    118    N    -0.136    2.497    -8.269
    119    C    -0.422    1.273    -7.801
    120    C    0.348    1.677    -5.610
    121    N    0.613    1.150    -4.428
    122    H    1.404    1.434    -3.885
    123    H    -0.131    0.887    -3.824
    124    C    -0.045    -0.310    -10.622
    125    H    0.832    0.259    -10.239
    126    O    -0.261    0.023    -11.984
    127    H    0.482    -0.329    -12.501
    128    C    0.167    -1.820    -10.396
    129    H    0.695    -2.001    -9.434
    130    O    0.856    -2.427    -11.502
    131    P    2.314    -2.990    -11.711
    132    O    2.510    -3.116    -13.174
    133    O    2.424    -4.240    -10.931
    134    O    3.391    -1.944    -11.193
    135    C    4.827    -2.302    -11.099
    136    H    5.214    -2.567    -12.109
    137    H    4.960    -3.199    -10.458
    138    C    5.795    -1.193    -10.517
    139    H    6.408    -0.761    -11.336
    140    O    4.950    -0.103    -10.018
    141    C    5.289    0.194    -8.680
    142    H    5.172    1.295    -8.563
    143    N    4.451    -0.518    -7.690
    144    C    3.613    -1.555    -8.048
    145    H    3.536    -1.773    -9.094
    146    C    2.911    -2.248    -7.154
    147    H    2.269    -3.089    -7.414
    148    C    4.537    -0.132    -6.363
    149    O    5.234    0.849    -6.048
    150    N    3.846    -0.833    -5.456
    151    C    3.073    -1.886    -5.807
    152    N    2.468    -2.628    -4.892
    153    H    2.741    -2.322    -3.968
    154    H    1.548    -2.984    -5.030
    155    C    6.738    -0.191    -8.531
    156    H    7.054    -0.326    -7.474
    157    O    7.545    0.796    -9.155
    158    H    8.451    0.453    -9.217
    159    C    6.757    -1.520    -9.284
    160    H    6.261    -2.312    -8.679
    161    O    8.092    -1.922    -9.675
    162    P    9.071    -2.880    -8.846
    163    O    10.380    -2.875    -9.545
    164    O    8.408    -4.197    -8.715
    165    O    9.281    -2.294    -7.394
    166    C    10.383    -2.551    -6.449
    167    H    11.360    -2.329    -6.928
    168    H    10.416    -3.627    -6.174
    169    C    10.306    -1.684    -5.115
    170    H    10.878    -0.749    -5.282
    171    O    8.909    -1.303    -4.960
    172    C    8.359    -1.746    -3.752
    173    H    7.834    -0.832    -3.389
    174    N    7.333    -2.826    -3.890
    175    C    7.162    -3.562    -5.043
    176    H    7.860    -3.341    -5.852
    177    C    6.450    -2.969    -2.838
    178    O    6.507    -2.289    -1.821
    179    N    5.485    -3.921    -3.004
    180    H    4.813    -4.013    -2.267
    181    C    5.247    -4.684    -4.117
    182    O    4.311    -5.483    -4.123
    183    C    6.171    -4.460    -5.190
    184    H    6.039    -5.030    -6.106
    185    C    9.479    -2.063    -2.795
    186    H    9.244    -2.983    -2.236
    187    O    9.600    -0.981    -1.890
    188    H    10.347    -1.130    -1.285
    189    C    10.718    -2.251    -3.690
    190    H    10.904    -3.320    -3.906
    191    O    11.919    -1.639    -3.145
    192    P    12.733    -1.892    -1.796
    193    O    14.019    -1.184    -1.953
    194    O    12.826    -3.355    -1.577
    195    O    11.975    -1.220    -0.530
    196    C    12.708    -1.307    0.751
    197    H    13.790    -1.064    0.603
    198    H    12.659    -2.351    1.144
    199    C    12.275    -0.383    1.941
    200    H    12.905    -0.640    2.821
    201    O    12.547    1.024    1.645
    202    C    11.379    1.811    1.767
    203    H    11.468    2.396    2.714
    204    N    11.212    2.691    0.569
    205    C    11.376    2.144    -0.686
    206    H    11.670    1.094    -0.695
    207    C    10.748    3.980    0.714
    208    O    10.457    4.463    1.805
    209    N    10.644    4.692    -0.457
    210    H    10.345    5.652    -0.357
    211    C    10.902    4.244    -1.737
    212    O    10.823    5.016    -2.693
    213    C    11.256    2.858    -1.814
    214    H    11.468    2.428    -2.789
    215    C    10.230    0.866    1.874
    216    H    9.848    0.695    0.843
    217    O    9.220    1.410    2.698
    218    H    8.640    0.672    2.975
    219    C    10.813    -0.469    2.401
    220    H    10.372    -1.306    1.817
    221    O    10.653    -0.701    3.828
    222    P    10.589    -2.175    4.433
    223    O    10.502    -2.070    5.909
    224    O    11.759    -2.917    3.909
    225    O    9.288    -2.885    3.909
    226    C    8.259    -3.419    4.787
    227    H    7.792    -2.593    5.363
    228    H    8.701    -4.104    5.540
    229    C    7.109    -4.195    4.070
    230    H    6.122    -3.820    4.402
    231    O    7.175    -4.057    2.621
    232    C    7.453    -5.308    2.053
    233    H    6.459    -5.730    1.787
    234    N    8.304    -5.202    0.869
    235    C    9.342    -4.309    0.882
    236    H    9.412    -3.658    1.756
    237    C    10.173    -4.217    -0.156
    238    H    10.993    -3.507    -0.163
    239    C    8.039    -5.966    -0.265
    240    O    7.042    -6.708    -0.287
    241    N    8.885    -5.902    -1.313
    242    C    9.947    -5.089    -1.264
    243    N    10.792    -5.090    -2.282
    244    H    11.599    -4.486    -2.235
    245    H    10.549    -5.560    -3.128
    246    C    8.066    -6.119    3.169
    247    H    9.103    -5.775    3.388
    248    O    8.017    -7.515    2.948
    249    H    7.077    -7.749    2.911
    250    C    7.120    -5.722    4.281
    251    H    7.547    -5.965    5.281
    252    O    5.815    -6.295    4.083
    253    P    4.859    -6.842    5.183
    254    O    5.640    -7.537    6.227
    255    O    3.809    -7.640    4.514
    256    O    4.198    -5.600    5.849
    257    C    3.186    -4.793    5.222
    258    H    2.197    -5.297    5.276
    259    H    3.417    -4.621    4.147
    260    C    3.136    -3.414    5.899
    261    H    2.715    -3.467    6.921
    262    O    4.508    -2.916    5.986
    263    C    4.558    -1.534    5.768
    264    H    4.806    -1.088    6.761
    265    N    5.558    -1.153    4.765
    266    C    5.643    -1.406    3.398
    267    N    4.599    -2.923    0.438
    268    H    4.949    -2.860    -0.490
    269    H    3.640    -3.134    0.596
    270    N    4.774    -2.102    2.623
    271    C    5.234    -2.263    1.374
    272    N    6.393    -1.745    0.929
    273    H    6.731    -1.975    0.011
    274    C    7.282    -1.080    1.687
    275    O    8.277    -0.770    1.067
    276    C    6.827    -0.822    3.010
    277    N    7.421    -0.149    4.070
    278    C    6.634    -0.378    5.084
    279    H    6.790    -0.002    6.100
    280    C    3.222    -1.086    5.347
    281    H    3.264    -0.689    4.334
    282    O    2.597    -0.197    6.250
    283    H    1.707    -0.180    5.877
    284    C    2.424    -2.330    5.125
    285    H    2.608    -2.651    4.063
    286    O    1.017    -2.125    5.514
    287    P    0.168    -1.760    4.250
    288    O    -1.205    -1.425    4.666
    289    O    0.407    -3.042    3.605
    290    O    0.880    -0.504    3.563
    291    C    0.654    0.935    3.727
    292    H    0.208    1.140    4.729
    293    H    -0.083    1.267    2.964
    294    C    1.927    1.897    3.595
    295    H    2.152    2.281    4.612
    296    O    3.051    1.083    3.247
    297    C    3.661    1.457    2.071
    298    H    4.741    1.234    2.233
    299    N    3.256    0.680    0.910
    300    C    3.921    0.771    -0.275
    301    N    6.523    2.059    -2.184
    302    H    6.951    1.926    -3.074
    303    H    6.955    2.663    -1.519
    304    N    4.982    1.567    -0.544
    305    C    5.478    1.363    -1.765
    306    N    4.989    0.401    -2.615
    307    H    5.358    0.298    -3.541
    308    C    3.966    -0.480    -2.265
    309    O    3.572    -1.434    -2.909
    310    C    3.353    -0.183    -1.062
    311    N    2.299    -0.821    -0.440
    312    C    2.282    -0.294    0.749
    313    H    1.570    -0.600    1.514
    314    C    3.454    2.909    1.937
    315    H    3.486    3.271    0.894
    316    O    4.480    3.541    2.684
    317    H    4.316    3.341    3.617
    318    C    2.076    3.107    2.574
    319    H    1.259    3.014    1.825
    320    O    2.025    4.369    3.241
    321    P    2.188    5.854    2.695
    322    O    2.679    6.645    3.845
    323    O    0.858    6.211    2.177
    324    O    3.261    6.098    1.525
    325    C    3.460    7.519    1.130
    326    H    4.281    7.925    1.757
    327    H    2.561    8.143    1.354
    328    C    3.857    7.942    -0.350
    329    H    4.448    8.879    -0.287
    330    O    4.735    6.967    -1.012
    331    C    4.252    6.717    -2.345
    332    H    5.137    6.695    -3.022
    333    N    3.509    5.434    -2.431
    334    C    2.983    4.948    -1.274
    335    H    3.389    5.374    -0.392
    336    C    3.224    4.828    -3.634
    337    O    3.582    5.305    -4.706
    338    N    2.477    3.665    -3.527
    339    H    2.149    3.282    -4.401
    340    C    1.948    3.153    -2.332
    341    O    1.355    2.097    -2.256
    342    C    2.207    3.893    -1.189
    343    H    1.874    3.497    -0.240
    344    C    3.363    7.881    -2.719
    345    H    2.587    7.600    -3.464
    346    O    4.156    8.933    -3.248
    347    H    3.592    9.721    -3.314
    348    C    2.710    8.240    -1.380
    349    H    1.881    7.533    -1.155
    350    O    2.278    9.621    -1.362
    351    P    0.935    10.180    -0.761
    352    O    1.125    11.626    -0.513
    353    O    0.558    9.350    0.389
    354    O    -0.219    10.079    -1.841
    355    C    -1.554    10.551    -1.403
    356    H    -1.829    11.473    -1.956
    357    H    -1.626    10.772    -0.308
    358    C    -2.585    9.461    -1.682
    359    H    -2.224    8.623    -1.062
    360    O    -2.540    9.169    -3.122
    361    C    -3.424    8.119    -3.317
    362    H    -3.709    8.075    -4.392
    363    N    -2.757    6.853    -2.896
    364    C    -3.038    5.568    -3.249
    365    N    -4.774    3.199    -5.080
    366    H    -4.966    2.221    -5.017
    367    H    -5.262    3.741    -5.763
    368    N    -3.951    5.152    -4.147
    369    C    -4.007    3.819    -4.207
    370    N    -3.218    2.997    -3.452
    371    H    -3.597    2.090    -3.253
    372    C    -2.335    3.430    -2.462
    373    O    -1.714    2.676    -1.709
    374    C    -2.192    4.803    -2.470
    375    N    -1.283    5.560    -1.792
    376    C    -1.592    6.756    -2.135
    377    H    -0.969    7.611    -1.868
    378    C    -4.651    8.524    -2.470
    379    H    -5.194    7.633    -2.093
    380    O    -5.513    9.336    -3.242
    381    H    -6.148    9.767    -2.645
    382    C    -4.092    9.392    -1.322
    383    H    -4.472    10.435    -1.368
    384    O    -4.365    8.765    -0.040
    385    P    -5.047    9.418    1.244
    386    O    -5.561    10.770    0.937
    387    O    -4.022    9.353    2.303
    388    O    -6.206    8.520    1.826
    389    C    -7.649    8.442    1.715
    390    H    -8.095    9.444    1.885
    391    H    -8.032    7.783    2.528
    392    C    -8.174    7.898    0.352
    393    H    -8.506    8.780    -0.236
    394    O    -7.035    7.347    -0.297
    395    C    -7.041    5.979    -0.170
    396    H    -6.707    5.793    -1.219
    397    N    -6.085    5.276    0.730
    398    C    -5.478    5.602    1.957
    399    H    -5.705    6.553    2.413
    400    C    -4.610    4.748    2.566
    401    H    -4.045    4.974    3.467
    402    C    -5.915    3.998    0.264
    403    O    -6.398    3.615    -0.816
    404    N    -5.219    3.157    0.991
    405    C    -4.448    3.479    1.973
    406    N    -3.583    2.511    2.276
    407    H    -3.633    1.689    1.714
    408    H    -2.991    2.520    3.079
    409    C    -8.435    5.493    0.053
    410    H    -8.545    4.859    0.957
    411    O    -8.720    4.706    -1.053
    412    H    -8.846    5.287    -1.815
    413    C    -9.275    6.769    0.159
    414    H    -9.902    6.705    1.079
    415    O    -10.071    7.062    -1.015
    416    P    -11.188    6.326    -1.879
    417    O    -11.636    7.321    -2.873
    418    O    -12.218    5.745    -0.990
    419    O    -10.558    5.148    -2.728
    420    C    -11.168    4.477    -3.852
    421    H    -10.835    5.008    -4.770
    422    H    -12.282    4.560    -3.822
    423    C    -10.832    2.951    -4.063
    424    H    -10.531    2.780    -5.115
    425    O    -9.732    2.473    -3.238
    426    C    -10.073    1.250    -2.586
    427    H    -9.261    0.535    -2.858
    428    N    -10.121    1.390    -1.119
    429    C    -10.587    2.564    -0.590
    430    H    -10.821    3.355    -1.302
    431    C    -10.635    2.768    0.727
    432    H    -10.930    3.722    1.154
    433    C    -9.820    0.323    -0.277
    434    O    -9.477    -0.765    -0.772
    435    N    -9.869    0.514    1.070
    436    C    -10.235    1.707    1.569
    437    N    -10.192    1.914    2.883
    438    H    -10.589    2.743    3.285
    439    H    -9.795    1.254    3.492
    440    C    -11.385    0.738    -3.137
    441    H    -12.055    0.376    -2.322
    442    O    -11.189    -0.316    -4.068
    443    H    -10.746    0.037    -4.854
    444    C    -12.002    2.002    -3.749
    445    H    -12.623    2.508    -2.976
    446    O    -12.779    1.761    -4.936
    447    H    -13.451    1.076    -4.756
 $END
