!*** FMO 5.3 (Gamess) INPUT generated by Facio 22.1.1.32 ***
 $CONTRL RUNTYP=ENERGY NPRINT=-5 ISPHER=1 MAXIT=200 $END
 $SYSTEM MWORDS=63 MEMDDI=63 $END
 $GDDI NGROUP=1 $END
 $SCF DIRSCF=.TRUE. NPUNCH=0 $END
!*** NumCPU : 2  MemPerNode : 512MB
 $PCM SOLVNT=WATER IEF=-10 ICOMP=2 ICAV=1 IDISP=1 IFMO=-1 $END
 $PCMCAV RADII=SUAHF $END
 $TESCAV NTSALL=60 $END
 $FMOPRP
    NAODIR=200
    NGRFMO(1)=1, 1, 0, 0, 0,   0, 0, 0, 0, 0
    IPIEDA=1
    NPRINT=9
 $END
 $FMO
      SCFTYP(1)=RHF
      MODGRD=10
      MODMUL=0
      MAXCAO=5
      MAXBND=16
      NLAYER=1
      MPLEVL(1)=2
      NFRAG=14
      ICHARG(1)=-1, -1, -1, -1, -1, -1, -1, -1, -1, -1, -1, -1, -1, 0
      FRGNAM(1)=F1, F2, F3, F4, F5, F6, F7, F8, F9, F10, F11, F12, F13, F14
      indat(1)=0
               1   -36   0
               37   -70   0
               71   -101   0
               102   -134   0
               135   -165   0
               166   -195   0
               196   -225   0
               226   -256   0
               257   -290   0
               291   -324   0
               325   -354   0
               355   -388   0
               389   -419   0
               420   -447   0
 $END

 $FMOBND
   -37   36       6-31G*    MINI
   -71   70       6-31G*    MINI
   -102   101       6-31G*    MINI
   -135   134       6-31G*    MINI
   -166   165       6-31G*    MINI
   -196   195       6-31G*    MINI
   -226   225       6-31G*    MINI
   -257   256       6-31G*    MINI
   -291   290       6-31G*    MINI
   -325   324       6-31G*    MINI
   -355   354       6-31G*    MINI
   -389   388       6-31G*    MINI
   -420   419       6-31G*    MINI
 $END
 $FMOHYB
 6-31G*      15   5
   1 0  -0.065034   0.288264   0.000000   0.000000   0.604412
         0.290129   0.000000   0.000000   0.319045  -0.017106
        -0.017106   0.057934   0.000000   0.000000   0.000000
   0 1  -0.065040   0.288293   0.569832   0.000000  -0.201456
         0.290147   0.300783   0.000000  -0.106342   0.049598
        -0.017106  -0.008771   0.000000  -0.027223   0.000000
   0 1  -0.065039   0.288293  -0.284916  -0.493490  -0.201455
         0.290145  -0.150392  -0.260486  -0.106340  -0.000427
         0.032923  -0.008771   0.033353   0.013612   0.023576
   0 1  -0.065039   0.288293  -0.284916   0.493490  -0.201455
         0.290145  -0.150392   0.260486  -0.106340  -0.000427
         0.032923  -0.008771  -0.033353   0.013612  -0.023576
   0 1   1.010938  -0.011975   0.000000   0.000000   0.000000
        -0.054085   0.000000   0.000000  -0.000000  -0.003174
        -0.003174  -0.003174   0.000000   0.000000   0.000000
 MINI         5   5
   1 0  -0.104883   0.308874   0.000000   0.000000   0.521806
   0 1  -0.104883   0.308874   0.491961   0.000000  -0.173934
   0 1  -0.104883   0.308876  -0.245980  -0.426050  -0.173933
   0 1  -0.104883   0.308876  -0.245980   0.426050  -0.173933
   0 1   0.988209   0.063992   0.000000   0.000000   0.000000
 $END
 
 $DATA
 FMO calculation
 C1 
 H.1-1    1
      N31 6
   
 O.1-1    8
      N31 6
      d 1
      1 0.800 1.0
   
 C.1-1    6
      N31 6
      d 1
      1 0.800 1.0
   
 N.1-1    7
      N31 6
      d 1
      1 0.800 1.0
   
 P.1-1   15
      N31 6
      d 1
      1 0.550 1.0
   
 $END
 $FMOXYZ
    1    H    -19.113    -3.921    4.338
    2    O    -18.270    -4.018    3.855
    3    C    -17.781    -5.352    4.098
    4    H    -18.652    -6.037    3.985
    5    H    -17.422    -5.423    5.146
    6    C    -16.669    -5.866    3.141
    7    H    -16.894    -6.925    2.896
    8    O    -16.737    -5.106    1.880
    9    C    -15.428    -4.780    1.473
    10    H    -15.376    -4.886    0.364
    11    N    -15.050    -3.415    1.852
    12    C    -13.874    -2.851    1.494
    13    N    -10.878    -3.034    -0.190
    14    H    -10.983    -3.928    -0.621
    15    H    -9.946    -2.777    0.054
    16    N    -12.943    -3.419    0.714
    17    C    -11.855    -2.682    0.622
    18    N    -11.634    -1.590    1.416
    19    H    -10.874    -0.994    1.137
    20    C    -12.609    -0.935    2.167
    21    O    -12.393    0.108    2.789
    22    C    -13.828    -1.643    2.153
    23    N    -15.018    -1.391    2.820
    24    C    -15.725    -2.475    2.603
    25    H    -16.748    -2.635    2.942
    26    C    -14.547    -5.804    2.142
    27    H    -13.484    -5.511    2.156
    28    O    -14.722    -7.033    1.454
    29    H    -15.676    -7.173    1.347
    30    C    -15.140    -5.833    3.549
    31    H    -14.935    -4.887    4.103
    32    O    -14.747    -6.995    4.311
    33    P    -13.552    -7.275    5.327
    34    O    -13.769    -8.635    5.862
    35    O    -13.531    -6.198    6.342
    36    O    -12.132    -7.267    4.660
    37    C    -11.414    -8.264    3.876
    38    H    -12.038    -9.172    3.723
    39    H    -10.517    -8.579    4.450
    40    C    -10.907    -7.756    2.475
    41    H    -11.449    -8.309    1.680
    42    O    -11.355    -6.386    2.386
    43    C    -10.360    -5.530    1.973
    44    H    -10.903    -4.962    1.205
    45    N    -9.926    -4.552    2.984
    46    C    -9.146    -3.451    2.730
    47    N    -7.633    -1.383    0.408
    48    H    -7.714    -1.908    -0.434
    49    H    -7.283    -0.443    0.361
    50    N    -8.621    -3.114    1.538
    51    C    -8.077    -1.908    1.531
    52    N    -7.984    -1.128    2.651
    53    H    -7.551    -0.226    2.555
    54    C    -8.466    -1.468    3.913
    55    O    -8.343    -0.697    4.868
    56    C    -9.099    -2.743    3.911
    57    N    -9.813    -3.400    4.909
    58    C    -10.298    -4.467    4.307
    59    H    -10.929    -5.226    4.776
    60    C    -9.291    -6.332    1.323
    61    H    -8.279    -5.881    1.384
    62    O    -9.694    -6.477    -0.025
    63    H    -10.410    -7.128    -0.044
    64    C    -9.375    -7.669    2.056
    65    H    -8.784    -7.638    2.997
    66    O    -8.979    -8.787    1.226
    67    P    -7.660    -8.991    0.331
    68    O    -7.931    -10.225    -0.441
    69    O    -6.504    -9.060    1.248
    70    O    -7.358    -7.818    -0.729
    71    C    -6.603    -8.038    -1.988
    72    H    -7.115    -8.829    -2.574
    73    H    -5.586    -8.416    -1.758
    74    C    -6.406    -6.815    -3.010
    75    H    -7.110    -6.983    -3.850
    76    O    -6.881    -5.620    -2.346
    77    C    -5.894    -4.628    -2.280
    78    H    -6.435    -3.775    -2.750
    79    N    -5.534    -4.177    -0.908
    80    C    -5.813    -4.914    0.214
    81    H    -6.311    -5.868    0.037
    82    C    -5.518    -4.443    1.439
    83    H    -5.751    -4.992    2.350
    84    C    -4.913    -2.943    -0.782
    85    O    -4.661    -2.309    -1.809
    86    N    -4.610    -2.438    0.434
    87    C    -4.934    -3.139    1.530
    88    N    -4.717    -2.568    2.713
    89    H    -4.135    -1.757    2.726
    90    H    -4.820    -3.078    3.571
    91    C    -4.703    -4.979    -3.145
    92    H    -3.748    -4.962    -2.583
    93    O    -4.647    -4.019    -4.180
    94    H    -5.339    -4.243    -4.820
    95    C    -4.986    -6.402    -3.663
    96    H    -4.248    -7.100    -3.213
    97    O    -4.927    -6.483    -5.135
    98    P    -3.583    -6.299    -6.041
    99    O    -3.787    -7.166    -7.219
    100    O    -2.369    -6.606    -5.249
    101    O    -3.405    -4.806    -6.640
    102    C    -2.599    -4.604    -7.870
    103    H    -3.317    -4.567    -8.721
    104    H    -1.919    -5.463    -8.076
    105    C    -1.702    -3.300    -8.052
    106    H    -1.905    -2.863    -9.052
    107    O    -2.091    -2.276    -7.093
    108    C    -0.951    -1.767    -6.431
    109    H    -1.071    -0.658    -6.377
    110    N    -0.848    -2.322    -5.086
    111    C    -0.386    -2.590    -2.960
    112    N    -1.002    -3.758    -3.359
    113    C    -1.261    -3.545    -4.625
    114    H    -1.726    -4.257    -5.295
    115    N    0.805    -0.993    -1.712
    116    C    0.928    -0.329    -2.864
    117    H    1.557    0.545    -2.858
    118    N    0.367    -0.540    -4.044
    119    C    -0.270    -1.709    -4.025
    120    C    0.150    -2.176    -1.725
    121    N    0.076    -2.907    -0.597
    122    H    -0.248    -3.860    -0.613
    123    H    0.540    -2.587    0.224
    124    C    0.267    -2.088    -7.261
    125    H    1.178    -2.222    -6.638
    126    O    0.515    -1.056    -8.200
    127    H    1.364    -1.260    -8.619
    128    C    -0.130    -3.411    -7.926
    129    H    0.064    -4.263    -7.233
    130    O    0.500    -3.626    -9.216
    131    P    2.015    -4.062    -9.418
    132    O    2.407    -3.888    -10.835
    133    O    2.126    -5.430    -8.871
    134    O    2.907    -3.122    -8.540
    135    C    4.058    -2.375    -9.020
    136    H    3.810    -1.831    -9.963
    137    H    4.900    -3.067    -9.256
    138    C    4.582    -1.324    -7.998
    139    H    4.776    -0.353    -8.503
    140    O    3.562    -1.088    -6.978
    141    C    4.157    -1.044    -5.701
    142    H    3.757    -0.104    -5.251
    143    N    3.815    -2.206    -4.822
    144    C    3.260    -3.378    -5.271
    145    H    3.088    -3.444    -6.343
    146    C    2.949    -4.370    -4.418
    147    H    2.490    -5.300    -4.748
    148    C    4.001    -2.032    -3.468
    149    O    4.368    -0.922    -3.088
    150    N    3.785    -3.030    -2.593
    151    C    3.240    -4.174    -3.031
    152    N    2.972    -5.126    -2.143
    153    H    3.194    -4.955    -1.185
    154    H    2.567    -6.003    -2.399
    155    C    5.652    -0.892    -5.906
    156    H    6.248    -1.310    -5.066
    157    O    5.980    0.476    -6.086
    158    H    6.920    0.507    -6.304
    159    C    5.859    -1.691    -7.187
    160    H    5.794    -2.785    -6.978
    161    O    7.057    -1.315    -7.906
    162    P    8.338    -2.227    -7.982
    163    O    9.197    -1.763    -9.094
    164    O    7.934    -3.648    -8.009
    165    O    9.119    -1.979    -6.632
    166    C    9.774    -0.703    -6.398
    167    H    9.191    0.144    -6.831
    168    H    10.774    -0.701    -6.884
    169    C    9.961    -0.374    -4.901
    170    H    10.169    0.709    -4.777
    171    O    8.740    -0.649    -4.161
    172    C    9.051    -1.205    -2.899
    173    H    8.615    -0.494    -2.158
    174    N    8.421    -2.551    -2.702
    175    C    7.938    -3.265    -3.780
    176    H    8.096    -2.804    -4.755
    177    C    8.222    -3.010    -1.412
    178    O    8.571    -2.382    -0.417
    179    N    7.576    -4.220    -1.322
    180    H    7.430    -4.570    -0.386
    181    C    7.074    -4.984    -2.357
    182    O    6.514    -6.055    -2.126
    183    C    7.277    -4.424    -3.657
    184    H    6.900    -4.963    -4.523
    185    C    10.571    -1.183    -2.744
    186    H    10.930    -2.075    -2.210
    187    O    10.962    -0.026    -2.045
    188    H    11.927    -0.024    -1.958
    189    C    11.091    -1.124    -4.178
    190    H    11.145    -2.141    -4.618
    191    O    12.325    -0.396    -4.365
    192    P    13.742    -0.845    -3.882
    193    O    14.726    -0.257    -4.817
    194    O    13.761    -2.314    -3.695
    195    O    13.947    -0.165    -2.458
    196    C    15.287    -0.336    -1.888
    197    H    16.095    -0.281    -2.665
    198    H    15.377    -1.342    -1.410
    199    C    15.672    0.745    -0.859
    200    H    16.734    0.589    -0.566
    201    O    15.602    2.066    -1.470
    202    C    14.854    2.935    -0.655
    203    H    15.612    3.496    -0.060
    204    N    14.015    3.842    -1.479
    205    C    13.251    3.317    -2.495
    206    H    13.351    2.238    -2.636
    207    C    13.968    5.185    -1.179
    208    O    14.596    5.683    -0.251
    209    N    13.166    5.936    -2.000
    210    H    13.139    6.921    -1.803
    211    C    12.412    5.492    -3.066
    212    O    11.767    6.291    -3.746
    213    C    12.475    4.076    -3.284
    214    H    11.916    3.656    -4.116
    215    C    14.015    2.092    0.272
    216    H    13.030    1.838    -0.169
    217    O    13.878    2.787    1.490
    218    H    14.676    2.586    1.996
    219    C    14.840    0.809    0.439
    220    H    14.127    -0.050    0.426
    221    O    15.690    0.811    1.615
    222    P    15.913    -0.512    2.449
    223    O    16.694    -0.162    3.656
    224    O    16.512    -1.536    1.565
    225    O    14.498    -1.032    2.867
    226    C    13.948    -0.851    4.190
    227    H    13.546    0.184    4.274
    228    H    14.717    -0.976    4.990
    229    C    12.781    -1.820    4.497
    230    H    12.119    -1.347    5.257
    231    O    11.975    -2.076    3.319
    232    C    11.938    -3.446    3.016
    233    H    10.999    -3.812    3.491
    234    N    11.918    -3.698    1.545
    235    C    12.723    -2.934    0.737
    236    H    13.304    -2.160    1.242
    237    C    12.751    -3.116    -0.590
    238    H    13.370    -2.509    -1.247
    239    C    11.078    -4.659    0.978
    240    O    10.315    -5.306    1.714
    241    N    11.111    -4.873    -0.362
    242    C    11.922    -4.136    -1.143
    243    N    11.940    -4.343    -2.465
    244    H    12.555    -3.807    -3.053
    245    H    11.374    -5.065    -2.863
    246    C    13.112    -4.068    3.741
    247    H    14.041    -3.922    3.148
    248    O    12.906    -5.437    4.039
    249    H    12.147    -5.487    4.642
    250    C    13.178    -3.211    5.018
    251    H    14.246    -3.178    5.343
    252    O    12.287    -3.660    6.076
    253    P    12.679    -3.444    7.592
    254    O    14.150    -3.425    7.747
    255    O    11.959    -4.443    8.413
    256    O    12.142    -2.031    7.992
    257    C    10.731    -1.739    8.117
    258    H    10.346    -2.100    9.097
    259    H    10.147    -2.247    7.318
    260    C    10.443    -0.234    7.997
    261    H    10.578    0.276    8.975
    262    O    11.383    0.382    7.070
    263    C    10.788    1.491    6.468
    264    H    11.350    2.372    6.856
    265    N    10.901    1.446    5.012
    266    C    10.369    0.583    4.066
    267    N    8.597    -2.266    3.227
    268    H    8.461    -2.856    2.439
    269    H    8.327    -2.586    4.133
    270    N    9.561    -0.475    4.280
    271    C    9.290    -1.134    3.161
    272    N    9.769    -0.781    1.924
    273    H    9.589    -1.378    1.138
    274    C    10.643    0.273    1.699
    275    O    11.087    0.537    0.586
    276    C    10.872    1.032    2.867
    277    N    11.617    2.179    3.043
    278    C    11.624    2.378    4.324
    279    H    12.150    3.194    4.824
    280    C    9.362    1.566    6.938
    281    H    8.711    1.830    6.106
    282    O    9.222    2.533    7.961
    283    H    8.331    2.429    8.322
    284    C    9.074    0.146    7.421
    285    H    8.884    -0.547    6.573
    286    O    8.050    0.058    8.427
    287    P    6.535    -0.169    8.055
    288    O    5.715    0.362    9.166
    289    O    6.325    -1.595    7.711
    290    O    6.238    0.690    6.791
    291    C    6.001    2.111    6.750
    292    H    6.572    2.625    7.555
    293    H    4.925    2.311    6.949
    294    C    6.425    2.768    5.396
    295    H    7.158    3.575    5.617
    296    O    7.152    1.816    4.563
    297    C    6.636    1.766    3.281
    298    H    7.515    1.712    2.598
    299    N    5.816    0.573    3.058
    300    C    5.524    0.078    1.832
    301    N    6.036    0.229    -1.532
    302    H    6.240    1.198    -1.639
    303    H    5.662    -0.259    -2.323
    304    N    5.917    0.615    0.679
    305    C    5.634    -0.153    -0.347
    306    N    4.946    -1.347    -0.250
    307    H    4.681    -1.827    -1.094
    308    C    4.476    -1.905    0.939
    309    O    3.867    -2.978    0.985
    310    C    4.811    -1.086    2.051
    311    N    4.623    -1.296    3.409
    312    C    5.253    -0.292    3.966
    313    H    5.321    -0.134    5.034
    314    C    5.913    3.048    3.066
    315    H    5.128    2.958    2.298
    316    O    6.852    4.030    2.673
    317    H    7.234    4.395    3.483
    318    C    5.353    3.366    4.456
    319    H    4.399    2.826    4.645
    320    O    5.242    4.770    4.729
    321    P    4.398    5.829    3.918
    322    O    5.019    7.137    4.138
    323    O    2.998    5.642    4.379
    324    O    4.422    5.481    2.387
    325    C    4.883    6.346    1.324
    326    H    5.990    6.264    1.241
    327    H    4.632    7.416    1.522
    328    C    4.279    5.988    -0.054
    329    H    4.726    6.613    -0.856
    330    O    4.515    4.592    -0.403
    331    C    3.351    4.055    -1.017
    332    H    3.690    3.631    -1.992
    333    N    2.727    3.000    -0.185
    334    C    2.914    2.932    1.167
    335    H    3.576    3.691    1.549
    336    C    1.834    2.187    -0.800
    337    O    1.530    2.360    -1.974
    338    N    1.308    1.194    -0.010
    339    H    0.856    0.437    -0.508
    340    C    1.544    0.983    1.332
    341    O    1.046    0.020    1.908
    342    C    2.368    1.983    1.941
    343    H    2.570    1.922    3.008
    344    C    2.391    5.204    -1.261
    345    H    1.325    4.896    -1.180
    346    O    2.618    5.771    -2.536
    347    H    2.021    6.529    -2.627
    348    C    2.765    6.140    -0.126
    349    H    2.405    5.711    0.840
    350    O    2.406    7.528    -0.327
    351    P    1.093    8.003    0.400
    352    O    0.980    9.481    0.319
    353    O    1.045    7.440    1.763
    354    O    -0.036    7.331    -0.431
    355    C    -0.850    8.063    -1.357
    356    H    -0.229    8.443    -2.203
    357    H    -1.344    8.936    -0.868
    358    C    -1.932    7.154    -1.935
    359    H    -2.340    7.624    -2.857
    360    O    -1.357    5.840    -2.303
    361    C    -2.353    4.846    -2.098
    362    H    -2.423    4.222    -3.020
    363    N    -2.094    4.002    -0.916
    364    C    -2.606    2.755    -0.737
    365    N    -4.629    0.263    -1.878
    366    H    -4.696    0.515    -2.839
    367    H    -4.776    -0.704    -1.646
    368    N    -3.360    2.103    -1.623
    369    C    -3.848    0.985    -1.128
    370    N    -3.560    0.501    0.126
    371    H    -3.965    -0.379    0.398
    372    C    -2.766    1.159    1.068
    373    O    -2.564    0.699    2.196
    374    C    -2.256    2.382    0.547
    375    N    -1.488    3.370    1.151
    376    C    -1.415    4.313    0.240
    377    H    -0.896    5.267    0.356
    378    C    -3.635    5.608    -1.902
    379    H    -4.374    4.966    -1.392
    380    O    -4.131    6.051    -3.159
    381    H    -4.825    6.705    -2.986
    382    C    -3.121    6.748    -1.027
    383    H    -2.684    6.371    -0.083
    384    O    -4.063    7.800    -0.753
    385    P    -4.586    8.182    0.707
    386    O    -4.783    9.647    0.736
    387    O    -3.767    7.584    1.786
    388    O    -6.017    7.565    0.844
    389    C    -7.008    7.857    -0.161
    390    H    -6.723    8.679    -0.861
    391    H    -7.926    8.216    0.359
    392    C    -7.377    6.617    -0.976
    393    H    -7.408    6.839    -2.065
    394    O    -6.462    5.529    -0.792
    395    C    -7.126    4.301    -0.791
    396    H    -6.795    3.804    -1.735
    397    N    -6.709    3.440    0.372
    398    C    -6.081    4.001    1.469
    399    H    -5.970    5.090    1.457
    400    C    -5.637    3.244    2.484
    401    H    -5.137    3.672    3.351
    402    C    -6.852    2.055    0.308
    403    O    -7.343    1.548    -0.708
    404    N    -6.441    1.277    1.341
    405    C    -5.830    1.834    2.399
    406    N    -5.397    1.036    3.376
    407    H    -4.937    1.416    4.188
    408    H    -5.447    0.047    3.290
    409    C    -8.624    4.602    -0.894
    410    H    -9.169    4.004    -0.152
    411    O    -9.099    4.328    -2.194
    412    H    -10.045    4.571    -2.251
    413    C    -8.711    6.099    -0.543
    414    H    -8.752    6.205    0.563
    415    O    -9.667    6.952    -1.188
    416    P    -11.201    6.979    -1.089
    417    O    -11.697    8.272    -1.606
    418    O    -11.643    6.587    0.269
    419    O    -11.514    5.848    -2.090
    420    C    -12.621    5.777    -2.999
    421    H    -12.325    6.258    -3.960
    422    H    -13.523    6.310    -2.615
    423    C    -12.982    4.308    -3.292
    424    H    -13.296    4.174    -4.350
    425    O    -11.839    3.428    -3.046
    426    C    -12.264    2.266    -2.373
    427    H    -11.976    1.449    -3.075
    428    N    -11.566    2.071    -1.076
    429    C    -11.496    3.088    -0.148
    430    H    -11.872    4.063    -0.464
    431    C    -10.900    2.901    1.043
    432    H    -10.797    3.691    1.786
    433    C    -11.117    0.804    -0.732
    434    O    -11.375    -0.157    -1.478
    435    N    -10.416    0.639    0.412
    436    C    -10.344    1.627    1.312
    437    N    -9.794    1.376    2.500
    438    H    -9.779    0.425    2.783
    439    H    -9.810    2.061    3.231
    440    C    -13.778    2.288    -2.261
    441    H    -14.129    1.896    -1.281
    442    O    -14.346    1.524    -3.313
    443    H    -15.309    1.658    -3.319
    444    C    -14.092    3.780    -2.385
    445    H    -13.973    4.282    -1.401
    446    O    -15.382    4.079    -2.955
    447    H    -16.096    3.713    -2.401
 $END
