!*** FMO 5.3 (Gamess) INPUT generated by Facio 22.1.1.32 ***
 $CONTRL RUNTYP=ENERGY NPRINT=-5 ISPHER=1 MAXIT=200 $END
 $SYSTEM MWORDS=63 MEMDDI=63 $END
 $GDDI NGROUP=1 $END
 $SCF DIRSCF=.TRUE. NPUNCH=0 $END
!*** NumCPU : 2  MemPerNode : 512MB
 $PCM SOLVNT=WATER IEF=-10 ICOMP=2 ICAV=1 IDISP=1 IFMO=-1 $END
 $PCMCAV RADII=SUAHF $END
 $TESCAV NTSALL=60 $END
 $FMOPRP
    NAODIR=200
    NGRFMO(1)=1, 1, 0, 0, 0,   0, 0, 0, 0, 0
    IPIEDA=1
    NPRINT=9
 $END
 $FMO
      SCFTYP(1)=RHF
      MODGRD=10
      MODMUL=0
      MAXCAO=5
      MAXBND=16
      NLAYER=1
      MPLEVL(1)=2
      NFRAG=14
      ICHARG(1)=-1, -1, -1, -1, -1, -1, -1, -1, -1, -1, -1, -1, -1, 0
      FRGNAM(1)=F1, F2, F3, F4, F5, F6, F7, F8, F9, F10, F11, F12, F13, F14
      indat(1)=0
               1   -36   0
               37   -70   0
               71   -101   0
               102   -134   0
               135   -165   0
               166   -195   0
               196   -225   0
               226   -256   0
               257   -290   0
               291   -324   0
               325   -354   0
               355   -388   0
               389   -419   0
               420   -447   0
 $END

 $FMOBND
   -37   36       6-31G*    MINI
   -71   70       6-31G*    MINI
   -102   101       6-31G*    MINI
   -135   134       6-31G*    MINI
   -166   165       6-31G*    MINI
   -196   195       6-31G*    MINI
   -226   225       6-31G*    MINI
   -257   256       6-31G*    MINI
   -291   290       6-31G*    MINI
   -325   324       6-31G*    MINI
   -355   354       6-31G*    MINI
   -389   388       6-31G*    MINI
   -420   419       6-31G*    MINI
 $END
 $FMOHYB
 6-31G*      15   5
   1 0  -0.065034   0.288264   0.000000   0.000000   0.604412
         0.290129   0.000000   0.000000   0.319045  -0.017106
        -0.017106   0.057934   0.000000   0.000000   0.000000
   0 1  -0.065040   0.288293   0.569832   0.000000  -0.201456
         0.290147   0.300783   0.000000  -0.106342   0.049598
        -0.017106  -0.008771   0.000000  -0.027223   0.000000
   0 1  -0.065039   0.288293  -0.284916  -0.493490  -0.201455
         0.290145  -0.150392  -0.260486  -0.106340  -0.000427
         0.032923  -0.008771   0.033353   0.013612   0.023576
   0 1  -0.065039   0.288293  -0.284916   0.493490  -0.201455
         0.290145  -0.150392   0.260486  -0.106340  -0.000427
         0.032923  -0.008771  -0.033353   0.013612  -0.023576
   0 1   1.010938  -0.011975   0.000000   0.000000   0.000000
        -0.054085   0.000000   0.000000  -0.000000  -0.003174
        -0.003174  -0.003174   0.000000   0.000000   0.000000
 MINI         5   5
   1 0  -0.104883   0.308874   0.000000   0.000000   0.521806
   0 1  -0.104883   0.308874   0.491961   0.000000  -0.173934
   0 1  -0.104883   0.308876  -0.245980  -0.426050  -0.173933
   0 1  -0.104883   0.308876  -0.245980   0.426050  -0.173933
   0 1   0.988209   0.063992   0.000000   0.000000   0.000000
 $END
 
 $DATA
 FMO calculation
 C1 
 H.1-1    1
      N31 6
   
 O.1-1    8
      N31 6
      d 1
      1 0.800 1.0
   
 C.1-1    6
      N31 6
      d 1
      1 0.800 1.0
   
 N.1-1    7
      N31 6
      d 1
      1 0.800 1.0
   
 P.1-1   15
      N31 6
      d 1
      1 0.550 1.0
   
 $END
 $FMOXYZ
    1    H    -11.817    -1.212    10.084
    2    O    -11.982    -1.580    9.193
    3    C    -12.428    -2.937    9.368
    4    H    -13.226    -2.938    10.142
    5    H    -11.590    -3.555    9.758
    6    C    -13.010    -3.610    8.100
    7    H    -13.742    -4.390    8.398
    8    O    -13.747    -2.631    7.310
    9    C    -13.487    -2.819    5.936
    10    H    -14.487    -2.944    5.457
    11    N    -12.833    -1.639    5.329
    12    C    -12.694    -1.378    3.986
    13    N    -13.248    -2.264    0.684
    14    H    -13.733    -3.130    0.786
    15    H    -13.059    -1.910    -0.229
    16    N    -13.117    -2.165    2.982
    17    C    -12.879    -1.632    1.782
    18    N    -12.273    -0.413    1.602
    19    H    -12.140    -0.077    0.665
    20    C    -11.834    0.424    2.624
    21    O    -11.311    1.516    2.380
    22    C    -12.078    -0.143    3.907
    23    N    -11.838    0.373    5.176
    24    C    -12.306    -0.548    5.987
    25    H    -12.283    -0.499    7.077
    26    C    -12.698    -4.106    5.775
    27    H    -11.967    -4.029    4.950
    28    O    -13.569    -5.188    5.512
    29    H    -13.013    -5.982    5.509
    30    C    -12.000    -4.280    7.128
    31    H    -11.061    -3.680    7.169
    32    O    -11.780    -5.663    7.513
    33    P    -10.622    -6.589    6.971
    34    O    -10.890    -7.968    7.426
    35    O    -9.341    -5.984    7.383
    36    O    -10.711    -6.555    5.402
    37    C    -10.637    -7.703    4.511
    38    H    -11.609    -8.247    4.559
    39    H    -9.854    -8.424    4.821
    40    C    -10.421    -7.347    3.000
    41    H    -10.904    -8.119    2.365
    42    O    -11.122    -6.092    2.738
    43    C    -10.345    -5.269    1.893
    44    H    -11.030    -4.915    1.087
    45    N    -9.818    -4.084    2.606
    46    C    -9.327    -2.940    2.040
    47    N    -8.457    -1.164    -0.761
    48    H    -8.692    -1.801    -1.487
    49    H    -8.066    -0.265    -0.988
    50    N    -9.214    -2.703    0.729
    51    C    -8.671    -1.522    0.479
    52    N    -8.277    -0.635    1.454
    53    H    -7.922    0.262    1.175
    54    C    -8.390    -0.852    2.823
    55    O    -8.009    -0.023    3.652
    56    C    -8.964    -2.121    3.097
    57    N    -9.231    -2.735    4.307
    58    C    -9.730    -3.892    3.963
    59    H    -10.070    -4.640    4.663
    60    C    -9.263    -6.145    1.289
    61    H    -8.357    -5.572    0.995
    62    O    -9.811    -6.804    0.160
    63    H    -9.150    -7.433    -0.165
    64    C    -8.967    -7.133    2.416
    65    H    -8.369    -6.646    3.216
    66    O    -8.352    -8.375    1.959
    67    P    -6.785    -8.651    1.779
    68    O    -6.615    -10.068    1.381
    69    O    -6.096    -8.248    3.027
    70    O    -6.250    -7.750    0.596
    71    C    -5.541    -8.064    -0.657
    72    H    -5.911    -9.034    -1.067
    73    H    -4.459    -8.203    -0.457
    74    C    -5.704    -6.972    -1.818
    75    H    -6.389    -7.414    -2.572
    76    O    -6.433    -5.867    -1.235
    77    C    -5.680    -4.694    -1.287
    78    H    -6.289    -4.088    -1.997
    79    N    -5.538    -3.969    -0.006
    80    C    -5.428    -4.614    1.201
    81    H    -5.569    -5.694    1.184
    82    C    -5.229    -3.925    2.337
    83    H    -5.177    -4.403    3.315
    84    C    -5.295    -2.605    -0.079
    85    O    -5.250    -2.056    -1.189
    86    N    -5.089    -1.900    1.046
    87    C    -5.048    -2.516    2.235
    88    N    -4.869    -1.780    3.331
    89    H    -4.775    -0.782    3.287
    90    H    -4.920    -2.183    4.249
    91    C    -4.330    -4.964    -1.861
    92    H    -3.536    -5.087    -1.095
    93    O    -4.048    -3.850    -2.651
    94    H    -4.392    -3.050    -2.217
    95    C    -4.518    -6.252    -2.655
    96    H    -3.600    -6.873    -2.551
    97    O    -4.807    -6.034    -4.087
    98    P    -3.827    -5.367    -5.208
    99    O    -4.332    -5.916    -6.488
    100    O    -2.400    -5.623    -4.889
    101    O    -3.996    -3.776    -5.358
    102    C    -3.639    -2.989    -6.549
    103    H    -4.581    -2.854    -7.131
    104    H    -2.953    -3.541    -7.229
    105    C    -3.057    -1.505    -6.389
    106    H    -3.605    -0.855    -7.103
    107    O    -3.350    -0.967    -5.066
    108    C    -2.190    -0.404    -4.484
    109    H    -2.500    0.563    -4.020
    110    N    -1.633    -1.276    -3.462
    111    C    -0.667    -2.073    -1.665
    112    N    -1.144    -3.166    -2.354
    113    C    -1.705    -2.639    -3.412
    114    H    -2.245    -3.192    -4.171
    115    N    0.432    -0.728    -0.066
    116    C    0.230    0.286    -0.920
    117    H    0.660    1.247    -0.645
    118    N    -0.458    0.308    -2.061
    119    C    -0.907    -0.909    -2.367
    120    C    -0.024    -1.956    -0.419
    121    N    0.114    -3.003    0.413
    122    H    -0.137    -3.926    0.106
    123    H    0.677    -2.921    1.230
    124    C    -1.197    -0.138    -5.553
    125    H    -0.165    -0.259    -5.186
    126    O    -1.334    1.185    -6.040
    127    H    -1.835    1.139    -6.866
    128    C    -1.524    -1.197    -6.609
    129    H    -0.973    -2.147    -6.407
    130    O    -1.254    -0.708    -7.941
    131    P    0.226    -0.375    -8.436
    132    O    0.152    0.640    -9.513
    133    O    0.798    -1.681    -8.817
    134    O    1.129    0.181    -7.250
    135    C    1.922    1.386    -7.390
    136    H    1.292    2.238    -7.736
    137    H    2.737    1.228    -8.139
    138    C    2.607    1.832    -6.085
    139    H    2.844    2.917    -6.115
    140    O    1.792    1.568    -4.899
    141    C    2.656    1.130    -3.852
    142    H    2.381    1.755    -2.975
    143    N    2.511    -0.315    -3.501
    144    C    1.937    -1.230    -4.336
    145    H    1.594    -0.829    -5.285
    146    C    1.797    -2.514    -3.976
    147    H    1.288    -3.245    -4.601
    148    C    3.073    -0.750    -2.321
    149    O    3.644    0.087    -1.633
    150    N    2.990    -2.039    -1.933
    151    C    2.336    -2.911    -2.714
    152    N    2.181    -4.163    -2.296
    153    H    2.608    -4.445    -1.436
    154    H    1.685    -4.851    -2.830
    155    C    4.061    1.451    -4.301
    156    H    4.814    0.806    -3.816
    157    O    4.369    2.825    -4.081
    158    H    4.339    3.020    -3.130
    159    C    3.898    1.086    -5.763
    160    H    3.614    0.013    -5.845
    161    O    4.978    1.442    -6.645
    162    P    5.861    0.265    -7.230
    163    O    6.568    0.754    -8.433
    164    O    5.055    -0.964    -7.402
    165    O    6.919    -0.012    -6.099
    166    C    7.645    1.113    -5.548
    167    H    7.047    2.054    -5.519
    168    H    8.560    1.303    -6.165
    169    C    8.091    0.854    -4.110
    170    H    8.507    1.780    -3.658
    171    O    7.020    0.401    -3.251
    172    C    7.549    -0.480    -2.283
    173    H    7.392    0.022    -1.300
    174    N    6.860    -1.801    -2.300
    175    C    6.183    -2.238    -3.423
    176    H    6.158    -1.534    -4.260
    177    C    6.931    -2.586    -1.168
    178    O    7.539    -2.247    -0.158
    179    N    6.263    -3.780    -1.253
    180    H    6.322    -4.377    -0.440
    181    C    5.573    -4.285    -2.332
    182    O    5.033    -5.388    -2.255
    183    C    5.553    -3.422    -3.477
    184    H    4.993    -3.740    -4.353
    185    C    9.043    -0.589    -2.562
    186    H    9.433    -1.601    -2.357
    187    O    9.764    0.362    -1.822
    188    H    10.694    0.246    -2.053
    189    C    9.131    -0.230    -4.031
    190    H    8.793    -1.072    -4.677
    191    O    10.372    0.350    -4.462
    192    P    11.594    -0.555    -4.747
    193    O    12.310    0.072    -5.887
    194    O    11.140    -1.953    -4.920
    195    O    12.400    -0.416    -3.403
    196    C    13.829    -0.651    -3.423
    197    H    14.299    -0.385    -4.401
    198    H    14.048    -1.727    -3.228
    199    C    14.542    0.180    -2.358
    200    H    15.637    -0.014    -2.406
    201    O    14.344    1.591    -2.636
    202    C    13.967    2.261    -1.464
    203    H    14.921    2.613    -1.008
    204    N    13.042    3.379    -1.783
    205    C    11.937    3.154    -2.574
    206    H    11.842    2.135    -2.961
    207    C    13.289    4.622    -1.246
    208    O    14.242    4.849    -0.506
    209    N    12.391    5.594    -1.602
    210    H    12.553    6.503    -1.198
    211    C    11.273    5.453    -2.396
    212    O    10.545    6.423    -2.614
    213    C    11.071    4.126    -2.904
    214    H    10.217    3.938    -3.549
    215    C    13.330    1.239    -0.547
    216    H    12.244    1.130    -0.765
    217    O    13.537    1.621    0.796
    218    H    13.106    0.986    1.394
    219    C    14.056    -0.067    -0.915
    220    H    13.281    -0.870    -0.952
    221    O    15.159    -0.414    -0.043
    222    P    15.477    -1.920    0.269
    223    O    16.663    -1.962    1.148
    224    O    15.563    -2.668    -1.003
    225    O    14.226    -2.460    1.042
    226    C    14.161    -2.504    2.484
    227    H    13.998    -1.472    2.872
    228    H    15.105    -2.891    2.933
    229    C    12.995    -3.364    3.015
    230    H    12.719    -3.023    4.039
    231    O    11.824    -3.231    2.172
    232    C    11.420    -4.494    1.698
    233    H    10.648    -4.838    2.424
    234    N    10.869    -4.411    0.321
    235    C    11.503    -3.606    -0.594
    236    H    12.352    -3.034    -0.214
    237    C    11.058    -3.502    -1.852
    238    H    11.531    -2.849    -2.584
    239    C    9.752    -5.153    -0.057
    240    O    9.194    -5.873    0.786
    241    N    9.288    -5.060    -1.329
    242    C    9.903    -4.257    -2.216
    243    N    9.418    -4.156    -3.456
    244    H    9.891    -3.606    -4.149
    245    H    8.662    -4.749    -3.732
    246    C    12.622    -5.400    1.799
    247    H    13.304    -5.243    0.933
    248    O    12.254    -6.763    1.917
    249    H    11.816    -6.857    2.778
    250    C    13.287    -4.876    3.077
    251    H    14.385    -5.022    2.960
    252    O    12.770    -5.485    4.290
    253    P    13.701    -5.605    5.564
    254    O    15.133    -5.618    5.167
    255    O    13.256    -6.747    6.393
    256    O    13.446    -4.296    6.402
    257    C    12.200    -4.007    7.092
    258    H    12.127    -4.612    8.024
    259    H    11.331    -4.259    6.446
    260    C    12.043    -2.509    7.473
    261    H    12.543    -2.303    8.442
    262    O    12.741    -1.693    6.492
    263    C    12.109    -0.447    6.370
    264    H    12.865    0.284    6.745
    265    N    11.807    -0.129    4.980
    266    C    10.927    -0.713    4.093
    267    N    8.540    -3.097    3.299
    268    H    8.091    -3.457    2.490
    269    H    8.533    -3.634    4.140
    270    N    10.086    -1.738    4.332
    271    C    9.376    -2.074    3.259
    272    N    9.458    -1.417    2.060
    273    H    8.926    -1.757    1.279
    274    C    10.336    -0.375    1.800
    275    O    10.417    0.189    0.717
    276    C    11.093    -0.008    2.926
    277    N    12.031    1.000    3.071
    278    C    12.427    0.892    4.307
    279    H    13.173    1.532    4.783
    280    C    10.899    -0.418    7.274
    281    H    10.023    0.073    6.798
    282    O    11.247    0.255    8.472
    283    H    10.534    0.101    9.109
    284    C    10.614    -1.903    7.511
    285    H    10.077    -2.337    6.644
    286    O    9.931    -2.188    8.756
    287    P    8.341    -2.243    8.822
    288    O    7.903    -2.052    10.221
    289    O    7.887    -3.491    8.178
    290    O    7.804    -1.046    7.968
    291    C    7.368    0.243    8.473
    292    H    8.100    0.634    9.215
    293    H    6.389    0.138    8.991
    294    C    7.201    1.343    7.375
    295    H    7.819    2.232    7.639
    296    O    7.720    0.850    6.099
    297    C    6.777    1.063    5.085
    298    H    7.347    1.415    4.192
    299    N    6.036    -0.170    4.750
    300    C    5.438    -0.374    3.553
    301    N    4.986    0.729    0.395
    302    H    4.943    1.715    0.520
    303    H    4.641    0.352    -0.470
    304    N    5.446    0.493    2.554
    305    C    4.933    -0.004    1.461
    306    N    4.323    -1.240    1.376
    307    H    3.891    -1.512    0.511
    308    C    4.218    -2.137    2.445
    309    O    3.649    -3.228    2.339
    310    C    4.858    -1.624    3.611
    311    N    5.071    -2.199    4.854
    312    C    5.788    -1.300    5.497
    313    H    6.169    -1.409    6.508
    314    C    5.867    2.163    5.559
    315    H    4.875    2.138    5.060
    316    O    6.474    3.426    5.343
    317    H    5.870    4.078    5.727
    318    C    5.758    1.858    7.048
    319    H    5.057    1.011    7.228
    320    O    5.424    3.007    7.864
    321    P    4.001    3.699    7.880
    322    O    4.116    4.930    8.687
    323    O    3.008    2.699    8.323
    324    O    3.644    4.116    6.404
    325    C    3.716    5.465    5.876
    326    H    4.790    5.764    5.823
    327    H    3.199    6.190    6.546
    328    C    3.155    5.608    4.421
    329    H    3.659    6.461    3.920
    330    O    3.513    4.412    3.665
    331    C    2.459    4.029    2.805
    332    H    2.932    3.974    1.795
    333    N    1.896    2.689    3.134
    334    C    2.112    2.087    4.349
    335    H    2.671    2.678    5.066
    336    C    1.212    2.035    2.139
    337    O    1.024    2.540    1.039
    338    N    0.769    0.777    2.464
    339    H    0.382    0.248    1.694
    340    C    0.980    0.098    3.647
    341    O    0.542    -1.041    3.796
    342    C    1.696    0.845    4.634
    343    H    1.888    0.387    5.602
    344    C    1.427    5.133    2.808
    345    H    0.388    4.747    2.722
    346    O    1.708    6.002    1.721
    347    H    0.970    5.903    1.095
    348    C    1.623    5.809    4.170
    349    H    1.085    5.249    4.971
    350    O    1.270    7.213    4.189
    351    P    -0.155    7.829    3.867
    352    O    -0.005    9.297    3.750
    353    O    -1.089    7.360    4.912
    354    O    -0.706    7.273    2.506
    355    C    -0.888    8.017    1.274
    356    H    0.048    8.579    1.043
    357    H    -1.708    8.759    1.387
    358    C    -1.196    7.119    0.024
    359    H    -0.579    7.467    -0.834
    360    O    -0.758    5.759    0.315
    361    C    -1.760    4.832    -0.015
    362    H    -1.234    4.035    -0.595
    363    N    -2.360    4.176    1.141
    364    C    -3.026    2.999    1.045
    365    N    -4.185    0.422    -0.902
    366    H    -4.645    -0.464    -0.802
    367    H    -3.960    0.764    -1.807
    368    N    -3.247    2.324    -0.088
    369    C    -3.882    1.195    0.114
    370    N    -4.272    0.767    1.354
    371    H    -4.739    -0.125    1.398
    372    C    -4.050    1.435    2.551
    373    O    -4.418    0.965    3.630
    374    C    -3.385    2.666    2.333
    375    N    -2.977    3.644    3.229
    376    C    -2.376    4.530    2.470
    377    H    -1.919    5.447    2.829
    378    C    -2.760    5.502    -0.894
    379    H    -3.787    5.108    -0.772
    380    O    -2.314    5.311    -2.215
    381    H    -1.818    6.099    -2.466
    382    C    -2.673    6.972    -0.496
    383    H    -3.343    7.194    0.366
    384    O    -2.922    7.880    -1.585
    385    P    -4.062    7.929    -2.698
    386    O    -3.427    8.498    -3.908
    387    O    -5.213    8.678    -2.152
    388    O    -4.644    6.499    -3.044
    389    C    -4.630    5.886    -4.369
    390    H    -3.607    5.972    -4.804
    391    H    -5.325    6.419    -5.053
    392    C    -4.986    4.353    -4.416
    393    H    -4.220    3.847    -5.041
    394    O    -4.826    3.787    -3.103
    395    C    -5.883    2.943    -2.760
    396    H    -5.392    1.944    -2.750
    397    N    -6.424    3.207    -1.418
    398    C    -6.221    4.428    -0.837
    399    H    -5.634    5.139    -1.421
    400    C    -6.675    4.691    0.391
    401    H    -6.470    5.633    0.895
    402    C    -7.248    2.272    -0.803
    403    O    -7.556    1.243    -1.419
    404    N    -7.695    2.497    0.448
    405    C    -7.418    3.668    1.049
    406    N    -7.841    3.867    2.288
    407    H    -8.391    3.158    2.721
    408    H    -7.639    4.708    2.789
    409    C    -6.956    3.003    -3.795
    410    H    -7.880    3.489    -3.424
    411    O    -7.229    1.665    -4.127
    412    H    -7.759    1.241    -3.446
    413    C    -6.368    3.857    -4.932
    414    H    -6.996    4.774    -5.023
    415    O    -6.219    3.208    -6.207
    416    P    -7.284    2.403    -7.052
    417    O    -6.724    2.355    -8.427
    418    O    -8.595    3.031    -6.879
    419    O    -7.442    0.879    -6.610
    420    C    -8.198    -0.070    -7.405
    421    H    -7.488    -0.851    -7.757
    422    H    -8.621    0.390    -8.331
    423    C    -9.376    -0.817    -6.699
    424    H    -9.410    -1.866    -7.066
    425    O    -9.241    -0.896    -5.254
    426    C    -10.531    -0.911    -4.648
    427    H    -10.632    -1.928    -4.204
    428    N    -10.650    0.107    -3.577
    429    C    -10.104    1.343    -3.805
    430    H    -9.548    1.458    -4.743
    431    C    -10.188    2.315    -2.889
    432    H    -9.754    3.300    -3.046
    433    C    -11.416    -0.112    -2.429
    434    O    -12.029    -1.184    -2.302
    435    N    -11.489    0.850    -1.477
    436    C    -10.893    2.040    -1.684
    437    N    -10.984    2.989    -0.757
    438    H    -11.448    2.786    0.102
    439    H    -10.552    3.883    -0.878
    440    C    -11.593    -0.742    -5.733
    441    H    -12.348    0.024    -5.449
    442    O    -12.248    -1.977    -5.986
    443    H    -12.840    -1.874    -6.750
    444    C    -10.774    -0.231    -6.928
    445    H    -10.672    0.877    -6.878
    446    O    -11.287    -0.637    -8.212
    447    H    -12.179    -0.274    -8.342
 $END
