!*** FMO 5.3 (Gamess) INPUT generated by Facio 22.1.1.32 ***
 $CONTRL RUNTYP=ENERGY NPRINT=-5 ISPHER=1 MAXIT=200 $END
 $SYSTEM MWORDS=63 MEMDDI=63 $END
 $GDDI NGROUP=1 $END
 $SCF DIRSCF=.TRUE. NPUNCH=0 $END
!*** NumCPU : 2  MemPerNode : 512MB
 $PCM SOLVNT=WATER IEF=-10 ICOMP=2 ICAV=1 IDISP=1 IFMO=-1 $END
 $PCMCAV RADII=SUAHF $END
 $TESCAV NTSALL=60 $END
 $FMOPRP
    NAODIR=200
    NGRFMO(1)=1, 1, 0, 0, 0,   0, 0, 0, 0, 0
    IPIEDA=1
    NPRINT=9
 $END
 $FMO
      SCFTYP(1)=RHF
      MODGRD=10
      MODMUL=0
      MAXCAO=5
      MAXBND=16
      NLAYER=1
      MPLEVL(1)=2
      NFRAG=14
      ICHARG(1)=-1, -1, -1, -1, -1, -1, -1, -1, -1, -1, -1, -1, -1, 0
      FRGNAM(1)=F1, F2, F3, F4, F5, F6, F7, F8, F9, F10, F11, F12, F13, F14
      indat(1)=0
               1   -36   0
               37   -70   0
               71   -101   0
               102   -134   0
               135   -165   0
               166   -195   0
               196   -225   0
               226   -256   0
               257   -290   0
               291   -324   0
               325   -354   0
               355   -388   0
               389   -419   0
               420   -447   0
 $END

 $FMOBND
   -37   36       6-31G*    MINI
   -71   70       6-31G*    MINI
   -102   101       6-31G*    MINI
   -135   134       6-31G*    MINI
   -166   165       6-31G*    MINI
   -196   195       6-31G*    MINI
   -226   225       6-31G*    MINI
   -257   256       6-31G*    MINI
   -291   290       6-31G*    MINI
   -325   324       6-31G*    MINI
   -355   354       6-31G*    MINI
   -389   388       6-31G*    MINI
   -420   419       6-31G*    MINI
 $END
 $FMOHYB
 6-31G*      15   5
   1 0  -0.065034   0.288264   0.000000   0.000000   0.604412
         0.290129   0.000000   0.000000   0.319045  -0.017106
        -0.017106   0.057934   0.000000   0.000000   0.000000
   0 1  -0.065040   0.288293   0.569832   0.000000  -0.201456
         0.290147   0.300783   0.000000  -0.106342   0.049598
        -0.017106  -0.008771   0.000000  -0.027223   0.000000
   0 1  -0.065039   0.288293  -0.284916  -0.493490  -0.201455
         0.290145  -0.150392  -0.260486  -0.106340  -0.000427
         0.032923  -0.008771   0.033353   0.013612   0.023576
   0 1  -0.065039   0.288293  -0.284916   0.493490  -0.201455
         0.290145  -0.150392   0.260486  -0.106340  -0.000427
         0.032923  -0.008771  -0.033353   0.013612  -0.023576
   0 1   1.010938  -0.011975   0.000000   0.000000   0.000000
        -0.054085   0.000000   0.000000  -0.000000  -0.003174
        -0.003174  -0.003174   0.000000   0.000000   0.000000
 MINI         5   5
   1 0  -0.104883   0.308874   0.000000   0.000000   0.521806
   0 1  -0.104883   0.308874   0.491961   0.000000  -0.173934
   0 1  -0.104883   0.308876  -0.245980  -0.426050  -0.173933
   0 1  -0.104883   0.308876  -0.245980   0.426050  -0.173933
   0 1   0.988209   0.063992   0.000000   0.000000   0.000000
 $END
 
 $DATA
 FMO calculation
 C1 
 H.1-1    1
      N31 6
   
 O.1-1    8
      N31 6
      d 1
      1 0.800 1.0
   
 C.1-1    6
      N31 6
      d 1
      1 0.800 1.0
   
 N.1-1    7
      N31 6
      d 1
      1 0.800 1.0
   
 P.1-1   15
      N31 6
      d 1
      1 0.550 1.0
   
 $END
 $FMOXYZ
    1    H    -10.955    -5.097    10.023
    2    O    -11.151    -5.030    9.070
    3    C    -11.664    -6.306    8.659
    4    H    -12.526    -6.563    9.314
    5    H    -10.878    -7.081    8.800
    6    C    -12.141    -6.339    7.201
    7    H    -12.765    -7.240    7.012
    8    O    -12.951    -5.162    6.893
    9    C    -12.654    -4.731    5.575
    10    H    -13.622    -4.686    5.023
    11    N    -12.027    -3.401    5.560
    12    C    -11.903    -2.590    4.465
    13    N    -12.442    -2.019    1.099
    14    H    -12.916    -2.847    0.807
    15    H    -12.320    -1.273    0.439
    16    N    -12.326    -2.881    3.224
    17    C    -12.086    -1.899    2.363
    18    N    -11.473    -0.723    2.714
    19    H    -11.366    -0.015    2.005
    20    C    -11.033    -0.388    3.991
    21    O    -10.503    0.705    4.219
    22    C    -11.283    -1.441    4.916
    23    N    -11.004    -1.533    6.275
    24    C    -11.450    -2.724    6.612
    25    H    -11.418    -3.153    7.617
    26    C    -11.764    -5.778    4.948
    27    H    -11.066    -5.341    4.206
    28    O    -12.549    -6.785    4.338
    29    H    -11.929    -7.418    3.953
    30    C    -11.016    -6.316    6.156
    31    H    -10.259    -5.582    6.519
    32    O    -10.482    -7.642    5.980
    33    P    -9.001    -7.883    5.515
    34    O    -8.711    -9.328    5.638
    35    O    -8.109    -6.962    6.251
    36    O    -8.980    -7.480    3.992
    37    C    -9.681    -8.272    3.000
    38    H    -10.664    -8.638    3.379
    39    H    -9.075    -9.167    2.737
    40    C    -9.950    -7.483    1.701
    41    H    -10.679    -8.024    1.060
    42    O    -10.537    -6.191    2.009
    43    C    -9.969    -5.193    1.174
    44    H    -10.825    -4.673    0.686
    45    N    -9.199    -4.197    1.951
    46    C    -8.795    -2.964    1.509
    47    N    -8.642    -0.616    -1.014
    48    H    -9.094    -1.092    -1.766
    49    H    -8.291    0.313    -1.169
    50    N    -9.008    -2.465    0.284
    51    C    -8.538    -1.232    0.146
    52    N    -7.925    -0.539    1.157
    53    H    -7.607    0.395    0.959
    54    C    -7.692    -1.026    2.441
    55    O    -7.131    -0.330    3.295
    56    C    -8.163    -2.364    2.582
    57    N    -8.141    -3.218    3.678
    58    C    -8.770    -4.292    3.258
    59    H    -8.962    -5.186    3.853
    60    C    -9.142    -5.900    0.116
    61    H    -8.260    -5.308    -0.209
    62    O    -9.953    -6.200    -1.004
    63    H    -9.444    -6.802    -1.566
    64    C    -8.719    -7.170    0.845
    65    H    -7.897    -6.946    1.560
    66    O    -8.436    -8.294    -0.017
    67    P    -6.968    -8.629    -0.455
    68    O    -6.973    -9.907    -1.200
    69    O    -6.087    -8.563    0.732
    70    O    -6.589    -7.455    -1.435
    71    C    -6.681    -7.637    -2.871
    72    H    -7.710    -7.957    -3.159
    73    H    -5.966    -8.418    -3.214
    74    C    -6.350    -6.358    -3.666
    75    H    -6.794    -6.403    -4.682
    76    O    -6.905    -5.192    -3.010
    77    C    -6.024    -4.099    -3.164
    78    H    -6.615    -3.352    -3.745
    79    N    -5.633    -3.489    -1.872
    80    C    -5.645    -4.231    -0.713
    81    H    -5.958    -5.273    -0.815
    82    C    -5.317    -3.683    0.466
    83    H    -5.349    -4.238    1.400
    84    C    -5.219    -2.163    -1.843
    85    O    -5.158    -1.524    -2.903
    86    N    -4.898    -1.592    -0.661
    87    C    -4.945    -2.309    0.474
    88    N    -4.656    -1.707    1.626
    89    H    -4.365    -0.745    1.623
    90    H    -4.679    -2.191    2.504
    91    C    -4.837    -4.538    -4.008
    92    H    -3.876    -4.117    -3.641
    93    O    -5.036    -4.159    -5.357
    94    H    -4.250    -4.458    -5.851
    95    C    -4.850    -6.063    -3.839
    96    H    -4.364    -6.351    -2.881
    97    O    -4.330    -6.833    -4.948
    98    P    -2.816    -6.772    -5.365
    99    O    -2.548    -7.876    -6.313
    100    O    -1.984    -6.719    -4.144
    101    O    -2.687    -5.401    -6.112
    102    C    -2.172    -5.246    -7.452
    103    H    -3.016    -5.337    -8.172
    104    H    -1.418    -6.033    -7.712
    105    C    -1.518    -3.867    -7.694
    106    H    -1.672    -3.527    -8.738
    107    O    -2.085    -2.850    -6.807
    108    C    -1.052    -2.038    -6.294
    109    H    -1.330    -0.982    -6.517
    110    N    -0.899    -2.208    -4.841
    111    C    -0.488    -1.865    -2.710
    112    N    -0.893    -3.186    -2.815
    113    C    -1.121    -3.342    -4.094
    114    H    -1.444    -4.275    -4.551
    115    N    0.223    0.208    -1.834
    116    C    0.210    0.659    -3.091
    117    H    0.512    1.703    -3.210
    118    N    -0.124    0.016    -4.216
    119    C    -0.479    -1.251    -3.950
    120    C    -0.111    -1.086    -1.602
    121    N    -0.068    -1.580    -0.352
    122    H    -0.260    -2.546    -0.155
    123    H    0.239    -1.006    0.413
    124    C    0.213    -2.393    -7.033
    125    H    1.091    -2.316    -6.369
    126    O    0.381    -1.571    -8.170
    127    H    1.237    -1.814    -8.548
    128    C    -0.005    -3.848    -7.419
    129    H    0.164    -4.514    -6.542
    130    O    0.725    -4.284    -8.589
    131    P    2.213    -4.799    -8.520
    132    O    2.730    -4.954    -9.897
    133    O    2.236    -6.019    -7.680
    134    O    3.027    -3.665    -7.800
    135    C    3.823    -2.699    -8.534
    136    H    3.323    -2.403    -9.490
    137    H    4.814    -3.144    -8.796
    138    C    4.083    -1.397    -7.736
    139    H    4.155    -0.528    -8.422
    140    O    2.992    -1.129    -6.815
    141    C    3.488    -0.651    -5.581
    142    H    2.929    0.299    -5.400
    143    N    3.253    -1.574    -4.429
    144    C    2.893    -2.895    -4.594
    145    H    2.790    -3.239    -5.621
    146    C    2.663    -3.694    -3.541
    147    H    2.354    -4.733    -3.649
    148    C    3.410    -1.064    -3.145
    149    O    3.726    0.126    -3.008
    150    N    3.223    -1.864    -2.075
    151    C    2.843    -3.138    -2.239
    152    N    2.639    -3.874    -1.153
    153    H    2.761    -3.440    -0.260
    154    H    2.354    -4.837    -1.199
    155    C    4.952    -0.342    -5.790
    156    H    5.560    -0.463    -4.867
    157    O    5.089    0.977    -6.285
    158    H    6.002    1.079    -6.593
    159    C    5.328    -1.379    -6.839
    160    H    5.392    -2.390    -6.367
    161    O    6.488    -1.018    -7.612
    162    P    7.773    -1.923    -7.614
    163    O    8.670    -1.481    -8.701
    164    O    7.385    -3.352    -7.617
    165    O    8.463    -1.584    -6.242
    166    C    9.054    -0.278    -6.027
    167    H    8.402    0.537    -6.421
    168    H    10.041    -0.214    -6.540
    169    C    9.275    -0.005    -4.533
    170    H    9.646    1.030    -4.374
    171    O    8.016    -0.133    -3.814
    172    C    8.262    -0.673    -2.529
    173    H    7.887    0.092    -1.810
    174    N    7.540    -1.960    -2.312
    175    C    7.088    -2.711    -3.374
    176    H    7.283    -2.290    -4.361
    177    C    7.328    -2.379    -1.015
    178    O    7.715    -1.745    -0.040
    179    N    6.636    -3.556    -0.887
    180    H    6.515    -3.911    0.051
    181    C    6.175    -4.365    -1.901
    182    O    5.597    -5.417    -1.640
    183    C    6.422    -3.865    -3.219
    184    H    6.066    -4.443    -4.070
    185    C    9.772    -0.803    -2.373
    186    H    10.066    -1.674    -1.752
    187    O    10.299    0.385    -1.822
    188    H    11.237    0.227    -1.666
    189    C    10.233    -0.967    -3.815
    190    H    10.005    -1.991    -4.187
    191    O    11.601    -0.572    -4.064
    192    P    12.782    -1.577    -3.818
    193    O    13.869    -1.231    -4.763
    194    O    12.281    -2.972    -3.871
    195    O    13.263    -1.242    -2.349
    196    C    14.549    -1.785    -1.932
    197    H    15.277    -1.875    -2.778
    198    H    14.407    -2.803    -1.504
    199    C    15.248    -0.914    -0.880
    200    H    16.250    -1.344    -0.661
    201    O    15.468    0.419    -1.410
    202    C    14.950    1.380    -0.527
    203    H    15.810    1.685    0.113
    204    N    14.370    2.518    -1.282
    205    C    13.493    2.276    -2.315
    206    H    13.315    1.220    -2.530
    207    C    14.741    3.800    -0.951
    208    O    15.548    4.049    -0.061
    209    N    14.147    4.785    -1.699
    210    H    14.424    5.729    -1.472
    211    C    13.276    4.624    -2.756
    212    O    12.855    5.608    -3.363
    213    C    12.950    3.259    -3.050
    214    H    12.278    3.051    -3.880
    215    C    13.925    0.684    0.350
    216    H    12.934    0.655    -0.153
    217    O    13.841    1.327    1.608
    218    H    13.138    0.928    2.155
    219    C    14.485    -0.739    0.452
    220    H    13.617    -1.440    0.434
    221    O    15.347    -0.953    1.599
    222    P    15.333    -2.336    2.342
    223    O    16.205    -2.267    3.536
    224    O    15.651    -3.393    1.355
    225    O    13.848    -2.561    2.798
    226    C    13.369    -2.267    4.129
    227    H    13.253    -1.165    4.245
    228    H    14.084    -2.610    4.910
    229    C    11.993    -2.910    4.421
    230    H    11.496    -2.361    5.249
    231    O    11.128    -2.839    3.256
    232    C    10.719    -4.136    2.888
    233    H    9.746    -4.286    3.406
    234    N    10.580    -4.276    1.423
    235    C    11.547    -3.719    0.625
    236    H    12.328    -3.159    1.145
    237    C    11.491    -3.828    -0.707
    238    H    12.239    -3.385    -1.359
    239    C    9.535    -5.004    0.858
    240    O    8.686    -5.523    1.602
    241    N    9.460    -5.117    -0.491
    242    C    10.405    -4.558    -1.271
    243    N    10.331    -4.685    -2.597
    244    H    11.014    -4.238    -3.188
    245    H    9.627    -5.269    -3.001
    246    C    11.739    -5.082    3.468
    247    H    12.662    -5.093    2.848
    248    O    11.227    -6.388    3.645
    249    H    10.577    -6.325    4.363
    250    C    12.024    -4.405    4.803
    251    H    13.064    -4.674    5.111
    252    O    11.033    -4.730    5.807
    253    P    11.434    -4.975    7.308
    254    O    12.860    -5.374    7.404
    255    O    10.451    -5.909    7.903
    256    O    11.265    -3.575    8.015
    257    C    9.984    -2.900    8.017
    258    H    9.360    -3.277    8.859
    259    H    9.422    -3.084    7.069
    260    C    10.119    -1.377    8.158
    261    H    10.411    -1.096    9.192
    262    O    11.153    -0.885    7.266
    263    C    10.848    0.432    6.876
    264    H    11.619    1.066    7.368
    265    N    10.943    0.598    5.427
    266    C    10.186    0.050    4.409
    267    N    7.627    -2.001    3.279
    268    H    7.291    -2.350    2.412
    269    H    7.280    -2.380    4.134
    270    N    9.135    -0.787    4.533
    271    C    8.655    -1.174    3.355
    272    N    9.165    -0.752    2.157
    273    H    8.771    -1.126    1.310
    274    C    10.265    0.076    2.009
    275    O    10.708    0.401    0.907
    276    C    10.760    0.530    3.250
    277    N    11.817    1.386    3.526
    278    C    11.895    1.388    4.829
    279    H    12.633    1.943    5.414
    280    C    9.479    0.794    7.419
    281    H    8.847    1.306    6.663
    282    O    9.616    1.608    8.566
    283    H    8.757    1.611    9.013
    284    C    8.879    -0.569    7.764
    285    H    8.486    -1.052    6.846
    286    O    7.906    -0.560    8.832
    287    P    6.374    -0.395    8.480
    288    O    5.686    0.178    9.657
    289    O    5.858    -1.689    7.975
    290    O    6.328    0.645    7.321
    291    C    6.147    2.057    7.550
    292    H    6.881    2.428    8.304
    293    H    5.123    2.231    7.960
    294    C    6.335    2.918    6.271
    295    H    6.967    3.807    6.494
    296    O    7.008    2.166    5.204
    297    C    6.310    2.348    3.988
    298    H    7.074    2.545    3.204
    299    N    5.515    1.160    3.624
    300    C    5.142    0.791    2.362
    301    N    5.163    1.334    -1.050
    302    H    5.687    2.177    -1.149
    303    H    4.743    0.909    -1.856
    304    N    5.438    1.449    1.230
    305    C    4.955    0.840    0.153
    306    N    4.213    -0.314    0.204
    307    H    3.881    -0.717    -0.657
    308    C    3.883    -1.011    1.359
    309    O    3.225    -2.056    1.328
    310    C    4.408    -0.373    2.511
    311    N    4.299    -0.716    3.847
    312    C    4.974    0.217    4.470
    313    H    5.106    0.268    5.546
    314    C    5.441    3.562    4.170
    315    H    4.564    3.568    3.488
    316    O    6.206    4.736    3.969
    317    H    5.650    5.474    4.248
    318    C    5.024    3.412    5.627
    319    H    4.281    2.590    5.744
    320    O    4.601    4.635    6.261
    321    P    3.098    5.092    6.222
    322    O    2.981    6.339    7.007
    323    O    2.247    3.948    6.612
    324    O    2.828    5.414    4.709
    325    C    3.371    6.582    4.053
    326    H    4.478    6.601    4.130
    327    H    2.992    7.513    4.533
    328    C    2.987    6.638    2.561
    329    H    3.467    7.507    2.061
    330    O    3.447    5.443    1.867
    331    C    2.471    5.050    0.909
    332    H    3.001    5.045    -0.076
    333    N    1.925    3.696    1.199
    334    C    1.930    3.174    2.473
    335    H    2.391    3.800    3.231
    336    C    1.417    2.977    0.144
    337    O    1.401    3.408    -1.001
    338    N    0.944    1.732    0.470
    339    H    0.620    1.185    -0.322
    340    C    0.953    1.127    1.710
    341    O    0.533    -0.019    1.851
    342    C    1.490    1.941    2.753
    343    H    1.548    1.524    3.756
    344    C    1.382    6.107    0.884
    345    H    0.376    5.662    0.720
    346    O    1.622    7.077    -0.117
    347    H    0.832    7.641    -0.118
    348    C    1.476    6.707    2.285
    349    H    0.983    6.036    3.025
    350    O    1.024    8.070    2.417
    351    P    -0.500    8.441    2.433
    352    O    -0.624    9.915    2.490
    353    O    -1.166    7.666    3.499
    354    O    -1.048    7.935    1.055
    355    C    -1.328    8.812    -0.055
    356    H    -0.399    9.338    -0.384
    357    H    -2.074    9.587    0.237
    358    C    -1.901    8.047    -1.267
    359    H    -1.684    8.598    -2.211
    360    O    -1.301    6.718    -1.360
    361    C    -2.294    5.775    -1.716
    362    H    -1.915    5.253    -2.623
    363    N    -2.525    4.784    -0.657
    364    C    -2.987    3.514    -0.854
    365    N    -4.108    1.028    -2.988
    366    H    -4.069    1.475    -3.882
    367    H    -4.498    0.106    -2.918
    368    N    -3.307    2.968    -2.042
    369    C    -3.747    1.723    -1.925
    370    N    -3.847    1.074    -0.723
    371    H    -4.206    0.133    -0.723
    372    C    -3.521    1.605    0.517
    373    O    -3.653    0.932    1.542
    374    C    -3.056    2.943    0.402
    375    N    -2.643    3.845    1.380
    376    C    -2.342    4.927    0.701
    377    H    -1.976    5.858    1.135
    378    C    -3.549    6.534    -2.067
    379    H    -4.471    5.970    -1.815
    380    O    -3.541    6.851    -3.445
    381    H    -4.353    7.350    -3.607
    382    C    -3.420    7.788    -1.210
    383    H    -3.661    7.568    -0.144
    384    O    -4.139    8.936    -1.716
    385    P    -5.644    9.190    -1.331
    386    O    -6.100    10.413    -2.028
    387    O    -5.757    9.182    0.144
    388    O    -6.433    7.951    -1.896
    389    C    -6.917    7.923    -3.259
    390    H    -6.122    8.237    -3.968
    391    H    -7.759    8.640    -3.380
    392    C    -7.408    6.525    -3.691
    393    H    -7.409    6.429    -4.800
    394    O    -6.535    5.496    -3.155
    395    C    -7.290    4.364    -2.774
    396    H    -6.912    3.556    -3.440
    397    N    -7.065    3.946    -1.360
    398    C    -6.593    4.833    -0.421
    399    H    -6.407    5.850    -0.776
    400    C    -6.371    4.450    0.846
    401    H    -5.981    5.131    1.599
    402    C    -7.348    2.635    -0.990
    403    O    -7.784    1.852    -1.846
    404    N    -7.139    2.230    0.285
    405    C    -6.653    3.094    1.192
    406    N    -6.431    2.656    2.430
    407    H    -6.605    1.701    2.663
    408    H    -6.089    3.258    3.154
    409    C    -8.753    4.627    -3.103
    410    H    -9.432    4.268    -2.302
    411    O    -9.099    4.010    -4.330
    412    H    -10.021    4.257    -4.519
    413    C    -8.809    6.159    -3.194
    414    H    -8.899    6.607    -2.177
    415    O    -9.788    6.705    -4.106
    416    P    -11.317    6.671    -3.764
    417    O    -12.015    7.672    -4.601
    418    O    -11.479    6.783    -2.301
    419    O    -11.754    5.235    -4.207
    420    C    -13.090    4.928    -4.676
    421    H    -13.081    4.911    -5.788
    422    H    -13.842    5.701    -4.377
    423    C    -13.617    3.554    -4.180
    424    H    -14.083    2.990    -5.017
    425    O    -12.538    2.732    -3.646
    426    C    -12.993    2.000    -2.528
    427    H    -12.906    0.939    -2.854
    428    N    -12.160    2.223    -1.318
    429    C    -11.674    3.477    -1.027
    430    H    -11.890    4.259    -1.762
    431    C    -10.934    3.693    0.073
    432    H    -10.529    4.673    0.318
    433    C    -11.927    1.167    -0.442
    434    O    -12.408    0.054    -0.699
    435    N    -11.195    1.367    0.677
    436    C    -10.704    2.589    0.950
    437    N    -10.019    2.757    2.081
    438    H    -9.989    2.009    2.744
    439    H    -9.700    3.659    2.375
    440    C    -14.465    2.314    -2.293
    441    H    -14.686    2.462    -1.212
    442    O    -15.279    1.269    -2.803
    443    H    -16.210    1.546    -2.780
    444    C    -14.642    3.635    -3.043
    445    H    -14.335    4.483    -2.393
    446    O    -15.968    3.848    -3.563
    447    H    -16.614    3.876    -2.835
 $END
