!*** FMO 5.3 (Gamess) INPUT generated by Facio 22.1.1.32 ***
 $CONTRL RUNTYP=ENERGY NPRINT=-5 ISPHER=1 MAXIT=200 $END
 $SYSTEM MWORDS=63 MEMDDI=63 $END
 $GDDI NGROUP=1 $END
 $SCF DIRSCF=.TRUE. NPUNCH=0 $END
!*** NumCPU : 2  MemPerNode : 512MB
 $PCM SOLVNT=WATER IEF=-10 ICOMP=2 ICAV=1 IDISP=1 IFMO=-1 $END
 $PCMCAV RADII=SUAHF $END
 $TESCAV NTSALL=60 $END
 $FMOPRP
    NAODIR=200
    NGRFMO(1)=1, 1, 0, 0, 0,   0, 0, 0, 0, 0
    IPIEDA=1
    NPRINT=9
 $END
 $FMO
      SCFTYP(1)=RHF
      MODGRD=10
      MODMUL=0
      MAXCAO=5
      MAXBND=16
      NLAYER=1
      MPLEVL(1)=2
      NFRAG=14
      ICHARG(1)=-1, -1, -1, -1, -1, -1, -1, -1, -1, -1, -1, -1, -1, 0
      FRGNAM(1)=F1, F2, F3, F4, F5, F6, F7, F8, F9, F10, F11, F12, F13, F14
      indat(1)=0
               1   -36   0
               37   -70   0
               71   -101   0
               102   -134   0
               135   -165   0
               166   -195   0
               196   -225   0
               226   -256   0
               257   -290   0
               291   -324   0
               325   -354   0
               355   -388   0
               389   -419   0
               420   -447   0
 $END

 $FMOBND
   -37   36       6-31G*    MINI
   -71   70       6-31G*    MINI
   -102   101       6-31G*    MINI
   -135   134       6-31G*    MINI
   -166   165       6-31G*    MINI
   -196   195       6-31G*    MINI
   -226   225       6-31G*    MINI
   -257   256       6-31G*    MINI
   -291   290       6-31G*    MINI
   -325   324       6-31G*    MINI
   -355   354       6-31G*    MINI
   -389   388       6-31G*    MINI
   -420   419       6-31G*    MINI
 $END
 $FMOHYB
 6-31G*      15   5
   1 0  -0.065034   0.288264   0.000000   0.000000   0.604412
         0.290129   0.000000   0.000000   0.319045  -0.017106
        -0.017106   0.057934   0.000000   0.000000   0.000000
   0 1  -0.065040   0.288293   0.569832   0.000000  -0.201456
         0.290147   0.300783   0.000000  -0.106342   0.049598
        -0.017106  -0.008771   0.000000  -0.027223   0.000000
   0 1  -0.065039   0.288293  -0.284916  -0.493490  -0.201455
         0.290145  -0.150392  -0.260486  -0.106340  -0.000427
         0.032923  -0.008771   0.033353   0.013612   0.023576
   0 1  -0.065039   0.288293  -0.284916   0.493490  -0.201455
         0.290145  -0.150392   0.260486  -0.106340  -0.000427
         0.032923  -0.008771  -0.033353   0.013612  -0.023576
   0 1   1.010938  -0.011975   0.000000   0.000000   0.000000
        -0.054085   0.000000   0.000000  -0.000000  -0.003174
        -0.003174  -0.003174   0.000000   0.000000   0.000000
 MINI         5   5
   1 0  -0.104883   0.308874   0.000000   0.000000   0.521806
   0 1  -0.104883   0.308874   0.491961   0.000000  -0.173934
   0 1  -0.104883   0.308876  -0.245980  -0.426050  -0.173933
   0 1  -0.104883   0.308876  -0.245980   0.426050  -0.173933
   0 1   0.988209   0.063992   0.000000   0.000000   0.000000
 $END
 
 $DATA
 FMO calculation
 C1 
 H.1-1    1
      N31 6
   
 O.1-1    8
      N31 6
      d 1
      1 0.800 1.0
   
 C.1-1    6
      N31 6
      d 1
      1 0.800 1.0
   
 N.1-1    7
      N31 6
      d 1
      1 0.800 1.0
   
 P.1-1   15
      N31 6
      d 1
      1 0.550 1.0
   
 $END
 $FMOXYZ
    1    H    -11.262    -3.519    9.896
    2    O    -11.422    -3.657    8.943
    3    C    -11.784    -5.036    8.771
    4    H    -12.603    -5.280    9.482
    5    H    -10.913    -5.681    9.019
    6    C    -12.263    -5.377    7.352
    7    H    -12.805    -6.349    7.343
    8    O    -13.187    -4.360    6.841
    9    C    -12.911    -4.137    5.466
    10    H    -13.861    -4.307    4.914
    11    N    -12.452    -2.761    5.205
    12    C    -12.413    -2.127    3.985
    13    N    -12.952    -2.112    0.552
    14    H    -13.310    -3.030    0.373
    15    H    -12.823    -1.485    -0.215
    16    N    -12.780    -2.650    2.800
    17    C    -12.627    -1.786    1.790
    18    N    -12.160    -0.508    1.965
    19    H    -12.078    0.089    1.157
    20    C    -11.788    0.059    3.180
    21    O    -11.384    1.221    3.266
    22    C    -11.937    -0.857    4.252
    23    N    -11.669    -0.697    5.605
    24    C    -11.974    -1.861    6.131
    25    H    -11.907    -2.116    7.190
    26    C    -11.889    -5.161    5.031
    27    H    -11.209    -4.754    4.260
    28    O    -12.538    -6.312    4.539
    29    H    -11.834    -6.870    4.183
    30    C    -11.129    -5.462    6.318
    31    H    -10.412    -4.642    6.556
    32    O    -10.521    -6.774    6.377
    33    P    -9.068    -7.058    5.849
    34    O    -8.725    -8.468    6.139
    35    O    -8.171    -6.021    6.399
    36    O    -9.138    -6.879    4.287
    37    C    -9.797    -7.838    3.427
    38    H    -10.739    -8.219    3.889
    39    H    -9.137    -8.719    3.256
    40    C    -10.166    -7.241    2.048
    41    H    -10.936    -7.881    1.563
    42    O    -10.765    -5.930    2.206
    43    C    -10.263    -5.036    1.235
    44    H    -11.154    -4.608    0.723
    45    N    -9.517    -3.925    1.856
    46    C    -9.173    -2.740    1.259
    47    N    -9.099    -0.657    -1.514
    48    H    -9.548    -1.205    -2.217
    49    H    -8.724    0.240    -1.754
    50    N    -9.427    -2.387    -0.013
    51    C    -8.985    -1.162    -0.300
    52    N    -8.395    -0.348    0.630
    53    H    -8.085    0.566    0.334
    54    C    -8.142    -0.676    1.954
    55    O    -7.610    0.118    2.732
    56    C    -8.554    -2.000    2.249
    57    N    -8.474    -2.715    3.434
    58    C    -9.064    -3.848    3.155
    59    H    -9.202    -4.662    3.862
    60    C    -9.449    -5.835    0.241
    61    H    -8.564    -5.274    -0.129
    62    O    -10.257    -6.214    -0.857
    63    H    -9.719    -6.813    -1.397
    64    C    -9.014    -7.055    1.057
    65    H    -8.109    -6.820    1.659
    66    O    -8.868    -8.272    0.301
    67    P    -7.606    -8.594    -0.560
    68    O    -7.877    -9.834    -1.323
    69    O    -6.439    -8.600    0.345
    70    O    -7.462    -7.379    -1.554
    71    C    -7.278    -7.618    -2.978
    72    H    -8.259    -7.881    -3.430
    73    H    -6.579    -8.465    -3.168
    74    C    -6.720    -6.415    -3.776
    75    H    -7.017    -6.494    -4.843
    76    O    -7.247    -5.160    -3.276
    77    C    -6.241    -4.165    -3.362
    78    H    -6.690    -3.370    -4.000
    79    N    -5.905    -3.578    -2.042
    80    C    -6.095    -4.306    -0.888
    81    H    -6.478    -5.321    -1.022
    82    C    -5.836    -3.786    0.316
    83    H    -5.993    -4.336    1.241
    84    C    -5.392    -2.286    -1.966
    85    O    -5.203    -1.644    -3.013
    86    N    -5.118    -1.752    -0.756
    87    C    -5.351    -2.449    0.367
    88    N    -5.127    -1.883    1.548
    89    H    -4.755    -0.946    1.574
    90    H    -5.161    -2.395    2.406
    91    C    -5.044    -4.756    -4.101
    92    H    -4.078    -4.358    -3.722
    93    O    -5.144    -4.516    -5.500
    94    H    -4.300    -4.805    -5.885
    95    C    -5.188    -6.245    -3.758
    96    H    -4.870    -6.415    -2.707
    97    O    -4.574    -7.201    -4.658
    98    P    -3.009    -7.384    -4.708
    99    O    -2.691    -8.579    -5.518
    100    O    -2.454    -7.326    -3.342
    101    O    -2.528    -6.124    -5.465
    102    C    -2.118    -6.068    -6.842
    103    H    -3.000    -6.178    -7.514
    104    H    -1.390    -6.881    -7.095
    105    C    -1.463    -4.716    -7.145
    106    H    -1.583    -4.434    -8.212
    107    O    -2.064    -3.655    -6.322
    108    C    -1.057    -2.802    -5.843
    109    H    -1.335    -1.768    -6.155
    110    N    -0.931    -2.852    -4.381
    111    C    -0.556    -2.378    -2.272
    112    N    -0.905    -3.713    -2.310
    113    C    -1.114    -3.947    -3.574
    114    H    -1.409    -4.914    -3.971
    115    N    0.100    -0.251    -1.479
    116    C    0.085    0.139    -2.760
    117    H    0.356    1.185    -2.931
    118    N    -0.247    -0.559    -3.860
    119    C    -0.558    -1.826    -3.538
    120    C    -0.207    -1.541    -1.200
    121    N    -0.189    -2.022    0.049
    122    H    0.163    -1.481    0.821
    123    H    -0.562    -2.927    0.268
    124    C    0.218    -3.212    -6.523
    125    H    1.065    -3.104    -5.827
    126    O    0.402    -2.466    -7.710
    127    H    1.304    -2.661    -8.002
    128    C    0.037    -4.691    -6.818
    129    H    0.181    -5.302    -5.898
    130    O    0.815    -5.197    -7.933
    131    P    2.324    -5.652    -7.835
    132    O    2.826    -5.889    -9.207
    133    O    2.414    -6.786    -6.891
    134    O    3.121    -4.438    -7.232
    135    C    3.762    -3.426    -8.058
    136    H    3.208    -3.278    -9.017
    137    H    4.795    -3.747    -8.335
    138    C    3.853    -2.028    -7.379
    139    H    3.689    -1.231    -8.140
    140    O    2.805    -1.880    -6.407
    141    C    3.240    -1.241    -5.235
    142    H    2.535    -0.386    -5.108
    143    N    3.151    -2.098    -4.015
    144    C    2.920    -3.459    -4.086
    145    H    2.841    -3.882    -5.085
    146    C    2.794    -4.209    -2.984
    147    H    2.592    -5.278    -3.018
    148    C    3.270    -1.493    -2.768
    149    O    3.466    -0.270    -2.702
    150    N    3.172    -2.241    -1.653
    151    C    2.922    -3.555    -1.725
    152    N    2.807    -4.239    -0.594
    153    H    2.949    -3.742    0.269
    154    H    2.661    -5.228    -0.570
    155    C    4.623    -0.718    -5.515
    156    H    5.285    -0.742    -4.623
    157    O    4.534    0.606    -6.009
    158    H    5.361    0.771    -6.484
    159    C    5.117    -1.677    -6.596
    160    H    5.474    -2.627    -6.133
    161    O    6.057    -1.061    -7.490
    162    P    7.530    -1.548    -7.583
    163    O    8.170    -0.828    -8.706
    164    O    7.533    -3.024    -7.632
    165    O    8.160    -1.081    -6.220
    166    C    8.495    0.309    -5.991
    167    H    7.667    0.988    -6.292
    168    H    9.397    0.582    -6.584
    169    C    8.788    0.591    -4.510
    170    H    8.983    1.673    -4.343
    171    O    7.642    0.231    -3.691
    172    C    8.091    -0.348    -2.474
    173    H    7.674    0.305    -1.672
    174    N    7.595    -1.742    -2.290
    175    C    7.190    -2.499    -3.366
    176    H    7.234    -1.995    -4.331
    177    C    7.533    -2.259    -1.016
    178    O    7.870    -1.613    -0.026
    179    N    7.056    -3.538    -0.919
    180    H    7.035    -3.955    0.001
    181    C    6.648    -4.353    -1.950
    182    O    6.241    -5.489    -1.716
    183    C    6.723    -3.749    -3.245
    184    H    6.388    -4.325    -4.105
    185    C    9.613    -0.243    -2.454
    186    H    10.090    -1.106    -1.945
    187    O    10.009    0.959    -1.833
    188    H    10.972    0.981    -1.858
    189    C    9.960    -0.204    -3.935
    190    H    9.895    -1.225    -4.376
    191    O    11.196    0.476    -4.263
    192    P    12.552    -0.308    -4.239
    193    O    13.441    0.302    -5.248
    194    O    12.287    -1.761    -4.337
    195    O    13.124    0.003    -2.798
    196    C    14.507    -0.378    -2.552
    197    H    15.156    -0.248    -3.457
    198    H    14.564    -1.451    -2.255
    199    C    15.168    0.460    -1.452
    200    H    16.238    0.166    -1.381
    201    O    15.136    1.871    -1.808
    202    C    14.555    2.616    -0.767
    203    H    15.413    2.993    -0.164
    204    N    13.718    3.716    -1.306
    205    C    12.784    3.449    -2.282
    206    H    12.758    2.414    -2.631
    207    C    13.870    4.987    -0.802
    208    O    14.688    5.267    0.076
    209    N    13.042    5.929    -1.349
    210    H    13.177    6.871    -1.015
    211    C    12.125    5.755    -2.363
    212    O    11.499    6.719    -2.804
    213    C    12.005    4.401    -2.820
    214    H    11.300    4.186    -3.618
    215    C    13.755    1.655    0.092
    216    H    12.734    1.515    -0.326
    217    O    13.700    2.128    1.425
    218    H    13.070    1.597    1.945
    219    C    14.537    0.340    -0.047
    220    H    13.789    -0.488    -0.093
    221    O    15.543    0.126    0.981
    222    P    15.777    -1.322    1.553
    223    O    16.741    -1.251    2.676
    224    O    16.143    -2.195    0.421
    225    O    14.394    -1.813    2.095
    226    C    14.021    -1.771    3.492
    227    H    13.754    -0.724    3.764
    228    H    14.855    -2.094    4.156
    229    C    12.782    -2.648    3.816
    230    H    12.304    -2.272    4.744
    231    O    11.793    -2.586    2.747
    232    C    11.559    -3.887    2.252
    233    H    10.680    -4.258    2.826
    234    N    11.300    -3.892    0.798
    235    C    12.092    -3.110    -0.001
    236    H    12.833    -2.499    0.517
    237    C    11.920    -3.085    -1.329
    238    H    12.528    -2.463    -1.981
    239    C    10.319    -4.705    0.238
    240    O    9.625    -5.418    0.982
    241    N    10.132    -4.694    -1.104
    242    C    10.899    -3.910    -1.882
    243    N    10.709    -3.905    -3.201
    244    H    11.262    -3.298    -3.785
    245    H    10.087    -4.572    -3.615
    246    C    12.771    -4.701    2.629
    247    H    13.627    -4.464    1.957
    248    O    12.535    -6.093    2.661
    249    H    11.933    -6.240    3.409
    250    C    13.038    -4.160    4.021
    251    H    14.118    -4.322    4.260
    252    O    12.141    -4.736    5.005
    253    P    12.640    -5.202    6.419
    254    O    14.111    -5.365    6.407
    255    O    11.855    -6.390    6.821
    256    O    12.269    -4.027    7.395
    257    C    10.928    -3.486    7.469
    258    H    10.340    -4.024    8.245
    259    H    10.378    -3.596    6.504
    260    C    10.921    -1.987    7.813
    261    H    11.262    -1.819    8.853
    262    O    11.839    -1.276    6.946
    263    C    11.377    0.040    6.760
    264    H    12.120    0.686    7.279
    265    N    11.336    0.404    5.346
    266    C    10.569    -0.100    4.318
    267    N    8.121    -2.226    3.104
    268    H    7.740    -2.477    2.224
    269    H    7.897    -2.761    3.917
    270    N    9.633    -1.066    4.396
    271    C    9.075    -1.326    3.222
    272    N    9.411    -0.677    2.064
    273    H    8.953    -0.956    1.213
    274    C    10.376    0.312    1.957
    275    O    10.653    0.873    0.899
    276    C    10.958    0.618    3.206
    277    N    11.931    1.550    3.523
    278    C    12.127    1.383    4.805
    279    H    12.840    1.949    5.407
    280    C    10.027    0.183    7.438
    281    H    9.293    0.731    6.809
    282    O    10.185    0.839    8.684
    283    H    9.376    0.679    9.189
    284    C    9.580    -1.267    7.612
    285    H    9.154    -1.667    6.670
    286    O    8.699    -1.492    8.725
    287    P    7.130    -1.386    8.569
    288    O    6.576    -1.024    9.889
    289    O    6.604    -2.632    7.966
    290    O    6.833    -0.218    7.570
    291    C    6.581    1.156    7.941
    292    H    7.388    1.521    8.616
    293    H    5.618    1.240    8.495
    294    C    6.520    2.131    6.729
    295    H    7.065    3.070    6.975
    296    O    7.183    1.547    5.555
    297    C    6.388    1.767    4.402
    298    H    7.071    2.108    3.588
    299    N    5.680    0.540    3.989
    300    C    5.223    0.244    2.732
    301    N    4.847    1.039    -0.624
    302    H    5.287    1.931    -0.715
    303    H    4.414    0.619    -1.427
    304    N    5.350    1.015    1.638
    305    C    4.815    0.447    0.554
    306    N    4.194    -0.772    0.585
    307    H    3.829    -1.148    -0.280
    308    C    4.050    -1.586    1.694
    309    O    3.487    -2.683    1.639
    310    C    4.610    -0.991    2.848
    311    N    4.667    -1.459    4.147
    312    C    5.320    -0.524    4.788
    313    H    5.562    -0.559    5.842
    314    C    5.421    2.863    4.761
    315    H    4.510    2.861    4.126
    316    O    6.075    4.113    4.664
    317    H    5.488    4.767    5.059
    318    C    5.106    2.519    6.215
    319    H    4.482    1.600    6.282
    320    O    4.559    3.615    6.988
    321    P    3.002    3.885    7.043
    322    O    2.733    4.965    8.020
    323    O    2.308    2.600    7.268
    324    O    2.604    4.402    5.612
    325    C    3.088    5.661    5.094
    326    H    4.196    5.723    5.168
    327    H    2.679    6.511    5.685
    328    C    2.707    5.870    3.614
    329    H    3.193    6.789    3.224
    330    O    3.206    4.764    2.811
    331    C    2.270    4.442    1.797
    332    H    2.830    4.546    0.836
    333    N    1.755    3.051    1.936
    334    C    1.774    2.412    3.154
    335    H    2.241    2.965    3.964
    336    C    1.260    2.417    0.817
    337    O    1.220    2.956    -0.285
    338    N    0.826    1.132    1.026
    339    H    0.503    0.653    0.191
    340    C    0.829    0.436    2.221
    341    O    0.418    -0.718    2.283
    342    C    1.344    1.160    3.332
    343    H    1.398    0.660    4.296
    344    C    1.161    5.478    1.844
    345    H    0.169    5.036    1.609
    346    O    1.425    6.539    0.942
    347    H    0.600    7.054    0.904
    348    C    1.203    5.960    3.296
    349    H    0.689    5.233    3.965
    350    O    0.740    7.311    3.519
    351    P    -0.768    7.738    3.394
    352    O    -0.855    9.201    3.570
    353    O    -1.583    6.905    4.301
    354    O    -1.184    7.399    1.921
    355    C    -1.302    8.383    0.872
    356    H    -0.326    8.910    0.724
    357    H    -2.062    9.148    1.147
    358    C    -1.719    7.758    -0.485
    359    H    -1.312    8.357    -1.327
    360    O    -1.166    6.416    -0.607
    361    C    -2.137    5.543    -1.145
    362    H    -1.646    5.072    -2.020
    363    N    -2.520    4.484    -0.208
    364    C    -2.984    3.242    -0.557
    365    N    -3.945    0.942    -2.959
    366    H    -3.787    1.433    -3.816
    367    H    -4.374    0.036    -2.988
    368    N    -3.171    2.781    -1.807
    369    C    -3.663    1.544    -1.821
    370    N    -3.884    0.822    -0.678
    371    H    -4.270    -0.107    -0.778
    372    C    -3.671    1.258    0.620
    373    O    -3.889    0.546    1.601
    374    C    -3.196    2.592    0.645
    375    N    -2.889    3.407    1.720
    376    C    -2.490    4.524    1.166
    377    H    -2.164    5.403    1.716
    378    C    -3.315    6.358    -1.611
    379    H    -4.275    5.824    -1.466
    380    O    -3.179    6.694    -2.978
    381    H    -4.009    7.132    -3.218
    382    C    -3.242    7.603    -0.725
    383    H    -3.701    7.403    0.271
    384    O    -3.770    8.805    -1.339
    385    P    -5.314    9.088    -1.450
    386    O    -5.494    10.288    -2.294
    387    O    -5.847    9.161    -0.072
    388    O    -5.941    7.844    -2.181
    389    C    -6.289    7.864    -3.587
    390    H    -5.394    8.131    -4.202
    391    H    -7.071    8.632    -3.782
    392    C    -6.836    6.500    -4.079
    393    H    -6.713    6.409    -5.182
    394    O    -6.096    5.413    -3.460
    395    C    -6.961    4.325    -3.180
    396    H    -6.557    3.488    -3.796
    397    N    -6.936    3.906    -1.750
    398    C    -6.573    4.804    -0.771
    399    H    -6.314    5.807    -1.116
    400    C    -6.513    4.447    0.518
    401    H    -6.186    5.128    1.301
    402    C    -7.332    2.619    -1.388
    403    O    -7.733    1.834    -2.264
    404    N    -7.272    2.241    -0.093
    405    C    -6.870    3.109    0.849
    406    N    -6.808    2.706    2.113
    407    H    -7.065    1.759    2.335
    408    H    -6.519    3.305    2.858
    409    C    -8.354    4.675    -3.675
    410    H    -9.146    4.346    -2.971
    411    O    -8.584    4.085    -4.941
    412    H    -9.481    4.349    -5.209
    413    C    -8.317    6.211    -3.750
    414    H    -8.497    6.651    -2.742
    415    O    -9.169    6.806    -4.754
    416    P    -10.739    6.786    -4.645
    417    O    -11.278    7.756    -5.624
    418    O    -11.142    6.966    -3.235
    419    O    -11.171    5.347    -5.098
    420    C    -12.468    5.096    -5.709
    421    H    -12.330    5.052    -6.811
    422    H    -13.208    5.915    -5.522
    423    C    -13.130    3.761    -5.272
    424    H    -13.518    3.215    -6.159
    425    O    -12.167    2.888    -4.614
    426    C    -12.791    2.174    -3.565
    427    H    -12.704    1.108    -3.874
    428    N    -12.110    2.367    -2.260
    429    C    -11.616    3.611    -1.935
    430    H    -11.717    4.388    -2.700
    431    C    -11.003    3.826    -0.763
    432    H    -10.591    4.796    -0.488
    433    C    -12.034    1.322    -1.336
    434    O    -12.539    0.221    -1.614
    435    N    -11.424    1.525    -0.146
    436    C    -10.907    2.732    0.147
    437    N    -10.317    2.905    1.325
    438    H    -10.486    2.203    2.022
    439    H    -10.018    3.806    1.638
    440    C    -14.268    2.551    -3.522
    441    H    -14.620    2.697    -2.478
    442    O    -15.046    1.547    -4.154
    443    H    -15.971    1.845    -4.210
    444    C    -14.290    3.890    -4.270
    445    H    -14.036    4.723    -3.579
    446    O    -15.527    4.160    -4.958
    447    H    -16.265    4.242    -4.323
 $END
