!*** FMO 5.3 (Gamess) INPUT generated by Facio 22.1.1.32 ***
 $CONTRL RUNTYP=ENERGY NPRINT=-5 ISPHER=1 MAXIT=200 $END
 $SYSTEM MWORDS=63 MEMDDI=63 $END
 $GDDI NGROUP=1 $END
 $SCF DIRSCF=.TRUE. NPUNCH=0 $END
!*** NumCPU : 2  MemPerNode : 512MB
 $PCM SOLVNT=WATER IEF=-10 ICOMP=2 ICAV=1 IDISP=1 IFMO=-1 $END
 $PCMCAV RADII=SUAHF $END
 $TESCAV NTSALL=60 $END
 $FMOPRP
    NAODIR=200
    NGRFMO(1)=1, 1, 0, 0, 0,   0, 0, 0, 0, 0
    IPIEDA=1
    NPRINT=9
 $END
 $FMO
      SCFTYP(1)=RHF
      MODGRD=10
      MODMUL=0
      MAXCAO=5
      MAXBND=16
      NLAYER=1
      MPLEVL(1)=2
      NFRAG=14
      ICHARG(1)=-1, -1, -1, -1, -1, -1, -1, -1, -1, -1, -1, -1, -1, 0
      FRGNAM(1)=F1, F2, F3, F4, F5, F6, F7, F8, F9, F10, F11, F12, F13, F14
      indat(1)=0
               1   -36   0
               37   -70   0
               71   -101   0
               102   -134   0
               135   -165   0
               166   -195   0
               196   -225   0
               226   -256   0
               257   -290   0
               291   -324   0
               325   -354   0
               355   -388   0
               389   -419   0
               420   -447   0
 $END

 $FMOBND
   -37   36       6-31G*    MINI
   -71   70       6-31G*    MINI
   -102   101       6-31G*    MINI
   -135   134       6-31G*    MINI
   -166   165       6-31G*    MINI
   -196   195       6-31G*    MINI
   -226   225       6-31G*    MINI
   -257   256       6-31G*    MINI
   -291   290       6-31G*    MINI
   -325   324       6-31G*    MINI
   -355   354       6-31G*    MINI
   -389   388       6-31G*    MINI
   -420   419       6-31G*    MINI
 $END
 $FMOHYB
 6-31G*      15   5
   1 0  -0.065034   0.288264   0.000000   0.000000   0.604412
         0.290129   0.000000   0.000000   0.319045  -0.017106
        -0.017106   0.057934   0.000000   0.000000   0.000000
   0 1  -0.065040   0.288293   0.569832   0.000000  -0.201456
         0.290147   0.300783   0.000000  -0.106342   0.049598
        -0.017106  -0.008771   0.000000  -0.027223   0.000000
   0 1  -0.065039   0.288293  -0.284916  -0.493490  -0.201455
         0.290145  -0.150392  -0.260486  -0.106340  -0.000427
         0.032923  -0.008771   0.033353   0.013612   0.023576
   0 1  -0.065039   0.288293  -0.284916   0.493490  -0.201455
         0.290145  -0.150392   0.260486  -0.106340  -0.000427
         0.032923  -0.008771  -0.033353   0.013612  -0.023576
   0 1   1.010938  -0.011975   0.000000   0.000000   0.000000
        -0.054085   0.000000   0.000000  -0.000000  -0.003174
        -0.003174  -0.003174   0.000000   0.000000   0.000000
 MINI         5   5
   1 0  -0.104883   0.308874   0.000000   0.000000   0.521806
   0 1  -0.104883   0.308874   0.491961   0.000000  -0.173934
   0 1  -0.104883   0.308876  -0.245980  -0.426050  -0.173933
   0 1  -0.104883   0.308876  -0.245980   0.426050  -0.173933
   0 1   0.988209   0.063992   0.000000   0.000000   0.000000
 $END
 
 $DATA
 FMO calculation
 C1 
 H.1-1    1
      N31 6
   
 O.1-1    8
      N31 6
      d 1
      1 0.800 1.0
   
 C.1-1    6
      N31 6
      d 1
      1 0.800 1.0
   
 N.1-1    7
      N31 6
      d 1
      1 0.800 1.0
   
 P.1-1   15
      N31 6
      d 1
      1 0.550 1.0
   
 $END
 $FMOXYZ
    1    H    -10.277    -6.590    8.449
    2    O    -10.670    -6.261    7.619
    3    C    -11.503    -7.312    7.106
    4    H    -12.158    -7.693    7.921
    5    H    -10.850    -8.154    6.785
    6    C    -12.371    -6.906    5.907
    7    H    -13.162    -7.665    5.716
    8    O    -13.027    -5.618    6.109
    9    C    -12.989    -4.888    4.886
    10    H    -14.042    -4.610    4.640
    11    N    -12.192    -3.659    5.007
    12    C    -12.222    -2.594    4.145
    13    N    -13.467    -1.050    1.302
    14    H    -14.102    -1.732    0.945
    15    H    -13.304    -0.215    0.770
    16    N    -12.981    -2.497    3.036
    17    C    -12.801    -1.334    2.406
    18    N    -11.950    -0.357    2.852
    19    H    -11.894    0.498    2.323
    20    C    -11.158    -0.433    3.992
    21    O    -10.414    0.498    4.318
    22    C    -11.338    -1.669    4.671
    23    N    -10.759    -2.144    5.845
    24    C    -11.293    -3.335    5.999
    25    H    -11.081    -4.025    6.820
    26    C    -12.446    -5.802    3.815
    27    H    -11.855    -5.248    3.059
    28    O    -13.494    -6.506    3.176
    29    H    -13.067    -7.093    2.540
    30    C    -11.562    -6.731    4.626
    31    H    -10.626    -6.202    4.928
    32    O    -11.337    -8.023    4.027
    33    P    -9.996    -8.276    3.258
    34    O    -9.888    -9.723    2.978
    35    O    -8.894    -7.659    4.033
    36    O    -10.187    -7.476    1.916
    37    C    -11.204    -7.881    0.967
    38    H    -12.161    -8.141    1.473
    39    H    -10.865    -8.784    0.404
    40    C    -11.512    -6.774    -0.054
    41    H    -12.373    -7.048    -0.699
    42    O    -11.850    -5.533    0.616
    43    C    -11.229    -4.446    -0.056
    44    H    -12.037    -3.717    -0.294
    45    N    -10.240    -3.781    0.799
    46    C    -9.715    -2.549    0.566
    47    N    -9.578    0.261    -1.384
    48    H    -10.069    -0.049    -2.194
    49    H    -8.975    1.057    -1.482
    50    N    -10.000    -1.778    -0.485
    51    C    -9.394    -0.606    -0.424
    52    N    -8.568    -0.228    0.605
    53    H    -8.120    0.672    0.540
    54    C    -8.264    -1.003    1.718
    55    O    -7.520    -0.580    2.607
    56    C    -8.888    -2.281    1.639
    57    N    -8.858    -3.361    2.513
    58    C    -9.679    -4.228    1.972
    59    H    -9.919    -5.209    2.381
    60    C    -10.637    -4.971    -1.347
    61    H    -9.707    -4.438    -1.644
    62    O    -11.587    -4.894    -2.399
    63    H    -11.247    -5.430    -3.134
    64    C    -10.338    -6.404    -0.956
    65    H    -9.442    -6.421    -0.290
    66    O    -10.271    -7.318    -2.068
    67    P    -8.889    -7.973    -2.400
    68    O    -9.098    -9.053    -3.388
    69    O    -8.192    -8.320    -1.147
    70    O    -8.127    -6.783    -3.063
    71    C    -7.931    -6.759    -4.491
    72    H    -8.896    -6.541    -5.005
    73    H    -7.545    -7.725    -4.880
    74    C    -6.955    -5.658    -4.884
    75    H    -6.921    -5.582    -5.994
    76    O    -7.489    -4.401    -4.368
    77    C    -6.415    -3.523    -4.132
    78    H    -6.672    -2.609    -4.719
    79    N    -6.238    -3.178    -2.703
    80    C    -6.633    -4.008    -1.678
    81    H    -7.168    -4.914    -1.976
    82    C    -6.389    -3.686    -0.397
    83    H    -6.696    -4.319    0.433
    84    C    -5.572    -2.001    -2.422
    85    O    -5.217    -1.288    -3.369
    86    N    -5.308    -1.664    -1.145
    87    C    -5.675    -2.474    -0.143
    88    N    -5.355    -2.117    1.098
    89    H    -4.898    -1.239    1.258
    90    H    -5.613    -2.668    1.890
    91    C    -5.173    -4.185    -4.706
    92    H    -4.229    -3.851    -4.229
    93    O    -5.146    -3.912    -6.100
    94    H    -5.192    -2.954    -6.255
    95    C    -5.489    -5.655    -4.367
    96    H    -5.547    -5.785    -3.265
    97    O    -4.654    -6.680    -4.970
    98    P    -3.496    -7.446    -4.170
    99    O    -3.483    -8.876    -4.544
    100    O    -3.535    -7.133    -2.728
    101    O    -2.148    -6.887    -4.685
    102    C    -1.721    -7.012    -6.049
    103    H    -2.558    -7.233    -6.750
    104    H    -0.980    -7.844    -6.132
    105    C    -1.055    -5.720    -6.477
    106    H    -1.014    -5.611    -7.584
    107    O    -1.758    -4.559    -5.897
    108    C    -0.816    -3.631    -5.434
    109    H    -1.050    -2.660    -5.927
    110    N    -0.819    -3.446    -3.962
    111    C    -0.599    -2.606    -1.935
    112    N    -0.918    -3.941    -1.771
    113    C    -1.035    -4.396    -2.992
    114    H    -1.284    -5.426    -3.236
    115    N    -0.024    -0.352    -1.472
    116    C    0.031    -0.193    -2.803
    117    H    0.292    0.816    -3.142
    118    N    -0.193    -1.084    -3.782
    119    C    -0.514    -2.285    -3.274
    120    C    -0.351    -1.584    -0.999
    121    N    -0.458    -1.841    0.317
    122    H    -0.569    -2.783    0.645
    123    H    -0.194    -1.163    1.006
    124    C    0.507    -4.135    -5.915
    125    H    1.258    -3.880    -5.155
    126    O    0.786    -3.636    -7.217
    127    H    1.706    -3.879    -7.395
    128    C    0.360    -5.643    -5.916
    129    H    0.333    -6.048    -4.880
    130    O    1.282    -6.369    -6.753
    131    P    2.692    -6.944    -6.338
    132    O    3.270    -7.621    -7.522
    133    O    2.590    -7.750    -5.097
    134    O    3.587    -5.700    -5.999
    135    C    4.227    -4.879    -7.007
    136    H    3.749    -5.007    -8.008
    137    H    5.288    -5.196    -7.124
    138    C    4.204    -3.358    -6.687
    139    H    4.024    -2.781    -7.622
    140    O    3.112    -3.065    -5.828
    141    C    3.401    -2.128    -4.836
    142    H    2.637    -1.328    -4.989
    143    N    3.238    -2.655    -3.447
    144    C    3.019    -3.996    -3.194
    145    H    3.015    -4.658    -4.060
    146    C    2.828    -4.450    -1.947
    147    H    2.657    -5.501    -1.725
    148    C    3.240    -1.750    -2.388
    149    O    3.394    -0.540    -2.619
    150    N    3.082    -2.200    -1.126
    151    C    2.864    -3.502    -0.887
    152    N    2.689    -3.891    0.371
    153    H    2.845    -3.217    1.098
    154    H    2.540    -4.848    0.625
    155    C    4.767    -1.598    -5.143
    156    H    5.369    -1.386    -4.234
    157    O    4.641    -0.422    -5.916
    158    H    5.462    -0.355    -6.426
    159    C    5.384    -2.730    -5.967
    160    H    5.810    -3.512    -5.298
    161    O    6.290    -2.233    -6.953
    162    P    7.736    -2.744    -7.107
    163    O    8.265    -2.218    -8.381
    164    O    7.746    -4.206    -6.898
    165    O    8.453    -2.034    -5.907
    166    C    8.687    -0.604    -5.943
    167    H    7.813    -0.044    -6.351
    168    H    9.568    -0.383    -6.588
    169    C    8.983    -0.061    -4.544
    170    H    9.216    1.025    -4.570
    171    O    7.815    -0.240    -3.693
    172    C    8.234    -0.535    -2.371
    173    H    7.816    0.276    -1.731
    174    N    7.730    -1.862    -1.909
    175    C    7.317    -2.821    -2.807
    176    H    7.368    -2.527    -3.858
    177    C    7.658    -2.098    -0.555
    178    O    7.982    -1.263    0.280
    179    N    7.176    -3.328    -0.198
    180    H    7.177    -3.552    0.783
    181    C    6.734    -4.325    -1.035
    182    O    6.280    -5.366    -0.566
    183    C    6.820    -4.008    -2.429
    184    H    6.459    -4.736    -3.150
    185    C    9.757    -0.447    -2.357
    186    H    10.224    -1.164    -1.649
    187    O    10.158    0.872    -2.054
    188    H    11.114    0.853    -1.943
    189    C    10.102    -0.790    -3.797
    190    H    9.946    -1.878    -3.974
    191    O    11.388    -0.313    -4.255
    192    P    12.638    -1.266    -4.178
    193    O    13.515    -0.971    -5.331
    194    O    12.201    -2.668    -4.001
    195    O    13.353    -0.786    -2.855
    196    C    14.689    -1.295    -2.600
    197    H    15.284    -1.419    -3.537
    198    H    14.630    -2.291    -2.104
    199    C    15.504    -0.356    -1.704
    200    H    16.527    -0.777    -1.581
    201    O    15.649    0.952    -2.336
    202    C    15.163    1.953    -1.468
    203    H    16.064    2.344    -0.940
    204    N    14.444    3.008    -2.226
    205    C    13.429    2.661    -3.087
    206    H    13.283    1.587    -3.223
    207    C    14.768    4.327    -2.007
    208    O    15.638    4.679    -1.216
    209    N    14.044    5.229    -2.741
    210    H    14.303    6.197    -2.605
    211    C    13.046    4.961    -3.654
    212    O    12.515    5.880    -4.279
    213    C    12.739    3.568    -3.798
    214    H    11.992    3.274    -4.534
    215    C    14.268    1.280    -0.447
    216    H    13.233    1.163    -0.840
    217    O    14.265    2.013    0.762
    218    H    13.640    1.614    1.391
    219    C    14.911    -0.100    -0.304
    220    H    14.090    -0.839    -0.146
    221    O    15.926    -0.167    0.726
    222    P    16.048    -1.444    1.634
    223    O    17.020    -1.154    2.710
    224    O    16.357    -2.596    0.756
    225    O    14.624    -1.668    2.251
    226    C    14.278    -1.276    3.598
    227    H    14.114    -0.175    3.624
    228    H    15.089    -1.514    4.324
    229    C    12.978    -1.938    4.106
    230    H    12.561    -1.335    4.939
    231    O    11.981    -2.022    3.053
    232    C    11.635    -3.378    2.855
    233    H    10.744    -3.542    3.501
    234    N    11.340    -3.672    1.445
    235    C    12.176    -3.152    0.490
    236    H    12.974    -2.505    0.860
    237    C    11.978    -3.399    -0.808
    238    H    12.621    -2.988    -1.583
    239    C    10.276    -4.494    1.081
    240    O    9.530    -4.958    1.962
    241    N    10.074    -4.771    -0.230
    242    C    10.885    -4.240    -1.166
    243    N    10.660    -4.500    -2.452
    244    H    11.202    -4.027    -3.158
    245    H    9.961    -5.163    -2.714
    246    C    12.788    -4.201    3.387
    247    H    13.641    -4.203    2.673
    248    O    12.419    -5.521    3.748
    249    H    11.840    -5.428    4.522
    250    C    13.129    -3.386    4.615
    251    H    14.199    -3.560    4.872
    252    O    12.227    -3.682    5.705
    253    P    12.734    -3.856    7.174
    254    O    14.177    -4.192    7.188
    255    O    11.826    -4.798    7.866
    256    O    12.545    -2.435    7.815
    257    C    11.237    -1.814    7.850
    258    H    10.677    -2.155    8.751
    259    H    10.623    -2.071    6.952
    260    C    11.343    -0.286    7.898
    261    H    11.731    0.056    8.880
    262    O    12.279    0.188    6.893
    263    C    11.872    1.457    6.430
    264    H    12.670    2.150    6.779
    265    N    11.807    1.517    4.974
    266    C    10.961    0.886    4.090
    267    N    8.353    -1.290    3.399
    268    H    7.895    -1.653    2.597
    269    H    8.094    -1.610    4.309
    270    N    9.948    0.049    4.391
    271    C    9.355    -0.432    3.307
    272    N    9.703    -0.068    2.033
    273    H    9.196    -0.484    1.270
    274    C    10.731    0.796    1.698
    275    O    10.998    1.094    0.533
    276    C    11.381    1.302    2.843
    277    N    12.456    2.170    2.938
    278    C    12.671    2.271    4.221
    279    H    13.448    2.887    4.679
    280    C    10.567    1.827    7.100
    281    H    9.837    2.282    6.393
    282    O    10.820    2.712    8.179
    283    H    10.025    2.716    8.733
    284    C    10.050    0.473    7.585
    285    H    9.569    -0.084    6.753
    286    O    9.210    0.551    8.751
    287    P    7.648    0.569    8.586
    288    O    7.055    1.181    9.794
    289    O    7.191    -0.795    8.251
    290    O    7.363    1.497    7.364
    291    C    7.154    2.917    7.477
    292    H    8.022    3.398    7.984
    293    H    6.245    3.119    8.088
    294    C    6.971    3.616    6.111
    295    H    7.442    4.622    6.126
    296    O    7.588    2.846    5.022
    297    C    6.713    2.852    3.902
    298    H    7.330    3.064    2.997
    299    N    6.003    1.563    3.756
    300    C    5.486    1.020    2.606
    301    N    4.945    1.127    -0.819
    302    H    5.379    1.983    -1.095
    303    H    4.458    0.586    -1.508
    304    N    5.546    1.555    1.373
    305    C    4.950    0.787    0.459
    306    N    4.311    -0.387    0.768
    307    H    3.884    -0.915    0.022
    308    C    4.221    -0.954    2.031
    309    O    3.629    -2.018    2.237
    310    C    4.879    -0.160    3.000
    311    N    5.017    -0.364    4.363
    312    C    5.689    0.679    4.768
    313    H    5.969    0.857    5.802
    314    C    5.744    3.983    4.150
    315    H    4.809    3.868    3.567
    316    O    6.379    5.215    3.837
    317    H    5.766    5.939    4.009
    318    C    5.508    3.793    5.655
    319    H    4.998    2.824    5.853
    320    O    4.866    4.875    6.369
    321    P    3.290    4.853    6.581
    322    O    2.941    5.961    7.499
    323    O    2.827    3.501    6.973
    324    O    2.693    5.169    5.169
    325    C    3.103    6.365    4.476
    326    H    4.208    6.499    4.486
    327    H    2.649    7.259    4.959
    328    C    2.649    6.326    3.021
    329    H    3.030    7.209    2.464
    330    O    3.153    5.140    2.346
    331    C    2.188    4.692    1.413
    332    H    2.688    4.721    0.412
    333    N    1.725    3.307    1.715
    334    C    1.787    2.788    2.989
    335    H    2.225    3.441    3.743
    336    C    1.208    2.568    0.677
    337    O    1.106    3.016    -0.458
    338    N    0.816    1.294    1.001
    339    H    0.486    0.745    0.216
    340    C    0.852    0.713    2.257
    341    O    0.433    -0.427    2.432
    342    C    1.385    1.547    3.285
    343    H    1.445    1.148    4.295
    344    C    1.046    5.695    1.437
    345    H    0.059    5.214    1.269
    346    O    1.250    6.711    0.476
    347    H    0.393    7.164    0.432
    348    C    1.136    6.263    2.851
    349    H    0.741    5.534    3.593
    350    O    0.599    7.584    3.056
    351    P    -0.937    7.862    3.140
    352    O    -1.142    9.312    3.347
    353    O    -1.548    6.948    4.126
    354    O    -1.468    7.475    1.720
    355    C    -1.482    8.416    0.628
    356    H    -0.486    8.903    0.499
    357    H    -2.230    9.215    0.828
    358    C    -1.869    7.740    -0.698
    359    H    -1.482    8.312    -1.568
    360    O    -1.322    6.394    -0.779
    361    C    -2.301    5.515    -1.291
    362    H    -1.833    5.025    -2.173
    363    N    -2.668    4.476    -0.321
    364    C    -3.106    3.236    -0.664
    365    N    -3.877    0.970    -3.116
    366    H    -3.824    1.532    -3.941
    367    H    -4.323    0.072    -3.179
    368    N    -3.266    2.797    -1.916
    369    C    -3.677    1.544    -1.954
    370    N    -3.900    0.784    -0.834
    371    H    -4.275    -0.143    -0.954
    372    C    -3.750    1.210    0.481
    373    O    -3.978    0.457    1.434
    374    C    -3.310    2.563    0.526
    375    N    -3.017    3.382    1.608
    376    C    -2.638    4.509    1.054
    377    H    -2.317    5.393    1.602
    378    C    -3.483    6.335    -1.755
    379    H    -4.445    5.806    -1.607
    380    O    -3.348    6.671    -3.122
    381    H    -4.112    7.223    -3.339
    382    C    -3.383    7.575    -0.873
    383    H    -3.794    7.364    0.142
    384    O    -3.916    8.782    -1.459
    385    P    -5.415    9.187    -1.245
    386    O    -5.638    10.480    -1.931
    387    O    -5.689    9.140    0.208
    388    O    -6.229    8.050    -1.947
    389    C    -6.627    8.131    -3.332
    390    H    -5.738    8.284    -3.987
    391    H    -7.326    8.982    -3.495
    392    C    -7.357    6.846    -3.742
    393    H    -7.525    6.810    -4.842
    394    O    -6.549    5.693    -3.370
    395    C    -7.405    4.636    -2.986
    396    H    -7.164    3.822    -3.708
    397    N    -7.162    4.149    -1.597
    398    C    -6.640    4.951    -0.611
    399    H    -6.403    5.974    -0.908
    400    C    -6.418    4.478    0.628
    401    H    -5.974    5.085    1.416
    402    C    -7.485    2.836    -1.308
    403    O    -7.933    2.134    -2.219
    404    N    -7.314    2.346    -0.059
    405    C    -6.787    3.125    0.901
    406    N    -6.625    2.615    2.122
    407    H    -6.855    1.659    2.295
    408    H    -6.210    3.134    2.873
    409    C    -8.847    5.084    -3.215
    410    H    -9.554    4.656    -2.474
    411    O    -9.248    4.721    -4.527
    412    H    -10.164    5.008    -4.666
    413    C    -8.701    6.599    -3.025
    414    H    -8.501    6.809    -1.949
    415    O    -9.756    7.441    -3.568
    416    P    -10.935    7.930    -2.620
    417    O    -11.501    9.203    -3.118
    418    O    -10.512    7.898    -1.205
    419    O    -11.972    6.798    -2.820
    420    C    -13.394    6.943    -2.992
    421    H    -13.618    7.272    -4.032
    422    H    -13.809    7.719    -2.305
    423    C    -14.141    5.608    -2.735
    424    H    -14.844    5.378    -3.565
    425    O    -13.201    4.488    -2.637
    426    C    -13.583    3.610    -1.608
    427    H    -13.759    2.648    -2.142
    428    N    -12.524    3.417    -0.584
    429    C    -11.745    4.475    -0.169
    430    H    -11.918    5.432    -0.674
    431    C    -10.808    4.311    0.777
    432    H    -10.196    5.137    1.141
    433    C    -12.367    2.166    0.009
    434    O    -13.100    1.230    -0.349
    435    N    -11.434    1.983    0.969
    436    C    -10.669    3.015    1.362
    437    N    -9.789    2.809    2.338
    438    H    -9.802    1.939    2.828
    439    H    -9.242    3.555    2.718
    440    C    -14.899    4.088    -1.018
    441    H    -14.910    3.999    0.092
    442    O    -15.974    3.345    -1.568
    443    H    -16.809    3.768    -1.310
    444    C    -14.929    5.567    -1.418
    445    H    -14.359    6.173    -0.681
    446    O    -16.253    6.102    -1.603
    447    H    -16.745    6.072    -0.765
 $END
