!*** FMO 5.3 (Gamess) INPUT generated by Facio 22.1.1.32 ***
 $CONTRL RUNTYP=ENERGY NPRINT=-5 ISPHER=1 MAXIT=200 $END
 $SYSTEM MWORDS=63 MEMDDI=63 $END
 $GDDI NGROUP=1 $END
 $SCF DIRSCF=.TRUE. NPUNCH=0 $END
!*** NumCPU : 2  MemPerNode : 512MB
 $PCM SOLVNT=WATER IEF=-10 ICOMP=2 ICAV=1 IDISP=1 IFMO=-1 $END
 $PCMCAV RADII=SUAHF $END
 $TESCAV NTSALL=60 $END
 $FMOPRP
    NAODIR=200
    NGRFMO(1)=1, 1, 0, 0, 0,   0, 0, 0, 0, 0
    IPIEDA=1
    NPRINT=9
 $END
 $FMO
      SCFTYP(1)=RHF
      MODGRD=10
      MODMUL=0
      MAXCAO=5
      MAXBND=16
      NLAYER=1
      MPLEVL(1)=2
      NFRAG=14
      ICHARG(1)=-1, -1, -1, -1, -1, -1, -1, -1, -1, -1, -1, -1, -1, 0
      FRGNAM(1)=F1, F2, F3, F4, F5, F6, F7, F8, F9, F10, F11, F12, F13, F14
      indat(1)=0
               1   -36   0
               37   -70   0
               71   -101   0
               102   -134   0
               135   -165   0
               166   -195   0
               196   -225   0
               226   -256   0
               257   -290   0
               291   -324   0
               325   -354   0
               355   -388   0
               389   -419   0
               420   -447   0
 $END

 $FMOBND
   -37   36       6-31G*    MINI
   -71   70       6-31G*    MINI
   -102   101       6-31G*    MINI
   -135   134       6-31G*    MINI
   -166   165       6-31G*    MINI
   -196   195       6-31G*    MINI
   -226   225       6-31G*    MINI
   -257   256       6-31G*    MINI
   -291   290       6-31G*    MINI
   -325   324       6-31G*    MINI
   -355   354       6-31G*    MINI
   -389   388       6-31G*    MINI
   -420   419       6-31G*    MINI
 $END
 $FMOHYB
 6-31G*      15   5
   1 0  -0.065034   0.288264   0.000000   0.000000   0.604412
         0.290129   0.000000   0.000000   0.319045  -0.017106
        -0.017106   0.057934   0.000000   0.000000   0.000000
   0 1  -0.065040   0.288293   0.569832   0.000000  -0.201456
         0.290147   0.300783   0.000000  -0.106342   0.049598
        -0.017106  -0.008771   0.000000  -0.027223   0.000000
   0 1  -0.065039   0.288293  -0.284916  -0.493490  -0.201455
         0.290145  -0.150392  -0.260486  -0.106340  -0.000427
         0.032923  -0.008771   0.033353   0.013612   0.023576
   0 1  -0.065039   0.288293  -0.284916   0.493490  -0.201455
         0.290145  -0.150392   0.260486  -0.106340  -0.000427
         0.032923  -0.008771  -0.033353   0.013612  -0.023576
   0 1   1.010938  -0.011975   0.000000   0.000000   0.000000
        -0.054085   0.000000   0.000000  -0.000000  -0.003174
        -0.003174  -0.003174   0.000000   0.000000   0.000000
 MINI         5   5
   1 0  -0.104883   0.308874   0.000000   0.000000   0.521806
   0 1  -0.104883   0.308874   0.491961   0.000000  -0.173934
   0 1  -0.104883   0.308876  -0.245980  -0.426050  -0.173933
   0 1  -0.104883   0.308876  -0.245980   0.426050  -0.173933
   0 1   0.988209   0.063992   0.000000   0.000000   0.000000
 $END
 
 $DATA
 FMO calculation
 C1 
 H.1-1    1
      N31 6
   
 O.1-1    8
      N31 6
      d 1
      1 0.800 1.0
   
 C.1-1    6
      N31 6
      d 1
      1 0.800 1.0
   
 N.1-1    7
      N31 6
      d 1
      1 0.800 1.0
   
 P.1-1   15
      N31 6
      d 1
      1 0.550 1.0
   
 $END
 $FMOXYZ
    1    H    -10.901    -0.880    9.658
    2    O    -11.009    -1.432    8.864
    3    C    -10.955    -2.797    9.304
    4    H    -11.677    -2.922    10.143
    5    H    -9.936    -3.015    9.694
    6    C    -11.309    -3.834    8.219
    7    H    -11.613    -4.792    8.703
    8    O    -12.444    -3.395    7.422
    9    C    -12.221    -3.715    6.062
    10    H    -13.095    -4.319    5.732
    11    N    -12.141    -2.506    5.223
    12    C    -12.238    -2.453    3.856
    13    N    -12.639    -4.044    0.810
    14    H    -12.766    -3.803    -0.151
    15    H    -12.760    -4.995    1.093
    16    N    -12.398    -3.502    3.032
    17    C    -12.484    -3.136    1.754
    18    N    -12.443    -1.825    1.339
    19    H    -12.579    -1.624    0.366
    20    C    -12.318    -0.726    2.181
    21    O    -12.314    0.435    1.760
    22    C    -12.174    -1.110    3.536
    23    N    -12.007    -0.333    4.674
    24    C    -11.981    -1.207    5.652
    25    H    -11.864    -0.968    6.711
    26    C    -10.974    -4.567    5.981
    27    H    -10.420    -4.358    5.053
    28    O    -11.291    -5.942    6.017
    29    H    -10.449    -6.405    5.888
    30    C    -10.184    -4.150    7.220
    31    H    -9.629    -3.201    7.037
    32    O    -9.340    -5.162    7.797
    33    P    -8.021    -5.773    7.215
    34    O    -7.763    -7.041    7.931
    35    O    -6.972    -4.733    7.274
    36    O    -8.324    -6.105    5.710
    37    C    -8.386    -7.429    5.133
    38    H    -9.247    -7.992    5.569
    39    H    -7.464    -8.012    5.357
    40    C    -8.581    -7.394    3.591
    41    H    -8.982    -8.367    3.236
    42    O    -9.574    -6.374    3.258
    43    C    -9.180    -5.668    2.090
    44    H    -10.053    -5.706    1.401
    45    N    -8.895    -4.243    2.376
    46    C    -8.848    -3.203    1.483
    47    N    -8.836    -2.037    -1.774
    48    H    -9.078    -2.847    -2.303
    49    H    -8.784    -1.155    -2.231
    50    N    -8.998    -3.297    0.153
    51    C    -8.815    -2.125    -0.458
    52    N    -8.589    -0.947    0.215
    53    H    -8.475    -0.104    -0.321
    54    C    -8.501    -0.812    1.592
    55    O    -8.303    0.289    2.119
    56    C    -8.618    -2.068    2.245
    57    N    -8.497    -2.391    3.586
    58    C    -8.652    -3.686    3.607
    59    H    -8.592    -4.295    4.500
    60    C    -8.021    -6.421    1.470
    61    H    -7.318    -5.762    0.918
    62    O    -8.540    -7.412    0.596
    63    H    -7.804    -7.981    0.326
    64    C    -7.348    -7.052    2.692
    65    H    -6.755    -6.292    3.247
    66    O    -6.576    -8.234    2.373
    67    P    -5.006    -8.292    2.204
    68    O    -4.603    -9.709    2.102
    69    O    -4.380    -7.538    3.314
    70    O    -4.616    -7.571    0.852
    71    C    -4.260    -8.189    -0.423
    72    H    -4.819    -9.147    -0.536
    73    H    -3.179    -8.447    -0.437
    74    C    -4.593    -7.338    -1.719
    75    H    -5.080    -8.012    -2.455
    76    O    -5.598    -6.374    -1.314
    77    C    -5.323    -5.092    -1.810
    78    H    -6.285    -4.848    -2.322
    79    N    -5.171    -4.047    -0.815
    80    C    -4.857    -4.364    0.485
    81    H    -4.714    -5.414    0.707
    82    C    -4.816    -3.426    1.422
    83    H    -4.696    -3.654    2.483
    84    C    -5.287    -2.714    -1.203
    85    O    -5.428    -2.423    -2.410
    86    N    -5.287    -1.760    -0.264
    87    C    -5.165    -2.121    1.024
    88    N    -5.529    -1.281    1.934
    89    H    -5.855    -0.392    1.626
    90    H    -5.018    -1.249    2.795
    91    C    -4.211    -5.137    -2.789
    92    H    -3.479    -4.304    -2.700
    93    O    -4.854    -5.095    -4.039
    94    H    -5.031    -6.011    -4.299
    95    C    -3.524    -6.479    -2.537
    96    H    -2.652    -6.349    -1.857
    97    O    -3.112    -7.102    -3.784
    98    P    -2.180    -6.488    -4.952
    99    O    -2.246    -7.458    -6.072
    100    O    -0.847    -6.260    -4.359
    101    O    -2.655    -5.077    -5.532
    102    C    -2.321    -4.578    -6.867
    103    H    -3.194    -4.796    -7.522
    104    H    -1.460    -5.122    -7.317
    105    C    -2.048    -3.028    -7.044
    106    H    -2.547    -2.680    -7.973
    107    O    -2.653    -2.276    -5.951
    108    C    -1.741    -1.332    -5.426
    109    H    -2.296    -0.370    -5.325
    110    N    -1.253    -1.728    -4.118
    111    C    -0.493    -1.760    -2.072
    112    N    -0.712    -3.079    -2.417
    113    C    -1.151    -3.005    -3.637
    114    H    -1.392    -3.862    -4.250
    115    N    0.053    0.165    -0.832
    116    C    -0.226    0.865    -1.938
    117    H    -0.090    1.948    -1.851
    118    N    -0.676    0.433    -3.123
    119    C    -0.805    -0.908    -3.113
    120    C    -0.057    -1.183    -0.876
    121    N    0.229    -1.949    0.185
    122    H    0.197    -2.951    0.131
    123    H    0.461    -1.542    1.072
    124    C    -0.623    -1.161    -6.396
    125    H    0.335    -0.941    -5.888
    126    O    -0.909    -0.103    -7.289
    127    H    -1.430    -0.459    -8.023
    128    C    -0.567    -2.512    -7.104
    129    H    0.038    -3.243    -6.523
    130    O    -0.095    -2.401    -8.462
    131    P    1.397    -1.975    -8.831
    132    O    1.395    -1.314    -10.165
    133    O    2.191    -3.215    -8.705
    134    O    1.943    -0.967    -7.741
    135    C    2.607    0.273    -8.089
    136    H    1.964    0.874    -8.770
    137    H    3.558    0.056    -8.629
    138    C    2.957    1.184    -6.883
    139    H    2.966    2.252    -7.200
    140    O    1.987    1.060    -5.799
    141    C    2.674    1.118    -4.551
    142    H    2.148    1.882    -3.928
    143    N    2.685    -0.194    -3.839
    144    C    2.398    -1.381    -4.466
    145    H    2.190    -1.309    -5.531
    146    C    2.366    -2.536    -3.789
    147    H    2.083    -3.478    -4.257
    148    C    3.020    -0.201    -2.502
    149    O    3.264    0.887    -1.965
    150    N    3.061    -1.354    -1.801
    151    C    2.688    -2.499    -2.399
    152    N    2.611    -3.601    -1.666
    153    H    2.884    -3.559    -0.708
    154    H    2.400    -4.498    -2.057
    155    C    4.082    1.594    -4.846
    156    H    4.824    1.248    -4.094
    157    O    4.114    3.010    -4.938
    158    H    5.013    3.281    -5.179
    159    C    4.297    0.908    -6.184
    160    H    4.322    -0.195    -6.013
    161    O    5.414    1.410    -6.950
    162    P    6.502    0.357    -7.425
    163    O    7.298    0.949    -8.525
    164    O    5.863    -0.946    -7.684
    165    O    7.421    0.206    -6.161
    166    C    8.106    1.374    -5.647
    167    H    7.487    2.300    -5.697
    168    H    9.036    1.552    -6.236
    169    C    8.503    1.184    -4.187
    170    H    9.005    2.096    -3.796
    171    O    7.334    0.926    -3.357
    172    C    7.723    0.068    -2.290
    173    H    7.511    0.633    -1.352
    174    N    6.979    -1.225    -2.299
    175    C    6.399    -1.703    -3.455
    176    H    6.464    -1.039    -4.320
    177    C    6.923    -1.954    -1.129
    178    O    7.453    -1.585    -0.086
    179    N    6.227    -3.130    -1.214
    180    H    6.240    -3.720    -0.397
    181    C    5.706    -3.712    -2.347
    182    O    5.214    -4.838    -2.294
    183    C    5.774    -2.888    -3.518
    184    H    5.331    -3.259    -4.440
    185    C    9.226    -0.136    -2.427
    186    H    9.569    -1.117    -2.038
    187    O    9.925    0.917    -1.799
    188    H    10.836    0.625    -1.716
    189    C    9.389    -0.028    -3.928
    190    H    8.895    -0.883    -4.443
    191    O    10.733    0.219    -4.398
    192    P    11.643    -1.039    -4.666
    193    O    12.515    -0.727    -5.821
    194    O    10.812    -2.262    -4.751
    195    O    12.499    -1.112    -3.346
    196    C    13.706    -1.912    -3.325
    197    H    14.226    -1.931    -4.311
    198    H    13.467    -2.965    -3.056
    199    C    14.727    -1.365    -2.324
    200    H    15.660    -1.970    -2.393
    201    O    15.055    0.021    -2.640
    202    C    14.816    0.834    -1.513
    203    H    15.806    0.902    -1.000
    204    N    14.292    2.160    -1.928
    205    C    13.195    2.242    -2.756
    206    H    12.799    1.285    -3.100
    207    C    14.916    3.295    -1.465
    208    O    15.889    3.261    -0.717
    209    N    14.375    4.475    -1.904
    210    H    14.814    5.310    -1.557
    211    C    13.281    4.640    -2.727
    212    O    12.902    5.772    -3.026
    213    C    12.682    3.412    -3.169
    214    H    11.832    3.459    -3.847
    215    C    13.855    0.090    -0.608
    216    H    12.804    0.246    -0.934
    217    O    14.029    0.476    0.745
    218    H    13.352    0.061    1.300
    219    C    14.245    -1.368    -0.860
    220    H    13.311    -1.978    -0.816
    221    O    15.274    -1.851    0.030
    222    P    15.201    -3.334    0.565
    223    O    16.276    -3.529    1.561
    224    O    15.193    -4.255    -0.594
    225    O    13.808    -3.449    1.269
    226    C    13.638    -3.275    2.691
    227    H    13.695    -2.193    2.949
    228    H    14.426    -3.805    3.276
    229    C    12.284    -3.808    3.185
    230    H    12.045    -3.355    4.174
    231    O    11.209    -3.470    2.268
    232    C    10.579    -4.651    1.817
    233    H    9.705    -4.786    2.491
    234    N    10.159    -4.543    0.403
    235    C    11.015    -3.947    -0.488
    236    H    11.940    -3.556    -0.062
    237    C    10.694    -3.820    -1.781
    238    H    11.348    -3.332    -2.500
    239    C    8.949    -5.075    -0.036
    240    O    8.187    -5.609    0.784
    241    N    8.625    -4.983    -1.350
    242    C    9.448    -4.357    -2.210
    243    N    9.091    -4.223    -3.488
    244    H    9.651    -3.666    -4.113
    245    H    8.253    -4.653    -3.818
    246    C    11.553    -5.785    2.040
    247    H    12.301    -5.822    1.216
    248    O    10.902    -7.031    2.184
    249    H    10.416    -6.994    3.024
    250    C    12.239    -5.341    3.334
    251    H    13.284    -5.732    3.303
    252    O    11.526    -5.736    4.530
    253    P    12.320    -6.085    5.850
    254    O    13.713    -6.470    5.526
    255    O    11.530    -7.090    6.596
    256    O    12.340    -4.753    6.690
    257    C    11.112    -4.140    7.162
    258    H    10.741    -4.668    8.070
    259    H    10.315    -4.187    6.382
    260    C    11.295    -2.644    7.506
    261    H    11.782    -2.537    8.497
    262    O    12.185    -2.015    6.543
    263    C    11.857    -0.654    6.408
    264    H    12.729    -0.104    6.828
    265    N    11.694    -0.280    5.006
    266    C    10.740    -0.666    4.089
    267    N    7.916    -2.482    3.216
    268    H    7.393    -2.694    2.400
    269    H    7.736    -2.986    4.058
    270    N    9.694    -1.491    4.296
    271    C    8.971    -1.687    3.201
    272    N    9.239    -1.075    2.005
    273    H    8.657    -1.292    1.215
    274    C    10.312    -0.228    1.775
    275    O    10.544    0.300    0.689
    276    C    11.086    -0.009    2.927
    277    N    12.215    0.781    3.105
    278    C    12.550    0.572    4.351
    279    H    13.413    1.021    4.850
    280    C    10.626    -0.359    7.248
    281    H    9.889    0.287    6.722
    282    O    11.026    0.255    8.459
    283    H    10.275    0.216    9.071
    284    C    10.037    -1.754    7.479
    285    H    9.463    -2.080    6.589
    286    O    9.267    -1.887    8.692
    287    P    7.687    -1.800    8.654
    288    O    7.200    -1.580    10.034
    289    O    7.133    -2.996    7.980
    290    O    7.325    -0.544    7.783
    291    C    6.957    0.735    8.355
    292    H    7.779    1.099    9.013
    293    H    6.044    0.641    8.985
    294    C    6.688    1.847    7.303
    295    H    7.123    2.801    7.681
    296    O    7.343    1.522    6.022
    297    C    6.431    1.781    4.962
    298    H    7.016    2.242    4.134
    299    N    5.758    0.553    4.482
    300    C    5.253    0.376    3.228
    301    N    4.795    1.559    0.049
    302    H    5.107    2.506    0.130
    303    H    4.300    1.279    -0.780
    304    N    5.321    1.264    2.235
    305    C    4.752    0.821    1.125
    306    N    4.098    -0.388    1.025
    307    H    3.673    -0.642    0.149
    308    C    3.988    -1.313    2.057
    309    O    3.388    -2.383    1.915
    310    C    4.650    -0.867    3.232
    311    N    4.801    -1.481    4.465
    312    C    5.479    -0.609    5.172
    313    H    5.790    -0.757    6.202
    314    C    5.442    2.776    5.523
    315    H    4.508    2.852    4.928
    316    O    6.069    4.045    5.611
    317    H    6.918    3.932    6.068
    318    C    5.208    2.157    6.901
    319    H    4.690    1.178    6.803
    320    O    4.543    3.011    7.864
    321    P    2.961    2.944    8.074
    322    O    2.645    3.745    9.274
    323    O    2.539    1.524    8.120
    324    O    2.245    3.622    6.850
    325    C    2.156    5.057    6.644
    326    H    3.147    5.521    6.865
    327    H    1.412    5.505    7.337
    328    C    1.813    5.474    5.173
    329    H    2.300    6.452    4.963
    330    O    2.446    4.497    4.294
    331    C    1.630    4.197    3.193
    332    H    2.286    4.401    2.312
    333    N    1.218    2.773    3.130
    334    C    1.351    1.923    4.203
    335    H    1.743    2.366    5.112
    336    C    0.778    2.313    1.910
    337    O    0.683    3.031    0.922
    338    N    0.464    0.984    1.879
    339    H    0.212    0.652    0.952
    340    C    0.586    0.072    2.907
    341    O    0.285    -1.105    2.736
    342    C    1.062    0.617    4.134
    343    H    1.187    -0.050    4.984
    344    C    0.473    5.164    3.186
    345    H    -0.472    4.721    2.807
    346    O    0.865    6.254    2.380
    347    H    1.441    6.820    2.911
    348    C    0.328    5.590    4.648
    349    H    -0.274    4.855    5.229
    350    O    -0.200    6.931    4.794
    351    P    -1.538    7.588    4.198
    352    O    -1.430    9.042    4.451
    353    O    -2.701    6.910    4.819
    354    O    -1.663    7.390    2.627
    355    C    -2.364    8.220    1.636
    356    H    -1.930    9.246    1.674
    357    H    -3.436    8.314    1.902
    358    C    -2.278    7.763    0.099
    359    H    -1.656    8.508    -0.439
    360    O    -1.515    6.533    0.070
    361    C    -2.285    5.469    -0.430
    362    H    -1.539    4.888    -1.024
    363    N    -2.798    4.527    0.512
    364    C    -3.233    3.282    0.140
    365    N    -3.971    0.907    -2.300
    366    H    -4.361    -0.011    -2.353
    367    H    -3.698    1.386    -3.129
    368    N    -3.256    2.760    -1.118
    369    C    -3.786    1.539    -1.147
    370    N    -4.101    0.856    -0.007
    371    H    -4.538    -0.053    -0.106
    372    C    -3.974    1.367    1.299
    373    O    -4.189    0.807    2.359
    374    C    -3.587    2.695    1.311
    375    N    -3.461    3.554    2.395
    376    C    -2.989    4.640    1.863
    377    H    -2.756    5.539    2.418
    378    C    -3.349    5.994    -1.301
    379    H    -4.309    5.442    -1.243
    380    O    -2.813    5.899    -2.603
    381    H    -2.265    6.681    -2.744
    382    C    -3.556    7.438    -0.838
    383    H    -4.446    7.522    -0.178
    384    O    -3.699    8.304    -1.994
    385    P    -4.733    8.209    -3.244
    386    O    -4.090    8.928    -4.371
    387    O    -6.008    8.769    -2.764
    388    O    -5.098    6.729    -3.756
    389    C    -5.521    6.448    -5.141
    390    H    -4.633    6.527    -5.805
    391    H    -6.248    7.205    -5.509
    392    C    -6.131    5.022    -5.464
    393    H    -5.886    4.767    -6.515
    394    O    -5.497    3.993    -4.649
    395    C    -6.465    3.036    -4.222
    396    H    -6.037    2.038    -4.472
    397    N    -6.732    3.095    -2.761
    398    C    -6.443    4.242    -2.064
    399    H    -5.935    5.020    -2.628
    400    C    -6.701    4.356    -0.756
    401    H    -6.453    5.251    -0.191
    402    C    -7.368    2.036    -2.113
    403    O    -7.710    1.038    -2.764
    404    N    -7.598    2.116    -0.783
    405    C    -7.294    3.235    -0.108
    406    N    -7.546    3.281    1.193
    407    H    -7.966    2.480    1.618
    408    H    -7.360    4.093    1.746
    409    C    -7.727    3.249    -5.026
    410    H    -8.646    3.010    -4.444
    411    O    -7.711    2.454    -6.203
    412    H    -8.566    2.581    -6.646
    413    C    -7.666    4.760    -5.305
    414    H    -7.960    5.326    -4.393
    415    O    -8.429    5.182    -6.473
    416    P    -10.019    5.159    -6.365
    417    O    -10.583    5.960    -7.474
    418    O    -10.395    5.587    -4.999
    419    O    -10.451    3.664    -6.574
    420    C    -11.714    3.309    -7.208
    421    H    -11.588    3.326    -8.314
    422    H    -12.521    4.046    -6.965
    423    C    -12.244    1.896    -6.825
    424    H    -12.371    1.268    -7.732
    425    O    -11.292    1.206    -5.965
    426    C    -11.966    0.488    -4.957
    427    H    -11.668    -0.569    -5.137
    428    N    -11.554    0.895    -3.593
    429    C    -11.296    2.216    -3.307
    430    H    -11.372    2.917    -4.144
    431    C    -10.935    2.595    -2.072
    432    H    -10.723    3.631    -1.817
    433    C    -11.463    -0.070    -2.594
    434    O    -11.700    -1.254    -2.877
    435    N    -11.120    0.299    -1.340
    436    C    -10.846    1.585    -1.068
    437    N    -10.522    1.917    0.177
    438    H    -10.676    1.226    0.880
    439    H    -10.375    2.865    0.451
    440    C    -13.464    0.609    -5.175
    441    H    -14.016    0.765    -4.218
    442    O    -13.959    -0.555    -5.819
    443    H    -14.898    -0.426    -6.040
    444    C    -13.570    1.869    -6.039
    445    H    -13.577    2.770    -5.390
    446    O    -14.702    1.878    -6.931
    447    H    -15.533    1.837    -6.420
 $END
