!*** FMO 5.3 (Gamess) INPUT generated by Facio 22.1.1.32 ***
 $CONTRL RUNTYP=ENERGY NPRINT=-5 ISPHER=1 MAXIT=200 $END
 $SYSTEM MWORDS=63 MEMDDI=63 $END
 $GDDI NGROUP=1 $END
 $SCF DIRSCF=.TRUE. NPUNCH=0 $END
!*** NumCPU : 2  MemPerNode : 512MB
 $PCM SOLVNT=WATER IEF=-10 ICOMP=2 ICAV=1 IDISP=1 IFMO=-1 $END
 $PCMCAV RADII=SUAHF $END
 $TESCAV NTSALL=60 $END
 $FMOPRP
    NAODIR=200
    NGRFMO(1)=1, 1, 0, 0, 0,   0, 0, 0, 0, 0
    IPIEDA=1
    NPRINT=9
 $END
 $FMO
      SCFTYP(1)=RHF
      MODGRD=10
      MODMUL=0
      MAXCAO=5
      MAXBND=16
      NLAYER=1
      MPLEVL(1)=2
      NFRAG=14
      ICHARG(1)=-1, -1, -1, -1, -1, -1, -1, -1, -1, -1, -1, -1, -1, 0
      FRGNAM(1)=F1, F2, F3, F4, F5, F6, F7, F8, F9, F10, F11, F12, F13, F14
      indat(1)=0
               1   -36   0
               37   -70   0
               71   -101   0
               102   -134   0
               135   -165   0
               166   -195   0
               196   -225   0
               226   -256   0
               257   -290   0
               291   -324   0
               325   -354   0
               355   -388   0
               389   -419   0
               420   -447   0
 $END

 $FMOBND
   -37   36       6-31G*    MINI
   -71   70       6-31G*    MINI
   -102   101       6-31G*    MINI
   -135   134       6-31G*    MINI
   -166   165       6-31G*    MINI
   -196   195       6-31G*    MINI
   -226   225       6-31G*    MINI
   -257   256       6-31G*    MINI
   -291   290       6-31G*    MINI
   -325   324       6-31G*    MINI
   -355   354       6-31G*    MINI
   -389   388       6-31G*    MINI
   -420   419       6-31G*    MINI
 $END
 $FMOHYB
 6-31G*      15   5
   1 0  -0.065034   0.288264   0.000000   0.000000   0.604412
         0.290129   0.000000   0.000000   0.319045  -0.017106
        -0.017106   0.057934   0.000000   0.000000   0.000000
   0 1  -0.065040   0.288293   0.569832   0.000000  -0.201456
         0.290147   0.300783   0.000000  -0.106342   0.049598
        -0.017106  -0.008771   0.000000  -0.027223   0.000000
   0 1  -0.065039   0.288293  -0.284916  -0.493490  -0.201455
         0.290145  -0.150392  -0.260486  -0.106340  -0.000427
         0.032923  -0.008771   0.033353   0.013612   0.023576
   0 1  -0.065039   0.288293  -0.284916   0.493490  -0.201455
         0.290145  -0.150392   0.260486  -0.106340  -0.000427
         0.032923  -0.008771  -0.033353   0.013612  -0.023576
   0 1   1.010938  -0.011975   0.000000   0.000000   0.000000
        -0.054085   0.000000   0.000000  -0.000000  -0.003174
        -0.003174  -0.003174   0.000000   0.000000   0.000000
 MINI         5   5
   1 0  -0.104883   0.308874   0.000000   0.000000   0.521806
   0 1  -0.104883   0.308874   0.491961   0.000000  -0.173934
   0 1  -0.104883   0.308876  -0.245980  -0.426050  -0.173933
   0 1  -0.104883   0.308876  -0.245980   0.426050  -0.173933
   0 1   0.988209   0.063992   0.000000   0.000000   0.000000
 $END
 
 $DATA
 FMO calculation
 C1 
 H.1-1    1
      N31 6
   
 O.1-1    8
      N31 6
      d 1
      1 0.800 1.0
   
 C.1-1    6
      N31 6
      d 1
      1 0.800 1.0
   
 N.1-1    7
      N31 6
      d 1
      1 0.800 1.0
   
 P.1-1   15
      N31 6
      d 1
      1 0.550 1.0
   
 $END
 $FMOXYZ
    1    H    -8.332    -8.468    8.971
    2    O    -8.820    -8.058    8.233
    3    C    -9.944    -8.910    7.967
    4    H    -10.521    -9.037    8.912
    5    H    -9.583    -9.913    7.652
    6    C    -10.898    -8.365    6.897
    7    H    -11.794    -9.016    6.826
    8    O    -11.365    -7.051    7.300
    9    C    -11.453    -6.220    6.162
    10    H    -12.483    -5.793    6.153
    11    N    -10.495    -5.127    6.216
    12    C    -10.558    -4.024    5.429
    13    N    -12.186    -2.228    2.992
    14    H    -12.859    -2.893    2.678
    15    H    -12.060    -1.392    2.451
    16    N    -11.485    -3.791    4.490
    17    C    -11.353    -2.600    3.939
    18    N    -10.394    -1.697    4.327
    19    H    -10.332    -0.835    3.816
    20    C    -9.414    -1.918    5.292
    21    O    -8.576    -1.065    5.595
    22    C    -9.530    -3.209    5.855
    23    N    -8.796    -3.820    6.864
    24    C    -9.396    -4.976    7.028
    25    H    -9.107    -5.746    7.747
    26    C    -11.252    -7.069    4.946
    27    H    -10.783    -6.517    4.108
    28    O    -12.498    -7.596    4.528
    29    H    -12.627    -8.445    4.974
    30    C    -10.336    -8.164    5.471
    31    H    -9.281    -7.811    5.566
    32    O    -10.431    -9.393    4.739
    33    P    -10.023    -9.526    3.217
    34    O    -10.469    -10.877    2.794
    35    O    -8.587    -9.218    3.114
    36    O    -10.778    -8.434    2.368
    37    C    -11.058    -8.695    0.971
    38    H    -12.095    -9.088    0.890
    39    H    -10.387    -9.465    0.528
    40    C    -10.950    -7.466    0.053
    41    H    -11.635    -7.617    -0.812
    42    O    -11.351    -6.226    0.715
    43    C    -10.553    -5.175    0.185
    44    H    -11.227    -4.336    -0.103
    45    N    -9.557    -4.726    1.161
    46    C    -8.783    -3.627    1.014
    47    N    -7.621    -1.173    -1.034
    48    H    -8.401    -1.145    -1.661
    49    H    -7.203    -0.281    -0.869
    50    N    -8.821    -2.795    -0.030
    51    C    -7.852    -1.911    0.012
    52    N    -7.008    -1.743    1.081
    53    H    -6.351    -0.989    1.045
    54    C    -6.975    -2.575    2.202
    55    O    -6.181    -2.393    3.126
    56    C    -7.941    -3.608    2.106
    57    N    -8.174    -4.707    2.923
    58    C    -9.142    -5.354    2.313
    59    H    -9.594    -6.301    2.624
    60    C    -9.859    -5.738    -1.036
    61    H    -8.935    -5.186    -1.312
    62    O    -10.751    -5.781    -2.139
    63    H    -10.366    -6.372    -2.807
    64    C    -9.554    -7.125    -0.517
    65    H    -8.854    -7.096    0.350
    66    O    -9.135    -8.040    -1.543
    67    P    -7.642    -8.557    -1.595
    68    O    -7.656    -9.837    -2.331
    69    O    -7.005    -8.573    -0.262
    70    O    -6.892    -7.490    -2.459
    71    C    -5.731    -7.828    -3.274
    72    H    -5.960    -8.673    -3.968
    73    H    -4.891    -8.157    -2.617
    74    C    -5.214    -6.648    -4.148
    75    H    -5.396    -6.846    -5.224
    76    O    -5.946    -5.425    -3.817
    77    C    -5.052    -4.346    -3.724
    78    H    -5.516    -3.533    -4.330
    79    N    -4.840    -3.882    -2.327
    80    C    -4.974    -4.718    -1.239
    81    H    -5.342    -5.727    -1.449
    82    C    -4.694    -4.284    0.001
    83    H    -4.776    -4.921    0.882
    84    C    -4.345    -2.600    -2.156
    85    O    -4.114    -1.920    -3.164
    86    N    -4.120    -2.115    -0.916
    87    C    -4.239    -2.935    0.141
    88    N    -3.940    -2.445    1.338
    89    H    -3.499    -1.551    1.407
    90    H    -4.038    -2.982    2.182
    91    C    -3.760    -4.778    -4.372
    92    H    -2.876    -4.223    -3.991
    93    O    -3.852    -4.623    -5.778
    94    H    -3.005    -4.911    -6.151
    95    C    -3.721    -6.245    -3.960
    96    H    -3.509    -6.337    -2.871
    97    O    -2.833    -7.079    -4.743
    98    P    -1.262    -6.936    -4.519
    99    O    -0.590    -8.180    -4.952
    100    O    -1.021    -6.500    -3.125
    101    O    -0.809    -5.789    -5.475
    102    C    -0.021    -5.900    -6.689
    103    H    -0.547    -6.562    -7.410
    104    H    0.961    -6.369    -6.478
    105    C    0.231    -4.541    -7.425
    106    H    -0.066    -4.632    -8.491
    107    O    -0.648    -3.541    -6.833
    108    C    0.056    -2.388    -6.491
    109    H    -0.555    -1.550    -6.903
    110    N    0.165    -2.216    -5.031
    111    C    0.316    -1.220    -3.075
    112    N    0.253    -2.580    -2.808
    113    C    0.163    -3.128    -3.997
    114    H    0.111    -4.202    -4.169
    115    N    0.368    1.120    -2.860
    116    C    0.323    1.171    -4.194
    117    H    0.322    2.155    -4.656
    118    N    0.274    0.181    -5.072
    119    C    0.251    -0.994    -4.440
    120    C    0.404    -0.082    -2.246
    121    N    0.543    -0.111    -0.906
    122    H    0.610    -0.980    -0.405
    123    H    0.788    0.724    -0.417
    124    C    1.392    -2.416    -7.196
    125    H    2.158    -1.929    -6.579
    126    O    1.320    -1.720    -8.424
    127    H    2.170    -1.843    -8.868
    128    C    1.673    -3.913    -7.382
    129    H    2.184    -4.329    -6.484
    130    O    2.398    -4.234    -8.586
    131    P    3.911    -4.101    -9.004
    132    O    3.942    -4.202    -10.481
    133    O    4.668    -5.110    -8.236
    134    O    4.461    -2.681    -8.615
    135    C    5.889    -2.299    -8.688
    136    H    6.261    -2.435    -9.729
    137    H    6.505    -2.961    -8.041
    138    C    6.214    -0.801    -8.292
    139    H    6.528    -0.229    -9.192
    140    O    4.939    -0.207    -7.865
    141    C    5.073    0.393    -6.604
    142    H    4.465    1.328    -6.665
    143    N    4.573    -0.438    -5.473
    144    C    4.256    -1.771    -5.573
    145    H    4.344    -2.201    -6.556
    146    C    3.786    -2.473    -4.530
    147    H    3.495    -3.518    -4.604
    148    C    4.399    0.199    -4.264
    149    O    4.657    1.408    -4.185
    150    N    3.993    -0.503    -3.189
    151    C    3.709    -1.804    -3.281
    152    N    3.380    -2.450    -2.172
    153    H    3.365    -1.942    -1.312
    154    H    3.083    -3.409    -2.167
    155    C    6.528    0.751    -6.460
    156    H    6.846    0.864    -5.410
    157    O    6.777    1.964    -7.156
    158    H    7.739    2.057    -7.265
    159    C    7.222    -0.445    -7.100
    160    H    7.234    -1.313    -6.412
    161    O    8.550    -0.080    -7.517
    162    P    10.056    -0.427    -7.177
    163    O    10.869    0.526    -7.966
    164    O    10.270    -1.866    -7.434
    165    O    10.424    -0.156    -5.648
    166    C    11.505    -0.917    -4.962
    167    H    12.469    -0.789    -5.509
    168    H    11.262    -2.002    -4.995
    169    C    11.808    -0.589    -3.426
    170    H    12.755    -0.016    -3.342
    171    O    10.736    0.298    -2.946
    172    C    10.098    -0.298    -1.824
    173    H    9.743    0.533    -1.172
    174    N    8.962    -1.202    -2.226
    175    C    8.690    -1.486    -3.538
    176    H    9.062    -0.746    -4.213
    177    C    8.224    -1.806    -1.252
    178    O    8.414    -1.586    -0.068
    179    N    7.250    -2.663    -1.670
    180    H    6.857    -3.249    -0.948
    181    C    7.038    -3.094    -2.956
    182    O    6.206    -3.962    -3.195
    183    C    7.811    -2.410    -3.936
    184    H    7.638    -2.634    -4.984
    185    C    11.184    -1.065    -1.129
    186    H    10.810    -1.810    -0.394
    187    O    12.096    -0.186    -0.483
    188    H    12.840    -0.722    -0.173
    189    C    11.810    -1.755    -2.322
    190    H    11.138    -2.553    -2.713
    191    O    13.112    -2.275    -1.966
    192    P    13.308    -3.768    -1.427
    193    O    14.709    -4.118    -1.746
    194    O    12.280    -4.635    -2.045
    195    O    13.132    -3.901    0.187
    196    C    13.227    -5.319    0.629
    197    H    14.153    -5.784    0.204
    198    H    12.397    -5.906    0.186
    199    C    13.303    -5.720    2.166
    200    H    13.161    -6.826    2.183
    201    O    14.648    -5.506    2.642
    202    C    14.634    -4.582    3.710
    203    H    14.859    -5.180    4.628
    204    N    15.618    -3.527    3.464
    205    C    15.648    -2.933    2.226
    206    H    14.991    -3.384    1.481
    207    C    16.368    -3.052    4.507
    208    O    16.286    -3.507    5.644
    209    N    17.213    -2.024    4.177
    210    H    17.730    -1.626    4.947
    211    C    17.327    -1.395    2.952
    212    O    18.143    -0.489    2.797
    213    C    16.457    -1.909    1.937
    214    H    16.492    -1.473    0.942
    215    C    13.244    -4.002    3.799
    216    H    13.100    -3.149    3.098
    217    O    12.939    -3.612    5.119
    218    H    12.751    -4.410    5.626
    219    C    12.412    -5.170    3.330
    220    H    11.468    -4.780    2.909
    221    O    12.190    -6.175    4.353
    222    P    11.038    -6.250    5.430
    223    O    11.626    -6.124    6.782
    224    O    10.270    -7.481    5.153
    225    O    10.118    -5.021    5.172
    226    C    9.158    -4.509    6.120
    227    H    9.686    -3.789    6.787
    228    H    8.750    -5.320    6.770
    229    C    7.958    -3.746    5.479
    230    H    7.788    -2.794    6.028
    231    O    8.161    -3.444    4.057
    232    C    7.281    -4.237    3.275
    233    H    6.418    -3.573    3.041
    234    N    7.913    -4.726    2.028
    235    C    9.174    -5.220    2.116
    236    H    9.603    -5.177    3.103
    237    C    9.836    -5.674    1.052
    238    H    10.829    -6.086    1.140
    239    C    7.259    -4.738    0.801
    240    O    6.100    -4.307    0.720
    241    N    7.910    -5.195    -0.297
    242    C    9.180    -5.623    -0.205
    243    N    9.825    -5.986    -1.310
    244    H    10.824    -5.932    -1.369
    245    H    9.322    -5.996    -2.173
    246    C    6.819    -5.345    4.191
    247    H    7.620    -6.110    4.316
    248    O    5.615    -5.950    3.775
    249    H    4.930    -5.264    3.812
    250    C    6.643    -4.558    5.485
    251    H    6.628    -5.270    6.337
    252    O    5.480    -3.698    5.470
    253    P    4.653    -3.288    6.743
    254    O    4.739    -4.354    7.777
    255    O    3.289    -2.955    6.288
    256    O    5.314    -1.983    7.311
    257    C    5.120    -0.595    6.886
    258    H    4.161    -0.222    7.299
    259    H    5.063    -0.534    5.782
    260    C    6.257    0.395    7.355
    261    H    6.004    0.768    8.368
    262    O    7.442    -0.430    7.527
    263    C    8.607    0.287    7.291
    264    H    9.176    0.209    8.245
    265    N    9.404    -0.277    6.216
    266    C    9.103    -0.479    4.888
    267    N    6.957    -0.202    2.181
    268    H    6.990    -0.399    1.209
    269    H    6.133    0.192    2.586
    270    N    7.946    -0.189    4.258
    271    C    7.994    -0.430    2.965
    272    N    9.127    -0.842    2.330
    273    H    9.040    -1.111    1.367
    274    C    10.314    -1.196    2.938
    275    O    11.269    -1.598    2.274
    276    C    10.277    -0.938    4.327
    277    N    11.292    -0.994    5.270
    278    C    10.719    -0.617    6.380
    279    H    11.214    -0.549    7.352
    280    C    8.251    1.719    7.016
    281    H    8.899    2.180    6.238
    282    O    8.360    2.453    8.223
    283    H    7.824    3.254    8.115
    284    C    6.809    1.641    6.519
    285    H    6.739    1.375    5.454
    286    O    6.129    2.885    6.745
    287    P    6.025    4.206    5.856
    288    O    5.988    5.329    6.816
    289    O    4.829    4.036    5.013
    290    O    7.241    4.551    4.848
    291    C    6.944    5.726    3.944
    292    H    7.032    6.665    4.534
    293    H    5.898    5.683    3.553
    294    C    7.816    5.963    2.635
    295    H    8.510    6.813    2.817
    296    O    8.661    4.770    2.464
    297    C    8.420    4.228    1.178
    298    H    9.327    3.675    0.844
    299    N    7.224    3.359    1.173
    300    C    6.808    2.613    0.125
    301    N    7.328    1.313    -3.007
    302    H    6.735    0.932    -3.705
    303    H    8.200    1.735    -3.259
    304    N    7.456    2.464    -1.037
    305    C    6.816    1.638    -1.845
    306    N    5.610    1.067    -1.533
    307    H    5.113    0.557    -2.248
    308    C    4.873    1.271    -0.387
    309    O    3.775    0.747    -0.180
    310    C    5.589    2.079    0.511
    311    N    5.271    2.439    1.795
    312    C    6.269    3.185    2.152
    313    H    6.354    3.602    3.135
    314    C    8.172    5.432    0.309
    315    H    7.768    5.180    -0.695
    316    O    9.372    6.185    0.168
    317    H    9.665    6.445    1.056
    318    C    7.142    6.156    1.170
    319    H    6.162    5.630    1.160
    320    O    6.978    7.513    0.725
    321    P    5.776    8.341    0.105
    322    O    6.322    9.695    -0.132
    323    O    4.635    8.268    1.040
    324    O    5.238    7.832    -1.324
    325    C    4.249    8.731    -2.006
    326    H    4.764    9.383    -2.746
    327    H    3.718    9.409    -1.277
    328    C    3.097    7.970    -2.748
    329    H    2.537    7.530    -1.900
    330    O    3.609    6.922    -3.617
    331    C    2.486    6.130    -3.893
    332    H    2.690    5.558    -4.830
    333    N    2.255    5.202    -2.726
    334    C    2.986    5.290    -1.541
    335    H    3.864    5.932    -1.549
    336    C    1.294    4.255    -2.854
    337    O    0.663    4.110    -3.895
    338    N    1.054    3.523    -1.720
    339    H    0.513    2.684    -1.883
    340    C    1.632    3.661    -0.476
    341    O    1.239    2.991    0.472
    342    C    2.650    4.650    -0.422
    343    H    3.143    4.858    0.526
    344    C    1.325    7.138    -4.129
    345    H    0.410    6.807    -3.596
    346    O    1.062    7.300    -5.511
    347    H    0.349    7.951    -5.635
    348    C    1.891    8.465    -3.580
    349    H    2.330    9.057    -4.414
    350    O    0.999    9.300    -2.851
    351    P    -0.448    9.320    -2.239
    352    O    -0.861    10.745    -2.341
    353    O    -0.412    8.778    -0.875
    354    O    -1.523    8.508    -3.082
    355    C    -2.922    8.890    -2.771
    356    H    -3.148    9.903    -3.177
    357    H    -3.091    8.944    -1.664
    358    C    -4.032    7.944    -3.300
    359    H    -4.604    8.422    -4.126
    360    O    -3.434    6.726    -3.850
    361    C    -4.161    5.602    -3.385
    362    H    -4.287    4.901    -4.243
    363    N    -3.478    4.952    -2.254
    364    C    -3.599    3.636    -1.950
    365    N    -4.912    0.562    -2.688
    366    H    -5.299    0.763    -3.586
    367    H    -4.665    -0.393    -2.505
    368    N    -4.301    2.742    -2.655
    369    C    -4.247    1.535    -2.123
    370    N    -3.543    1.229    -0.983
    371    H    -3.566    0.285    -0.648
    372    C    -2.826    2.153    -0.222
    373    O    -2.237    1.841    0.816
    374    C    -2.884    3.452    -0.786
    375    N    -2.316    4.643    -0.357
    376    C    -2.681    5.511    -1.267
    377    H    -2.415    6.574    -1.260
    378    C    -5.502    6.127    -2.941
    379    H    -6.018    5.434    -2.243
    380    O    -6.330    6.410    -4.057
    381    H    -7.139    6.832    -3.729
    382    C    -5.032    7.388    -2.245
    383    H    -4.405    7.125    -1.373
    384    O    -6.081    8.308    -1.876
    385    P    -6.419    8.460    -0.325
    386    O    -7.062    9.770    -0.104
    387    O    -5.234    8.163    0.511
    388    O    -7.478    7.362    -0.018
    389    C    -8.798    7.431    -0.598
    390    H    -8.801    7.935    -1.595
    391    H    -9.486    7.997    0.071
    392    C    -9.353    6.029    -0.787
    393    H    -10.213    6.034    -1.492
    394    O    -8.323    5.155    -1.333
    395    C    -8.554    3.857    -0.854
    396    H    -8.726    3.270    -1.784
    397    N    -7.416    3.292    -0.066
    398    C    -6.567    4.035    0.718
    399    H    -6.688    5.121    0.670
    400    C    -5.622    3.431    1.468
    401    H    -4.932    3.989    2.097
    402    C    -7.314    1.923    -0.076
    403    O    -8.133    1.310    -0.763
    404    N    -6.364    1.282    0.645
    405    C    -5.565    2.002    1.452
    406    N    -4.716    1.351    2.248
    407    H    -4.001    1.838    2.753
    408    H    -4.695    0.359    2.262
    409    C    -9.840    3.889    -0.041
    410    H    -9.837    3.137    0.772
    411    O    -10.978    3.701    -0.862
    412    H    -11.746    3.932    -0.318
    413    C    -9.778    5.304    0.494
    414    H    -8.916    5.398    1.193
    415    O    -11.032    5.812    1.015
    416    P    -11.072    6.396    2.489
    417    O    -11.429    7.834    2.467
    418    O    -9.842    6.020    3.223
    419    O    -12.241    5.645    3.208
    420    C    -13.633    5.714    2.859
    421    H    -13.819    6.355    1.969
    422    H    -14.200    6.157    3.712
    423    C    -14.181    4.314    2.591
    424    H    -15.178    4.339    2.105
    425    O    -13.255    3.597    1.720
    426    C    -13.131    2.265    2.161
    427    H    -13.532    1.686    1.295
    428    N    -11.720    1.868    2.433
    429    C    -10.868    2.668    3.158
    430    H    -11.269    3.622    3.489
    431    C    -9.601    2.294    3.405
    432    H    -8.904    2.912    3.969
    433    C    -11.275    0.638    1.973
    434    O    -12.066    -0.087    1.353
    435    N    -10.012    0.231    2.237
    436    C    -9.184    1.017    2.941
    437    N    -7.984    0.546    3.263
    438    H    -7.800    -0.416    3.102
    439    H    -7.390    1.025    3.916
    440    C    -14.060    2.044    3.348
    441    H    -13.588    1.417    4.134
    442    O    -15.265    1.440    2.907
    443    H    -15.922    1.480    3.625
    444    C    -14.278    3.465    3.865
    445    H    -13.436    3.765    4.525
    446    O    -15.540    3.668    4.535
    447    H    -15.573    3.151    5.363
 $END
