!*** FMO 5.3 (Gamess) INPUT generated by Facio 22.1.1.32 ***
 $CONTRL RUNTYP=ENERGY NPRINT=-5 ISPHER=1 MAXIT=200 $END
 $SYSTEM MWORDS=63 MEMDDI=63 $END
 $GDDI NGROUP=1 $END
 $SCF DIRSCF=.TRUE. NPUNCH=0 $END
!*** NumCPU : 2  MemPerNode : 512MB
 $PCM SOLVNT=WATER IEF=-10 ICOMP=2 ICAV=1 IDISP=1 IFMO=-1 $END
 $PCMCAV RADII=SUAHF $END
 $TESCAV NTSALL=60 $END
 $FMOPRP
    NAODIR=200
    NGRFMO(1)=1, 1, 0, 0, 0,   0, 0, 0, 0, 0
    IPIEDA=1
    NPRINT=9
 $END
 $FMO
      SCFTYP(1)=RHF
      MODGRD=10
      MODMUL=0
      MAXCAO=5
      MAXBND=16
      NLAYER=1
      MPLEVL(1)=2
      NFRAG=14
      ICHARG(1)=-1, -1, -1, -1, -1, -1, -1, -1, -1, -1, -1, -1, -1, 0
      FRGNAM(1)=F1, F2, F3, F4, F5, F6, F7, F8, F9, F10, F11, F12, F13, F14
      indat(1)=0
               1   -36   0
               37   -70   0
               71   -101   0
               102   -134   0
               135   -165   0
               166   -195   0
               196   -225   0
               226   -256   0
               257   -290   0
               291   -324   0
               325   -354   0
               355   -388   0
               389   -419   0
               420   -447   0
 $END

 $FMOBND
   -37   36       6-31G*    MINI
   -71   70       6-31G*    MINI
   -102   101       6-31G*    MINI
   -135   134       6-31G*    MINI
   -166   165       6-31G*    MINI
   -196   195       6-31G*    MINI
   -226   225       6-31G*    MINI
   -257   256       6-31G*    MINI
   -291   290       6-31G*    MINI
   -325   324       6-31G*    MINI
   -355   354       6-31G*    MINI
   -389   388       6-31G*    MINI
   -420   419       6-31G*    MINI
 $END
 $FMOHYB
 6-31G*      15   5
   1 0  -0.065034   0.288264   0.000000   0.000000   0.604412
         0.290129   0.000000   0.000000   0.319045  -0.017106
        -0.017106   0.057934   0.000000   0.000000   0.000000
   0 1  -0.065040   0.288293   0.569832   0.000000  -0.201456
         0.290147   0.300783   0.000000  -0.106342   0.049598
        -0.017106  -0.008771   0.000000  -0.027223   0.000000
   0 1  -0.065039   0.288293  -0.284916  -0.493490  -0.201455
         0.290145  -0.150392  -0.260486  -0.106340  -0.000427
         0.032923  -0.008771   0.033353   0.013612   0.023576
   0 1  -0.065039   0.288293  -0.284916   0.493490  -0.201455
         0.290145  -0.150392   0.260486  -0.106340  -0.000427
         0.032923  -0.008771  -0.033353   0.013612  -0.023576
   0 1   1.010938  -0.011975   0.000000   0.000000   0.000000
        -0.054085   0.000000   0.000000  -0.000000  -0.003174
        -0.003174  -0.003174   0.000000   0.000000   0.000000
 MINI         5   5
   1 0  -0.104883   0.308874   0.000000   0.000000   0.521806
   0 1  -0.104883   0.308874   0.491961   0.000000  -0.173934
   0 1  -0.104883   0.308876  -0.245980  -0.426050  -0.173933
   0 1  -0.104883   0.308876  -0.245980   0.426050  -0.173933
   0 1   0.988209   0.063992   0.000000   0.000000   0.000000
 $END
 
 $DATA
 FMO calculation
 C1 
 H.1-1    1
      N31 6
   
 O.1-1    8
      N31 6
      d 1
      1 0.800 1.0
   
 C.1-1    6
      N31 6
      d 1
      1 0.800 1.0
   
 N.1-1    7
      N31 6
      d 1
      1 0.800 1.0
   
 P.1-1   15
      N31 6
      d 1
      1 0.550 1.0
   
 $END
 $FMOXYZ
    1    H    -14.402    -4.916    8.612
    2    O    -14.064    -4.918    7.698
    3    C    -14.313    -6.232    7.174
    4    H    -15.378    -6.497    7.357
    5    H    -13.677    -6.970    7.710
    6    C    -14.039    -6.338    5.675
    7    H    -14.395    -7.314    5.275
    8    O    -14.758    -5.275    4.961
    9    C    -13.964    -4.848    3.865
    10    H    -14.593    -4.931    2.949
    11    N    -13.487    -3.460    4.009
    12    C    -12.983    -2.661    3.012
    13    N    -12.132    -2.141    -0.315
    14    H    -12.371    -3.007    -0.747
    15    H    -11.788    -1.393    -0.881
    16    N    -12.851    -2.997    1.713
    17    C    -12.324    -2.010    0.985
    18    N    -11.932    -0.813    1.520
    19    H    -11.588    -0.105    0.892
    20    C    -12.050    -0.444    2.855
    21    O    -11.670    0.661    3.251
    22    C    -12.638    -1.475    3.634
    23    N    -12.931    -1.519    4.995
    24    C    -13.416    -2.726    5.171
    25    H    -13.771    -3.133    6.120
    26    C    -12.805    -5.804    3.782
    27    H    -11.921    -5.287    3.370
    28    O    -13.174    -6.930    3.002
    29    H    -12.360    -7.414    2.807
    30    C    -12.567    -6.156    5.251
    31    H    -12.184    -5.267    5.799
    32    O    -11.777    -7.347    5.518
    33    P    -10.205    -7.308    5.776
    34    O    -9.732    -8.622    6.273
    35    O    -9.842    -6.138    6.607
    36    O    -9.593    -7.111    4.348
    37    C    -9.888    -8.085    3.321
    38    H    -10.912    -8.524    3.420
    39    H    -9.164    -8.929    3.376
    40    C    -9.806    -7.455    1.930
    41    H    -10.256    -8.138    1.173
    42    O    -10.552    -6.215    1.881
    43    C    -9.869    -5.264    1.097
    44    H    -10.608    -4.892    0.353
    45    N    -9.392    -4.107    1.897
    46    C    -8.985    -2.890    1.402
    47    N    -8.476    -0.750    -1.282
    48    H    -8.695    -1.329    -2.062
    49    H    -8.161    0.187    -1.440
    50    N    -8.937    -2.539    0.106
    51    C    -8.561    -1.272    -0.071
    52    N    -8.254    -0.431    0.966
    53    H    -7.947    0.502    0.741
    54    C    -8.270    -0.770    2.313
    55    O    -7.963    0.054    3.180
    56    C    -8.672    -2.121    2.509
    57    N    -8.863    -2.841    3.681
    58    C    -9.299    -4.011    3.270
    59    H    -9.577    -4.840    3.921
    60    C    -8.758    -6.017    0.401
    61    H    -7.887    -5.370    0.173
    62    O    -9.266    -6.586    -0.796
    63    H    -8.534    -7.053    -1.219
    64    C    -8.413    -7.086    1.446
    65    H    -7.877    -6.633    2.308
    66    O    -7.775    -8.277    0.957
    67    P    -6.242    -8.559    1.113
    68    O    -5.992    -9.982    0.780
    69    O    -5.730    -8.065    2.410
    70    O    -5.645    -7.677    -0.036
    71    C    -5.893    -8.118    -1.395
    72    H    -6.912    -8.556    -1.532
    73    H    -5.153    -8.906    -1.675
    74    C    -5.760    -6.971    -2.393
    75    H    -6.181    -7.260    -3.382
    76    O    -6.467    -5.794    -1.955
    77    C    -5.738    -4.644    -2.338
    78    H    -6.416    -4.117    -3.043
    79    N    -5.469    -3.734    -1.198
    80    C    -5.395    -4.257    0.073
    81    H    -5.513    -5.339    0.160
    82    C    -5.231    -3.469    1.138
    83    H    -5.215    -3.852    2.155
    84    C    -5.283    -2.365    -1.398
    85    O    -5.302    -1.908    -2.552
    86    N    -5.108    -1.555    -0.325
    87    C    -5.134    -2.075    0.915
    88    N    -5.100    -1.275    1.966
    89    H    -4.830    -0.319    1.826
    90    H    -4.959    -1.638    2.889
    91    C    -4.487    -5.096    -3.089
    92    H    -3.597    -4.488    -2.819
    93    O    -4.700    -5.037    -4.488
    94    H    -3.866    -5.318    -4.907
    95    C    -4.321    -6.542    -2.599
    96    H    -3.831    -6.552    -1.598
    97    O    -3.730    -7.503    -3.492
    98    P    -2.229    -7.514    -3.882
    99    O    -1.931    -8.764    -4.616
    100    O    -1.401    -7.211    -2.698
    101    O    -2.165    -6.304    -4.845
    102    C    -1.882    -6.365    -6.246
    103    H    -2.805    -6.630    -6.809
    104    H    -1.098    -7.131    -6.479
    105    C    -1.392    -5.002    -6.740
    106    H    -1.595    -4.863    -7.824
    107    O    -2.043    -3.893    -6.011
    108    C    -1.079    -2.923    -5.672
    109    H    -1.454    -1.949    -6.066
    110    N    -0.849    -2.821    -4.213
    111    C    -0.365    -2.103    -2.190
    112    N    -0.596    -3.462    -2.073
    113    C    -0.864    -3.841    -3.291
    114    H    -1.082    -4.867    -3.564
    115    N    0.150    0.142    -1.653
    116    C    0.015    0.393    -2.964
    117    H    0.191    1.433    -3.266
    118    N    -0.315    -0.444    -3.962
    119    C    -0.502    -1.690    -3.499
    120    C    -0.029    -1.136    -1.231
    121    N    0.093    -1.490    0.055
    122    H    0.396    -0.850    0.766
    123    H    -0.102    -2.428    0.350
    124    C    0.182    -3.307    -6.394
    125    H    1.043    -3.058    -5.757
    126    O    0.247    -2.678    -7.661
    127    H    1.121    -2.900    -8.012
    128    C    0.106    -4.822    -6.512
    129    H    0.346    -5.307    -5.537
    130    O    0.848    -5.397    -7.615
    131    P    2.317    -5.954    -7.469
    132    O    2.794    -6.431    -8.788
    133    O    2.356    -6.940    -6.369
    134    O    3.167    -4.712    -7.029
    135    C    3.759    -3.793    -7.977
    136    H    3.160    -3.737    -8.914
    137    H    4.778    -4.144    -8.258
    138    C    3.871    -2.340    -7.454
    139    H    3.756    -1.630    -8.304
    140    O    2.812    -2.050    -6.527
    141    C    3.262    -1.291    -5.429
    142    H    2.571    -0.418    -5.383
    143    N    3.185    -2.011    -4.120
    144    C    2.961    -3.373    -4.051
    145    H    2.853    -3.894    -4.998
    146    C    2.866    -4.013    -2.878
    147    H    2.679    -5.082    -2.802
    148    C    3.337    -1.283    -2.941
    149    O    3.550    -0.061    -2.996
    150    N    3.254    -1.920    -1.755
    151    C    3.016    -3.240    -1.698
    152    N    2.933    -3.822    -0.510
    153    H    3.036    -3.247    0.309
    154    H    2.837    -4.809    -0.390
    155    C    4.649    -0.826    -5.780
    156    H    5.305    -0.716    -4.891
    157    O    4.564    0.406    -6.476
    158    H    5.410    0.533    -6.931
    159    C    5.132    -1.952    -6.692
    160    H    5.424    -2.841    -6.084
    161    O    6.126    -1.523    -7.633
    162    P    7.530    -2.192    -7.710
    163    O    8.201    -1.620    -8.899
    164    O    7.379    -3.663    -7.666
    165    O    8.248    -1.667    -6.414
    166    C    8.585    -0.252    -6.324
    167    H    7.789    0.408    -6.748
    168    H    9.521    -0.052    -6.898
    169    C    8.828    0.190    -4.872
    170    H    9.021    1.286    -4.814
    171    O    7.664    -0.073    -4.050
    172    C    8.076    -0.493    -2.760
    173    H    7.654    0.259    -2.053
    174    N    7.557    -1.852    -2.429
    175    C    7.149    -2.719    -3.418
    176    H    7.223    -2.333    -4.437
    177    C    7.485    -2.221    -1.106
    178    O    7.825    -1.479    -0.194
    179    N    6.985    -3.475    -0.872
    180    H    6.953    -3.797    0.087
    181    C    6.549    -4.385    -1.804
    182    O    6.092    -5.468    -1.445
    183    C    6.651    -3.936    -3.157
    184    H    6.303    -4.599    -3.945
    185    C    9.599    -0.418    -2.716
    186    H    10.042    -1.244    -2.121
    187    O    10.024    0.821    -2.191
    188    H    10.985    0.820    -2.276
    189    C    9.979    -0.531    -4.186
    190    H    9.932    -1.590    -4.520
    191    O    11.209    0.123    -4.555
    192    P    12.572    -0.624    -4.477
    193    O    13.450    -0.051    -5.520
    194    O    12.333    -2.085    -4.505
    195    O    13.118    -0.205    -3.055
    196    C    14.514    -0.507    -2.772
    197    H    15.169    -0.411    -3.676
    198    H    14.611    -1.553    -2.399
    199    C    15.113    0.427    -1.715
    200    H    16.194    0.194    -1.584
    201    O    15.019    1.809    -2.165
    202    C    14.392    2.598    -1.186
    203    H    15.225    3.051    -0.598
    204    N    13.515    3.625    -1.822
    205    C    12.610    3.259    -2.797
    206    H    12.616    2.200    -3.060
    207    C    13.627    4.939    -1.423
    208    O    14.445    5.313    -0.589
    209    N    12.760    5.809    -2.031
    210    H    12.840    6.772    -1.743
    211    C    11.839    5.523    -3.016
    212    O    11.163    6.427    -3.509
    213    C    11.782    4.138    -3.387
    214    H    11.076    3.838    -4.157
    215    C    13.615    1.665    -0.276
    216    H    12.600    1.482    -0.691
    217    O    13.546    2.216    1.028
    218    H    13.021    1.642    1.617
    219    C    14.421    0.355    -0.337
    220    H    13.684    -0.483    -0.380
    221    O    15.382    0.178    0.734
    222    P    15.667    -1.262    1.319
    223    O    16.650    -1.177    2.425
    224    O    16.029    -2.146    0.195
    225    O    14.303    -1.773    1.886
    226    C    13.962    -1.733    3.291
    227    H    13.731    -0.682    3.570
    228    H    14.807    -2.065    3.932
    229    C    12.713    -2.585    3.656
    230    H    12.245    -2.166    4.567
    231    O    11.725    -2.554    2.589
    232    C    11.491    -3.872    2.142
    233    H    10.615    -4.218    2.731
    234    N    11.218    -3.930    0.697
    235    C    12.009    -3.187    -0.137
    236    H    12.749    -2.551    0.354
    237    C    11.832    -3.217    -1.462
    238    H    12.440    -2.623    -2.140
    239    C    10.228    -4.761    0.178
    240    O    9.546    -5.451    0.953
    241    N    10.028    -4.798    -1.162
    242    C    10.802    -4.059    -1.977
    243    N    10.610    -4.112    -3.293
    244    H    11.190    -3.560    -3.904
    245    H    9.981    -4.790    -3.676
    246    C    12.705    -4.671    2.548
    247    H    13.566    -4.449    1.879
    248    O    12.468    -6.065    2.619
    249    H    11.853    -6.188    3.358
    250    C    12.934    -4.093    3.926
    251    H    13.990    -4.258    4.246
    252    O    11.969    -4.617    4.864
    253    P    12.303    -5.215    6.265
    254    O    13.735    -5.597    6.333
    255    O    11.316    -6.281    6.550
    256    O    12.029    -4.026    7.260
    257    C    10.722    -3.399    7.319
    258    H    10.088    -3.897    8.093
    259    H    10.175    -3.471    6.345
    260    C    10.828    -1.900    7.642
    261    H    11.202    -1.745    8.672
    262    O    11.775    -1.274    6.744
    263    C    11.420    0.074    6.545
    264    H    12.224    0.659    7.046
    265    N    11.385    0.426    5.127
    266    C    10.568    -0.025    4.110
    267    N    8.008    -2.036    2.930
    268    H    7.584    -2.243    2.058
    269    H    7.719    -2.505    3.761
    270    N    9.561    -0.920    4.204
    271    C    9.013    -1.186    3.030
    272    N    9.402    -0.592    1.861
    273    H    8.963    -0.878    1.002
    274    C    10.435    0.318    1.738
    275    O    10.736    0.827    0.658
    276    C    11.016    0.634    2.983
    277    N    12.051    1.503    3.283
    278    C    12.242    1.337    4.566
    279    H    13.003    1.850    5.158
    280    C    10.103    0.335    7.241
    281    H    9.404    0.923    6.607
    282    O    10.326    0.999    8.473
    283    H    9.503    0.929    8.977
    284    C    9.549    -1.072    7.455
    285    H    9.088    -1.456    6.528
    286    O    8.664    -1.198    8.588
    287    P    7.128    -0.881    8.401
    288    O    6.593    -0.391    9.694
    289    O    6.506    -2.092    7.835
    290    O    7.024    0.264    7.339
    291    C    6.768    1.652    7.647
    292    H    7.541    2.027    8.356
    293    H    5.771    1.756    8.135
    294    C    6.797    2.595    6.407
    295    H    7.409    3.495    6.636
    296    O    7.429    1.943    5.258
    297    C    6.641    2.160    4.101
    298    H    7.337    2.416    3.269
    299    N    5.859    0.970    3.749
    300    C    5.378    0.649    2.510
    301    N    5.025    1.303    -0.884
    302    H    5.514    2.163    -1.017
    303    H    4.578    0.864    -1.668
    304    N    5.537    1.365    1.380
    305    C    4.973    0.773    0.325
    306    N    4.281    -0.404    0.417
    307    H    3.907    -0.807    -0.430
    308    C    4.090    -1.149    1.571
    309    O    3.456    -2.205    1.593
    310    C    4.696    -0.539    2.685
    311    N    4.735    -0.954    4.003
    312    C    5.437    -0.030    4.598
    313    H    5.679    -0.025    5.653
    314    C    5.749    3.328    4.405
    315    H    4.832    3.345    3.777
    316    O    6.474    4.532    4.233
    317    H    5.924    5.232    4.602
    318    C    5.425    3.081    5.875
    319    H    4.710    2.236    5.995
    320    O    5.004    4.256    6.590
    321    P    3.511    4.745    6.621
    322    O    3.465    5.961    7.467
    323    O    2.664    3.603    7.028
    324    O    3.151    5.128    5.136
    325    C    3.655    6.314    4.487
    326    H    4.763    6.329    4.489
    327    H    3.315    7.228    5.023
    328    C    3.184    6.419    3.026
    329    H    3.615    7.317    2.537
    330    O    3.636    5.266    2.259
    331    C    2.628    4.904    1.324
    332    H    3.110    4.939    0.316
    333    N    2.094    3.540    1.590
    334    C    2.167    2.983    2.845
    335    H    2.645    3.595    3.603
    336    C    1.505    2.860    0.552
    337    O    1.406    3.337    -0.573
    338    N    1.040    1.607    0.861
    339    H    0.635    1.108    0.078
    340    C    1.087    0.992    2.103
    341    O    0.611    -0.124    2.274
    342    C    1.718    1.756    3.124
    343    H    1.796    1.326    4.121
    344    C    1.537    5.961    1.397
    345    H    0.528    5.537    1.215
    346    O    1.773    7.003    0.472
    347    H    0.970    7.546    0.501
    348    C    1.660    6.463    2.834
    349    H    1.215    5.730    3.545
    350    O    1.183    7.804    3.076
    351    P    -0.343    8.161    3.200
    352    O    -0.474    9.627    3.361
    353    O    -0.948    7.318    4.252
    354    O    -0.958    7.745    1.823
    355    C    -1.100    8.680    0.733
    356    H    -0.126    9.169    0.492
    357    H    -1.828    9.480    1.004
    358    C    -1.619    7.987    -0.539
    359    H    -1.346    8.573    -1.447
    360    O    -1.052    6.648    -0.673
    361    C    -2.056    5.758    -1.124
    362    H    -1.655    5.269    -2.040
    363    N    -2.366    4.728    -0.131
    364    C    -2.858    3.481    -0.401
    365    N    -3.917    1.080    -2.673
    366    H    -4.331    0.172    -2.660
    367    H    -3.828    1.565    -3.543
    368    N    -3.142    2.985    -1.619
    369    C    -3.603    1.735    -1.565
    370    N    -3.747    1.044    -0.390
    371    H    -4.153    0.122    -0.429
    372    C    -3.448    1.542    0.875
    373    O    -3.584    0.884    1.905
    374    C    -2.987    2.870    0.825
    375    N    -2.615    3.721    1.854
    376    C    -2.254    4.816    1.237
    377    H    -1.891    5.715    1.730
    378    C    -3.273    6.574    -1.478
    379    H    -4.218    6.028    -1.284
    380    O    -3.211    6.956    -2.838
    381    H    -4.032    7.430    -3.023
    382    C    -3.139    7.779    -0.552
    383    H    -3.430    7.514    0.491
    384    O    -3.783    8.983    -1.015
    385    P    -5.292    9.284    -0.705
    386    O    -5.631    10.600    -1.299
    387    O    -5.508    9.137    0.750
    388    O    -6.080    8.147    -1.440
    389    C    -6.345    8.207    -2.858
    390    H    -5.429    8.466    -3.439
    391    H    -7.107    8.991    -3.067
    392    C    -6.887    6.865    -3.375
    393    H    -6.854    6.824    -4.485
    394    O    -6.096    5.754    -2.865
    395    C    -6.932    4.632    -2.641
    396    H    -6.546    3.855    -3.340
    397    N    -6.851    4.095    -1.242
    398    C    -6.455    4.912    -0.204
    399    H    -6.220    5.946    -0.472
    400    C    -6.363    4.453    1.054
    401    H    -6.033    5.077    1.885
    402    C    -7.182    2.762    -0.978
    403    O    -7.542    2.028    -1.912
    404    N    -7.108    2.287    0.288
    405    C    -6.712    3.090    1.291
    406    N    -6.651    2.594    2.525
    407    H    -6.996    1.671    2.709
    408    H    -6.375    3.156    3.304
    409    C    -8.351    5.023    -3.061
    410    H    -9.118    4.591    -2.388
    411    O    -8.608    4.608    -4.388
    412    H    -9.536    4.828    -4.573
    413    C    -8.317    6.557    -2.931
    414    H    -8.382    6.845    -1.857
    415    O    -9.232    7.326    -3.743
    416    P    -10.754    7.462    -3.401
    417    O    -11.359    8.603    -4.128
    418    O    -10.955    7.423    -1.937
    419    O    -11.298    6.150    -3.992
    420    C    -12.477    5.991    -4.796
    421    H    -12.254    6.285    -5.847
    422    H    -13.314    6.638    -4.431
    423    C    -12.944    4.516    -4.792
    424    H    -13.223    4.183    -5.810
    425    O    -11.885    3.623    -4.311
    426    C    -12.431    2.637    -3.464
    427    H    -12.175    1.688    -3.991
    428    N    -11.826    2.629    -2.104
    429    C    -11.559    3.814    -1.447
    430    H    -11.770    4.740    -1.994
    431    C    -11.023    3.812    -0.216
    432    H    -10.778    4.728    0.317
    433    C    -11.597    1.410    -1.459
    434    O    -11.888    0.348    -2.035
    435    N    -11.071    1.396    -0.213
    436    C    -10.773    2.551    0.403
    437    N    -10.267    2.506    1.634
    438    H    -10.359    1.654    2.149
    439    H    -10.132    3.344    2.164
    440    C    -13.946    2.796    -3.438
    441    H    -14.354    2.653    -2.412
    442    O    -14.546    1.873    -4.331
    443    H    -15.494    2.084    -4.417
    444    C    -14.138    4.253    -3.871
    445    H    -14.036    4.921    -2.986
    446    O    -15.371    4.519    -4.567
    447    H    -16.129    4.354    -3.978
 $END
