!*** FMO 5.3 (Gamess) INPUT generated by Facio 22.1.1.32 ***
 $CONTRL RUNTYP=ENERGY NPRINT=-5 ISPHER=1 MAXIT=200 $END
 $SYSTEM MWORDS=63 MEMDDI=63 $END
 $GDDI NGROUP=1 $END
 $SCF DIRSCF=.TRUE. NPUNCH=0 $END
!*** NumCPU : 2  MemPerNode : 512MB
 $PCM SOLVNT=WATER IEF=-10 ICOMP=2 ICAV=1 IDISP=1 IFMO=-1 $END
 $PCMCAV RADII=SUAHF $END
 $TESCAV NTSALL=60 $END
 $FMOPRP
    NAODIR=200
    NGRFMO(1)=1, 1, 0, 0, 0,   0, 0, 0, 0, 0
    IPIEDA=1
    NPRINT=9
 $END
 $FMO
      SCFTYP(1)=RHF
      MODGRD=10
      MODMUL=0
      MAXCAO=5
      MAXBND=16
      NLAYER=1
      MPLEVL(1)=2
      NFRAG=14
      ICHARG(1)=-1, -1, -1, -1, -1, -1, -1, -1, -1, -1, -1, -1, -1, 0
      FRGNAM(1)=F1, F2, F3, F4, F5, F6, F7, F8, F9, F10, F11, F12, F13, F14
      indat(1)=0
               1   -36   0
               37   -70   0
               71   -101   0
               102   -134   0
               135   -165   0
               166   -195   0
               196   -225   0
               226   -256   0
               257   -290   0
               291   -324   0
               325   -354   0
               355   -388   0
               389   -419   0
               420   -447   0
 $END

 $FMOBND
   -37   36       6-31G*    MINI
   -71   70       6-31G*    MINI
   -102   101       6-31G*    MINI
   -135   134       6-31G*    MINI
   -166   165       6-31G*    MINI
   -196   195       6-31G*    MINI
   -226   225       6-31G*    MINI
   -257   256       6-31G*    MINI
   -291   290       6-31G*    MINI
   -325   324       6-31G*    MINI
   -355   354       6-31G*    MINI
   -389   388       6-31G*    MINI
   -420   419       6-31G*    MINI
 $END
 $FMOHYB
 6-31G*      15   5
   1 0  -0.065034   0.288264   0.000000   0.000000   0.604412
         0.290129   0.000000   0.000000   0.319045  -0.017106
        -0.017106   0.057934   0.000000   0.000000   0.000000
   0 1  -0.065040   0.288293   0.569832   0.000000  -0.201456
         0.290147   0.300783   0.000000  -0.106342   0.049598
        -0.017106  -0.008771   0.000000  -0.027223   0.000000
   0 1  -0.065039   0.288293  -0.284916  -0.493490  -0.201455
         0.290145  -0.150392  -0.260486  -0.106340  -0.000427
         0.032923  -0.008771   0.033353   0.013612   0.023576
   0 1  -0.065039   0.288293  -0.284916   0.493490  -0.201455
         0.290145  -0.150392   0.260486  -0.106340  -0.000427
         0.032923  -0.008771  -0.033353   0.013612  -0.023576
   0 1   1.010938  -0.011975   0.000000   0.000000   0.000000
        -0.054085   0.000000   0.000000  -0.000000  -0.003174
        -0.003174  -0.003174   0.000000   0.000000   0.000000
 MINI         5   5
   1 0  -0.104883   0.308874   0.000000   0.000000   0.521806
   0 1  -0.104883   0.308874   0.491961   0.000000  -0.173934
   0 1  -0.104883   0.308876  -0.245980  -0.426050  -0.173933
   0 1  -0.104883   0.308876  -0.245980   0.426050  -0.173933
   0 1   0.988209   0.063992   0.000000   0.000000   0.000000
 $END
 
 $DATA
 FMO calculation
 C1 
 H.1-1    1
      N31 6
   
 O.1-1    8
      N31 6
      d 1
      1 0.800 1.0
   
 C.1-1    6
      N31 6
      d 1
      1 0.800 1.0
   
 N.1-1    7
      N31 6
      d 1
      1 0.800 1.0
   
 P.1-1   15
      N31 6
      d 1
      1 0.550 1.0
   
 $END
 $FMOXYZ
    1    H    -11.341    -5.218    9.873
    2    O    -11.525    -5.112    8.921
    3    C    -12.133    -6.335    8.480
    4    H    -12.999    -6.562    9.142
    5    H    -11.391    -7.161    8.576
    6    C    -12.633    -6.288    7.028
    7    H    -13.322    -7.137    6.817
    8    O    -13.351    -5.044    6.756
    9    C    -13.007    -4.582    5.458
    10    H    -13.961    -4.447    4.898
    11    N    -12.285    -3.297    5.498
    12    C    -12.098    -2.467    4.429
    13    N    -12.577    -1.780    1.089
    14    H    -13.107    -2.566    0.782
    15    H    -12.382    -1.046    0.431
    16    N    -12.549    -2.686    3.185
    17    C    -12.218    -1.712    2.350
    18    N    -11.512    -0.598    2.725
    19    H    -11.359    0.117    2.032
    20    C    -11.068    -0.322    4.014
    21    O    -10.463    0.725    4.263
    22    C    -11.397    -1.378    4.912
    23    N    -11.141    -1.523    6.270
    24    C    -11.683    -2.684    6.575
    25    H    -11.685    -3.146    7.566
    26    C    -12.186    -5.663    4.795
    27    H    -11.441    -5.250    4.086
    28    O    -13.023    -6.582    4.122
    29    H    -12.426    -7.253    3.764
    30    C    -11.509    -6.315    5.987
    31    H    -10.705    -5.656    6.392
    32    O    -11.083    -7.676    5.753
    33    P    -9.597    -7.946    5.311
    34    O    -9.338    -9.397    5.414
    35    O    -8.706    -7.048    6.076
    36    O    -9.542    -7.521    3.799
    37    C    -10.274    -8.234    2.780
    38    H    -11.303    -8.486    3.118
    39    H    -9.757    -9.193    2.544
    40    C    -10.408    -7.401    1.491
    41    H    -11.114    -7.880    0.773
    42    O    -10.932    -6.076    1.804
    43    C    -10.250    -5.099    1.027
    44    H    -11.036    -4.507    0.507
    45    N    -9.459    -4.175    1.862
    46    C    -8.967    -2.956    1.470
    47    N    -8.551    -0.552    -0.963
    48    H    -8.993    -0.975    -1.752
    49    H    -8.142    0.359    -1.071
    50    N    -9.101    -2.411    0.252
    51    C    -8.538    -1.210    0.175
    52    N    -7.922    -0.587    1.228
    53    H    -7.536    0.328    1.065
    54    C    -7.776    -1.121    2.504
    55    O    -7.202    -0.495    3.403
    56    C    -8.343    -2.427    2.585
    57    N    -8.418    -3.310    3.654
    58    C    -9.089    -4.334    3.180
    59    H    -9.352    -5.233    3.740
    60    C    -9.418    -5.837    0.003
    61    H    -8.494    -5.290    -0.284
    62    O    -10.205    -6.097    -1.146
    63    H    -9.697    -6.695    -1.711
    64    C    -9.088    -7.121    0.755
    65    H    -8.334    -6.920    1.550
    66    O    -8.744    -8.238    -0.092
    67    P    -7.230    -8.619    -0.317
    68    O    -7.174    -9.936    -0.999
    69    O    -6.480    -8.498    0.951
    70    O    -6.712    -7.502    -1.295
    71    C    -6.749    -7.700    -2.729
    72    H    -7.764    -8.016    -3.068
    73    H    -6.027    -8.493    -3.025
    74    C    -6.355    -6.433    -3.513
    75    H    -6.757    -6.476    -4.547
    76    O    -6.907    -5.246    -2.892
    77    C    -5.997    -4.173    -3.029
    78    H    -6.551    -3.420    -3.634
    79    N    -5.629    -3.556    -1.730
    80    C    -5.695    -4.283    -0.562
    81    H    -6.030    -5.319    -0.660
    82    C    -5.390    -3.727    0.619
    83    H    -5.458    -4.271    1.559
    84    C    -5.188    -2.237    -1.704
    85    O    -5.092    -1.606    -2.768
    86    N    -4.882    -1.661    -0.520
    87    C    -4.980    -2.362    0.622
    88    N    -4.707    -1.751    1.772
    89    H    -4.385    -0.800    1.761
    90    H    -4.780    -2.216    2.658
    91    C    -4.794    -4.654    -3.830
    92    H    -3.837    -4.239    -3.446
    93    O    -4.941    -4.307    -5.196
    94    H    -4.136    -4.616    -5.657
    95    C    -4.843    -6.172    -3.623
    96    H    -4.402    -6.440    -2.637
    97    O    -4.292    -6.984    -4.685
    98    P    -2.766    -6.959    -5.056
    99    O    -2.495    -8.089    -5.972
    100    O    -1.965    -6.897    -3.813
    101    O    -2.617    -5.613    -5.841
    102    C    -2.185    -5.484    -7.213
    103    H    -3.067    -5.579    -7.893
    104    H    -1.452    -6.278    -7.505
    105    C    -1.533    -4.112    -7.501
    106    H    -1.705    -3.803    -8.551
    107    O    -2.094    -3.071    -6.636
    108    C    -1.056    -2.242    -6.159
    109    H    -1.342    -1.196    -6.412
    110    N    -0.884    -2.361    -4.701
    111    C    -0.464    -1.954    -2.581
    112    N    -0.843    -3.284    -2.651
    113    C    -1.076    -3.477    -3.922
    114    H    -1.383    -4.428    -4.349
    115    N    0.231    0.150    -1.764
    116    C    0.194    0.568    -3.032
    117    H    0.478    1.613    -3.183
    118    N    -0.154    -0.102    -4.137
    119    C    -0.481    -1.370    -3.837
    120    C    -0.083    -1.143    -1.498
    121    N    -0.024    -1.615    -0.240
    122    H    -0.225    -2.575    -0.027
    123    H    0.278    -1.026    0.515
    124    C    0.200    -2.608    -6.906
    125    H    1.088    -2.506    -6.260
    126    O    0.341    -1.811    -8.063
    127    H    1.198    -2.047    -8.443
    128    C    -0.014    -4.074    -7.258
    129    H    0.186    -4.721    -6.374
    130    O    0.693    -4.521    -8.440
    131    P    2.200    -4.979    -8.384
    132    O    2.679    -5.152    -9.770
    133    O    2.299    -6.157    -7.492
    134    O    2.995    -3.803    -7.722
    135    C    3.804    -2.857    -8.464
    136    H    3.331    -2.593    -9.440
    137    H    4.803    -3.301    -8.695
    138    C    4.038    -1.534    -7.692
    139    H    4.059    -0.682    -8.400
    140    O    2.956    -1.270    -6.761
    141    C    3.455    -0.743    -5.549
    142    H    2.871    0.193    -5.381
    143    N    3.255    -1.648    -4.374
    144    C    2.915    -2.977    -4.514
    145    H    2.811    -3.341    -5.534
    146    C    2.710    -3.765    -3.446
    147    H    2.416    -4.810    -3.537
    148    C    3.419    -1.116    -3.101
    149    O    3.722    0.079    -2.984
    150    N    3.253    -1.902    -2.016
    151    C    2.891    -3.184    -2.156
    152    N    2.712    -3.902    -1.054
    153    H    2.845    -3.445    -0.173
    154    H    2.461    -4.875    -1.073
    155    C    4.908    -0.397    -5.787
    156    H    5.532    -0.487    -4.871
    157    O    5.003    0.919    -6.302
    158    H    5.903    1.031    -6.644
    159    C    5.304    -1.438    -6.827
    160    H    5.425    -2.434    -6.337
    161    O    6.433    -1.037    -7.637
    162    P    7.742    -1.900    -7.661
    163    O    8.606    -1.435    -8.767
    164    O    7.392    -3.338    -7.656
    165    O    8.438    -1.540    -6.296
    166    C    9.016    -0.226    -6.096
    167    H    8.353    0.582    -6.489
    168    H    9.994    -0.157    -6.622
    169    C    9.260    0.062    -4.607
    170    H    9.613    1.105    -4.462
    171    O    8.019    -0.089    -3.865
    172    C    8.297    -0.620    -2.583
    173    H    7.919    0.141    -1.861
    174    N    7.603    -1.922    -2.351
    175    C    7.139    -2.680    -3.403
    176    H    7.310    -2.257    -4.393
    177    C    7.414    -2.339    -1.051
    178    O    7.796    -1.688    -0.085
    179    N    6.752    -3.531    -0.908
    180    H    6.654    -3.885    0.033
    181    C    6.292    -4.354    -1.911
    182    O    5.747    -5.420    -1.636
    183    C    6.499    -3.847    -3.234
    184    H    6.139    -4.434    -4.078
    185    C    9.813    -0.721    -2.453
    186    H    10.130    -1.587    -1.836
    187    O    10.328    0.474    -1.906
    188    H    11.271    0.338    -1.759
    189    C    10.255    -0.875    -3.903
    190    H    10.048    -1.905    -4.270
    191    O    11.608    -0.446    -4.176
    192    P    12.826    -1.408    -3.942
    193    O    13.894    -1.015    -4.889
    194    O    12.369    -2.820    -3.983
    195    O    13.308    -1.057    -2.473
    196    C    14.608    -1.577    -2.061
    197    H    15.329    -1.654    -2.913
    198    H    14.486    -2.597    -1.632
    199    C    15.306    -0.694    -1.012
    200    H    16.319    -1.104    -0.804
    201    O    15.490    0.640    -1.553
    202    C    14.955    1.593    -0.675
    203    H    15.816    1.919    -0.046
    204    N    14.342    2.714    -1.420
    205    C    13.456    2.455    -2.438
    206    H    13.302    1.396    -2.657
    207    C    14.659    4.002    -1.061
    208    O    15.440    4.267    -0.151
    209    N    14.045    4.976    -1.805
    210    H    14.285    5.925    -1.560
    211    C    13.173    4.800    -2.859
    212    O    12.726    5.776    -3.462
    213    C    12.873    3.429    -3.154
    214    H    12.195    3.211    -3.977
    215    C    13.961    0.884    0.222
    216    H    12.962    0.828    -0.264
    217    O    13.884    1.543    1.474
    218    H    13.202    1.123    2.028
    219    C    14.549    -0.530    0.327
    220    H    13.693    -1.246    0.314
    221    O    15.420    -0.729    1.473
    222    P    15.435    -2.117    2.210
    223    O    16.321    -2.039    3.396
    224    O    15.762    -3.164    1.215
    225    O    13.961    -2.379    2.676
    226    C    13.489    -2.124    4.016
    227    H    13.352    -1.027    4.152
    228    H    14.218    -2.466    4.786
    229    C    12.134    -2.800    4.320
    230    H    11.642    -2.272    5.164
    231    O    11.242    -2.742    3.175
    232    C    10.889    -4.049    2.790
    233    H    9.932    -4.245    3.321
    234    N    10.736    -4.175    1.326
    235    C    11.685    -3.594    0.524
    236    H    12.459    -3.020    1.040
    237    C    11.617    -3.694    -0.809
    238    H    12.348    -3.231    -1.466
    239    C    9.695    -4.912    0.764
    240    O    8.858    -5.446    1.507
    241    N    9.612    -5.019    -0.584
    242    C    10.539    -4.441    -1.366
    243    N    10.448    -4.559    -2.690
    244    H    11.118    -4.102    -3.287
    245    H    9.755    -5.162    -3.085
    246    C    11.951    -4.965    3.346
    247    H    12.869    -4.942    2.717
    248    O    11.482    -6.287    3.513
    249    H    10.835    -6.249    4.236
    250    C    12.219    -4.295    4.687
    251    H    13.269    -4.533    4.988
    252    O    11.241    -4.661    5.693
    253    P    11.650    -4.901    7.189
    254    O    13.092    -5.238    7.265
    255    O    10.725    -5.894    7.786
    256    O    11.443    -3.519    7.925
    257    C    10.152    -2.866    7.919
    258    H    9.524    -3.257    8.751
    259    H    9.600    -3.046    6.965
    260    C    10.271    -1.346    8.078
    261    H    10.569    -1.071    9.112
    262    O    11.287    -0.832    7.182
    263    C    10.962    0.484    6.808
    264    H    11.730    1.125    7.298
    265    N    11.041    0.658    5.360
    266    C    10.284    0.109    4.342
    267    N    7.730    -1.947    3.213
    268    H    7.404    -2.308    2.348
    269    H    7.406    -2.345    4.068
    270    N    9.238    -0.734    4.466
    271    C    8.752    -1.113    3.288
    272    N    9.250    -0.676    2.087
    273    H    8.846    -1.041    1.242
    274    C    10.349    0.157    1.940
    275    O    10.787    0.499    0.841
    276    C    10.851    0.597    3.184
    277    N    11.908    1.450    3.461
    278    C    11.983    1.456    4.764
    279    H    12.716    2.018    5.348
    280    C    9.596    0.824    7.370
    281    H    8.952    1.334    6.624
    282    O    9.738    1.631    8.521
    283    H    8.885    1.625    8.979
    284    C    9.017    -0.551    7.709
    285    H    8.615    -1.026    6.790
    286    O    8.061    -0.570    8.792
    287    P    6.519    -0.412    8.463
    288    O    5.865    0.145    9.666
    289    O    6.005    -1.709    7.969
    290    O    6.418    0.632    7.309
    291    C    6.262    2.046    7.543
    292    H    7.022    2.404    8.276
    293    H    5.253    2.240    7.981
    294    C    6.429    2.903    6.260
    295    H    7.061    3.793    6.477
    296    O    7.094    2.155    5.189
    297    C    6.386    2.337    3.979
    298    H    7.144    2.539    3.191
    299    N    5.597    1.144    3.618
    300    C    5.213    0.779    2.357
    301    N    5.176    1.341    -1.055
    302    H    5.700    2.182    -1.166
    303    H    4.755    0.905    -1.856
    304    N    5.486    1.448    1.226
    305    C    4.994    0.840    0.150
    306    N    4.269    -0.323    0.209
    307    H    3.932    -0.729    -0.651
    308    C    3.960    -1.029    1.363
    309    O    3.310    -2.078    1.338
    310    C    4.494    -0.393    2.510
    311    N    4.406    -0.748    3.844
    312    C    5.074    0.191    4.464
    313    H    5.212    0.240    5.538
    314    C    5.512    3.547    4.170
    315    H    4.626    3.545    3.500
    316    O    6.269    4.724    3.959
    317    H    5.716    5.459    4.250
    318    C    5.113    3.398    5.632
    319    H    4.370    2.578    5.759
    320    O    4.703    4.626    6.266
    321    P    3.199    5.078    6.263
    322    O    3.104    6.323    7.059
    323    O    2.365    3.932    6.677
    324    O    2.872    5.394    4.757
    325    C    3.429    6.546    4.082
    326    H    4.538    6.559    4.151
    327    H    3.065    7.487    4.553
    328    C    3.042    6.596    2.595
    329    H    3.513    7.465    2.091
    330    O    3.505    5.405    1.901
    331    C    2.525    5.011    0.949
    332    H    3.050    5.010    -0.038
    333    N    1.987    3.655    1.242
    334    C    2.001    3.137    2.517
    335    H    2.465    3.768    3.271
    336    C    1.471    2.933    0.193
    337    O    1.438    3.366    -0.952
    338    N    1.003    1.687    0.526
    339    H    0.672    1.138    -0.261
    340    C    1.005    1.095    1.773
    341    O    0.567    -0.043    1.929
    342    C    1.555    1.909    2.808
    343    H    1.614    1.500    3.814
    344    C    1.432    6.068    0.934
    345    H    0.426    5.625    0.768
    346    O    1.675    7.050    -0.057
    347    H    0.889    7.616    -0.055
    348    C    1.531    6.652    2.340
    349    H    1.052    5.969    3.077
    350    O    1.074    8.008    2.495
    351    P    -0.448    8.378    2.561
    352    O    -0.573    9.852    2.627
    353    O    -1.097    7.605    3.641
    354    O    -1.033    7.882    1.199
    355    C    -1.269    8.762    0.079
    356    H    -0.323    9.259    -0.244
    357    H    -1.992    9.562    0.357
    358    C    -1.854    8.003    -1.126
    359    H    -1.657    8.558    -2.072
    360    O    -1.256    6.673    -1.232
    361    C    -2.254    5.736    -1.590
    362    H    -1.884    5.224    -2.506
    363    N    -2.488    4.733    -0.538
    364    C    -2.954    3.461    -0.742
    365    N    -4.088    0.986    -2.881
    366    H    -4.033    1.428    -3.775
    367    H    -4.465    0.058    -2.815
    368    N    -3.275    2.921    -1.930
    369    C    -3.719    1.674    -1.817
    370    N    -3.820    1.022    -0.619
    371    H    -4.180    0.080    -0.622
    372    C    -3.495    1.547    0.622
    373    O    -3.630    0.871    1.645
    374    C    -3.027    2.886    0.512
    375    N    -2.619    3.783    1.493
    376    C    -2.311    4.868    0.820
    377    H    -1.943    5.794    1.261
    378    C    -3.506    6.509    -1.926
    379    H    -4.425    5.942    -1.675
    380    O    -3.499    6.851    -3.300
    381    H    -4.328    7.317    -3.469
    382    C    -3.370    7.742    -1.037
    383    H    -3.585    7.490    0.025
    384    O    -4.102    8.905    -1.483
    385    P    -5.599    9.156    -1.051
    386    O    -6.066    10.406    -1.687
    387    O    -5.697    9.081    0.423
    388    O    -6.403    7.956    -1.658
    389    C    -6.814    7.978    -3.043
    390    H    -5.988    8.333    -3.705
    391    H    -7.667    8.683    -3.174
    392    C    -7.265    6.582    -3.521
    393    H    -7.202    6.514    -4.628
    394    O    -6.409    5.542    -2.984
    395    C    -7.167    4.399    -2.653
    396    H    -6.758    3.608    -3.324
    397    N    -6.984    3.955    -1.240
    398    C    -6.558    4.823    -0.262
    399    H    -6.374    5.851    -0.583
    400    C    -6.368    4.408    1.000
    401    H    -6.006    5.072    1.783
    402    C    -7.256    2.631    -0.915
    403    O    -7.654    1.870    -1.807
    404    N    -7.077    2.190    0.354
    405    C    -6.634    3.037    1.301
    406    N    -6.434    2.573    2.536
    407    H    -6.597    1.612    2.747
    408    H    -6.108    3.163    3.275
    409    C    -8.619    4.654    -3.030
    410    H    -9.320    4.287    -2.252
    411    O    -8.923    4.035    -4.267
    412    H    -9.842    4.276    -4.482
    413    C    -8.685    6.186    -3.116
    414    H    -8.854    6.622    -2.106
    415    O    -9.598    6.731    -4.083
    416    P    -11.149    6.657    -3.956
    417    O    -11.728    7.599    -4.934
    418    O    -11.539    6.833    -2.539
    419    O    -11.518    5.200    -4.399
    420    C    -12.829    4.873    -4.929
    421    H    -12.750    4.814    -6.037
    422    H    -13.599    5.656    -4.704
    423    C    -13.388    3.519    -4.421
    424    H    -13.819    2.932    -5.262
    425    O    -12.340    2.709    -3.815
    426    C    -12.858    2.008    -2.707
    427    H    -12.762    0.938    -3.006
    428    N    -12.085    2.253    -1.464
    429    C    -11.615    3.509    -1.163
    430    H    -11.794    4.281    -1.919
    431    C    -10.928    3.735    -0.031
    432    H    -10.524    4.714    0.220
    433    C    -11.911    1.211    -0.564
    434    O    -12.400    0.105    -0.835
    435    N    -11.227    1.415    0.587
    436    C    -10.735    2.636    0.865
    437    N    -10.080    2.813    2.015
    438    H    -10.060    2.075    2.689
    439    H    -9.780    3.722    2.308
    440    C    -14.336    2.335    -2.552
    441    H    -14.606    2.500    -1.485
    442    O    -15.130    1.284    -3.080
    443    H    -16.062    1.559    -3.088
    444    C    -14.465    3.644    -3.335
    445    H    -14.182    4.506    -2.691
    446    O    -15.762    3.852    -3.928
    447    H    -16.450    3.892    -3.236
 $END
