!*** FMO 5.3 (Gamess) INPUT generated by Facio 22.1.1.32 ***
 $CONTRL RUNTYP=ENERGY NPRINT=-5 ISPHER=1 MAXIT=200 $END
 $SYSTEM MWORDS=63 MEMDDI=63 $END
 $GDDI NGROUP=1 $END
 $SCF DIRSCF=.TRUE. NPUNCH=0 $END
!*** NumCPU : 2  MemPerNode : 512MB
 $PCM SOLVNT=WATER IEF=-10 ICOMP=2 ICAV=1 IDISP=1 IFMO=-1 $END
 $PCMCAV RADII=SUAHF $END
 $TESCAV NTSALL=60 $END
 $FMOPRP
    NAODIR=200
    NGRFMO(1)=1, 1, 0, 0, 0,   0, 0, 0, 0, 0
    IPIEDA=1
    NPRINT=9
 $END
 $FMO
      SCFTYP(1)=RHF
      MODGRD=10
      MODMUL=0
      MAXCAO=5
      MAXBND=16
      NLAYER=1
      MPLEVL(1)=2
      NFRAG=14
      ICHARG(1)=-1, -1, -1, -1, -1, -1, -1, -1, -1, -1, -1, -1, -1, 0
      FRGNAM(1)=F1, F2, F3, F4, F5, F6, F7, F8, F9, F10, F11, F12, F13, F14
      indat(1)=0
               1   -36   0
               37   -70   0
               71   -101   0
               102   -134   0
               135   -165   0
               166   -195   0
               196   -225   0
               226   -256   0
               257   -290   0
               291   -324   0
               325   -354   0
               355   -388   0
               389   -419   0
               420   -447   0
 $END

 $FMOBND
   -37   36       6-31G*    MINI
   -71   70       6-31G*    MINI
   -102   101       6-31G*    MINI
   -135   134       6-31G*    MINI
   -166   165       6-31G*    MINI
   -196   195       6-31G*    MINI
   -226   225       6-31G*    MINI
   -257   256       6-31G*    MINI
   -291   290       6-31G*    MINI
   -325   324       6-31G*    MINI
   -355   354       6-31G*    MINI
   -389   388       6-31G*    MINI
   -420   419       6-31G*    MINI
 $END
 $FMOHYB
 6-31G*      15   5
   1 0  -0.065034   0.288264   0.000000   0.000000   0.604412
         0.290129   0.000000   0.000000   0.319045  -0.017106
        -0.017106   0.057934   0.000000   0.000000   0.000000
   0 1  -0.065040   0.288293   0.569832   0.000000  -0.201456
         0.290147   0.300783   0.000000  -0.106342   0.049598
        -0.017106  -0.008771   0.000000  -0.027223   0.000000
   0 1  -0.065039   0.288293  -0.284916  -0.493490  -0.201455
         0.290145  -0.150392  -0.260486  -0.106340  -0.000427
         0.032923  -0.008771   0.033353   0.013612   0.023576
   0 1  -0.065039   0.288293  -0.284916   0.493490  -0.201455
         0.290145  -0.150392   0.260486  -0.106340  -0.000427
         0.032923  -0.008771  -0.033353   0.013612  -0.023576
   0 1   1.010938  -0.011975   0.000000   0.000000   0.000000
        -0.054085   0.000000   0.000000  -0.000000  -0.003174
        -0.003174  -0.003174   0.000000   0.000000   0.000000
 MINI         5   5
   1 0  -0.104883   0.308874   0.000000   0.000000   0.521806
   0 1  -0.104883   0.308874   0.491961   0.000000  -0.173934
   0 1  -0.104883   0.308876  -0.245980  -0.426050  -0.173933
   0 1  -0.104883   0.308876  -0.245980   0.426050  -0.173933
   0 1   0.988209   0.063992   0.000000   0.000000   0.000000
 $END
 
 $DATA
 FMO calculation
 C1 
 H.1-1    1
      N31 6
   
 O.1-1    8
      N31 6
      d 1
      1 0.800 1.0
   
 C.1-1    6
      N31 6
      d 1
      1 0.800 1.0
   
 N.1-1    7
      N31 6
      d 1
      1 0.800 1.0
   
 P.1-1   15
      N31 6
      d 1
      1 0.550 1.0
   
 $END
 $FMOXYZ
    1    H    -5.911    0.663    8.115
    2    O    -6.680    0.232    7.692
    3    C    -6.754    -1.123    8.189
    4    H    -6.516    -1.091    9.276
    5    H    -5.959    -1.721    7.699
    6    C    -8.129    -1.852    8.033
    7    H    -8.333    -2.437    8.958
    8    O    -9.172    -0.834    7.947
    9    C    -10.054    -1.113    6.890
    10    H    -11.068    -1.067    7.346
    11    N    -10.039    -0.110    5.824
    12    C    -10.904    -0.116    4.763
    13    N    -13.535    -1.568    3.030
    14    H    -14.115    -1.354    2.248
    15    H    -13.763    -2.350    3.612
    16    N    -11.864    -1.033    4.525
    17    C    -12.584    -0.752    3.445
    18    N    -12.448    0.414    2.745
    19    H    -13.062    0.583    1.973
    20    C    -11.558    1.427    3.068
    21    O    -11.554    2.494    2.466
    22    C    -10.658    1.054    4.090
    23    N    -9.589    1.746    4.652
    24    C    -9.254    1.016    5.693
    25    H    -8.452    1.247    6.401
    26    C    -9.808    -2.508    6.391
    27    H    -9.916    -2.579    5.297
    28    O    -10.729    -3.379    7.012
    29    H    -10.387    -3.582    7.896
    30    C    -8.376    -2.814    6.803
    31    H    -7.659    -2.502    6.011
    32    O    -8.208    -4.204    7.149
    33    P    -8.273    -5.550    6.276
    34    O    -8.638    -6.647    7.205
    35    O    -6.943    -5.682    5.646
    36    O    -9.361    -5.571    5.100
    37    C    -9.664    -6.781    4.300
    38    H    -10.327    -7.420    4.932
    39    H    -8.751    -7.382    4.109
    40    C    -10.462    -6.655    2.909
    41    H    -11.198    -7.483    2.868
    42    O    -11.243    -5.422    2.945
    43    C    -11.023    -4.666    1.756
    44    H    -11.998    -4.210    1.476
    45    N    -10.057    -3.603    1.946
    46    C    -9.670    -2.668    1.035
    47    N    -9.834    -1.214    -2.107
    48    H    -10.560    -1.740    -2.543
    49    H    -9.481    -0.404    -2.567
    50    N    -10.126    -2.526    -0.225
    51    C    -9.554    -1.485    -0.848
    52    N    -8.614    -0.684    -0.251
    53    H    -8.228    0.098    -0.760
    54    C    -8.144    -0.859    1.044
    55    O    -7.289    -0.206    1.624
    56    C    -8.725    -1.928    1.692
    57    N    -8.516    -2.368    2.976
    58    C    -9.339    -3.356    3.074
    59    H    -9.548    -3.878    3.981
    60    C    -10.556    -5.601    0.684
    61    H    -9.896    -5.123    -0.074
    62    O    -11.692    -6.137    0.030
    63    H    -11.408    -6.929    -0.449
    64    C    -9.756    -6.639    1.462
    65    H    -8.713    -6.292    1.633
    66    O    -9.781    -7.906    0.760
    67    P    -8.848    -8.404    -0.451
    68    O    -9.521    -9.589    -1.031
    69    O    -7.529    -8.643    0.167
    70    O    -8.593    -7.371    -1.682
    71    C    -7.803    -7.988    -2.809
    72    H    -8.485    -8.654    -3.386
    73    H    -6.989    -8.652    -2.432
    74    C    -7.089    -7.096    -3.926
    75    H    -7.368    -7.489    -4.925
    76    O    -7.610    -5.738    -3.879
    77    C    -6.549    -4.799    -4.020
    78    H    -6.898    -4.066    -4.784
    79    N    -6.250    -4.077    -2.758
    80    C    -6.620    -4.636    -1.554
    81    H    -7.160    -5.579    -1.604
    82    C    -6.359    -4.026    -0.396
    83    H    -6.662    -4.437    0.565
    84    C    -5.556    -2.865    -2.782
    85    O    -5.208    -2.381    -3.871
    86    N    -5.296    -2.232    -1.617
    87    C    -5.662    -2.795    -0.449
    88    N    -5.357    -2.192    0.685
    89    H    -4.915    -1.292    0.609
    90    H    -5.545    -2.573    1.593
    91    C    -5.334    -5.522    -4.558
    92    H    -4.379    -5.065    -4.218
    93    O    -5.359    -5.539    -5.977
    94    H    -4.570    -6.023    -6.263
    95    C    -5.508    -6.918    -3.953
    96    H    -5.194    -6.909    -2.887
    97    O    -4.813    -7.963    -4.701
    98    P    -3.215    -8.112    -4.680
    99    O    -2.879    -9.453    -5.204
    100    O    -2.739    -7.826    -3.307
    101    O    -2.639    -7.041    -5.698
    102    C    -1.500    -7.286    -6.602
    103    H    -1.842    -7.946    -7.431
    104    H    -0.680    -7.830    -6.081
    105    C    -0.874    -6.014    -7.305
    106    H    -1.060    -6.074    -8.398
    107    O    -1.629    -4.855    -6.844
    108    C    -0.777    -3.846    -6.381
    109    H    -1.187    -2.894    -6.794
    110    N    -0.761    -3.766    -4.936
    111    C    -0.618    -3.001    -2.913
    112    N    -0.895    -4.357    -2.785
    113    C    -0.980    -4.764    -4.018
    114    H    -1.205    -5.789    -4.318
    115    N    -0.216    -0.724    -2.375
    116    C    -0.049    -0.532    -3.683
    117    H    0.206    0.489    -3.989
    118    N    -0.225    -1.401    -4.694
    119    C    -0.513    -2.627    -4.217
    120    C    -0.522    -1.984    -1.959
    121    N    -0.818    -2.282    -0.713
    122    H    -0.073    -2.694    -0.174
    123    H    -1.328    -1.625    -0.168
    124    C    0.583    -4.088    -6.937
    125    H    1.380    -3.741    -6.256
    126    O    0.702    -3.400    -8.163
    127    H    1.645    -3.438    -8.402
    128    C    0.648    -5.609    -7.101
    129    H    0.975    -6.090    -6.153
    130    O    1.486    -6.039    -8.202
    131    P    3.023    -5.724    -8.497
    132    O    3.208    -5.749    -9.962
    133    O    3.830    -6.682    -7.713
    134    O    3.366    -4.270    -7.999
    135    C    4.374    -3.336    -8.501
    136    H    4.277    -3.255    -9.609
    137    H    5.394    -3.724    -8.283
    138    C    4.283    -1.854    -7.931
    139    H    4.081    -1.157    -8.776
    140    O    3.104    -1.784    -7.082
    141    C    3.396    -1.195    -5.836
    142    H    2.570    -0.461    -5.686
    143    N    3.336    -2.147    -4.695
    144    C    3.366    -3.506    -4.908
    145    H    3.483    -3.827    -5.928
    146    C    3.222    -4.387    -3.915
    147    H    3.183    -5.463    -4.078
    148    C    3.257    -1.664    -3.397
    149    O    3.323    -0.441    -3.186
    150    N    3.104    -2.542    -2.385
    151    C    3.070    -3.867    -2.617
    152    N    2.904    -4.708    -1.610
    153    H    2.827    -4.230    -0.727
    154    H    3.356    -5.602    -1.596
    155    C    4.694    -0.443    -5.962
    156    H    5.273    -0.428    -5.013
    157    O    4.412    0.886    -6.369
    158    H    5.253    1.296    -6.610
    159    C    5.442    -1.220    -7.049
    160    H    6.003    -2.068    -6.603
    161    O    6.313    -0.388    -7.837
    162    P    7.636    0.420    -7.522
    163    O    7.606    1.663    -8.327
    164    O    8.771    -0.489    -7.783
    165    O    7.677    0.835    -5.993
    166    C    8.496    1.925    -5.463
    167    H    7.958    2.880    -5.652
    168    H    9.474    1.998    -5.981
    169    C    8.761    1.933    -3.913
    170    H    8.837    2.985    -3.561
    171    O    7.615    1.336    -3.238
    172    C    8.042    0.480    -2.191
    173    H    7.468    0.809    -1.292
    174    N    7.748    -0.962    -2.480
    175    C    7.514    -1.409    -3.753
    176    H    7.447    -0.632    -4.492
    177    C    7.696    -1.839    -1.426
    178    O    7.871    -1.484    -0.277
    179    N    7.413    -3.142    -1.749
    180    H    7.414    -3.806    -0.993
    181    C    7.184    -3.655    -3.003
    182    O    6.917    -4.846    -3.150
    183    C    7.243    -2.687    -4.052
    184    H    7.024    -3.005    -5.067
    185    C    9.518    0.751    -1.952
    186    H    10.067    -0.152    -1.611
    187    O    9.668    1.789    -0.997
    188    H    10.616    1.901    -0.853
    189    C    10.007    1.193    -3.330
    190    H    10.164    0.311    -3.989
    191    O    11.176    2.059    -3.265
    192    P    12.633    1.450    -3.135
    193    O    13.550    2.435    -3.746
    194    O    12.633    0.087    -3.714
    195    O    12.987    1.324    -1.585
    196    C    14.334    0.822    -1.276
    197    H    15.100    1.197    -2.002
    198    H    14.361    -0.288    -1.335
    199    C    14.874    1.222    0.122
    200    H    15.934    0.882    0.198
    201    O    14.876    2.670    0.267
    202    C    14.134    3.033    1.413
    203    H    14.891    3.173    2.222
    204    N    13.338    4.254    1.156
    205    C    12.533    4.315    0.043
    206    H    12.598    3.449    -0.618
    207    C    13.397    5.296    2.051
    208    O    14.100    5.266    3.057
    209    N    12.617    6.379    1.728
    210    H    12.631    7.148    2.386
    211    C    11.807    6.523    0.620
    212    O    11.181    7.568    0.446
    213    C    11.781    5.385    -0.252
    214    H    11.164    5.425    -1.147
    215    C    13.254    1.858    1.775
    216    H    12.317    1.864    1.176
    217    O    12.967    1.862    3.160
    218    H    12.377    1.113    3.365
    219    C    14.117    0.672    1.355
    220    H    13.441    -0.141    1.002
    221    O    15.019    0.234    2.397
    222    P    15.222    -1.287    2.742
    223    O    15.944    -1.399    4.030
    224    O    15.864    -1.921    1.572
    225    O    13.791    -1.891    2.890
    226    C    13.228    -2.336    4.145
    227    H    12.852    -1.445    4.698
    228    H    13.981    -2.844    4.793
    229    C    12.026    -3.296    3.949
    230    H    11.349    -3.224    4.823
    231    O    11.260    -2.944    2.762
    232    C    11.248    -4.038    1.876
    233    H    10.313    -4.589    2.128
    234    N    11.263    -3.620    0.463
    235    C    12.091    -2.594    0.093
    236    H    12.632    -2.111    0.907
    237    C    12.142    -2.176    -1.176
    238    H    12.748    -1.335    -1.494
    239    C    10.482    -4.274    -0.484
    240    O    9.721    -5.183    -0.112
    241    N    10.552    -3.890    -1.785
    242    C    11.333    -2.851    -2.131
    243    N    11.334    -2.426    -3.388
    244    H    11.868    -1.610    -3.648
    245    H    10.857    -2.950    -4.091
    246    C    12.434    -4.891    2.234
    247    H    13.382    -4.446    1.849
    248    O    12.287    -6.227    1.795
    249    H    11.574    -6.609    2.331
    250    C    12.386    -4.789    3.751
    251    H    13.411    -4.968    4.157
    252    O    11.390    -5.680    4.317
    253    P    11.631    -6.466    5.651
    254    O    13.083    -6.634    5.885
    255    O    10.822    -7.708    5.635
    256    O    11.045    -5.520    6.754
    257    C    9.637    -5.178    6.787
    258    H    9.066    -5.981    7.304
    259    H    9.206    -5.068    5.761
    260    C    9.402    -3.854    7.535
    261    H    9.551    -3.991    8.625
    262    O    10.384    -2.872    7.106
    263    C    9.832    -1.583    7.189
    264    H    10.403    -1.081    8.003
    265    N    10.020    -0.837    5.949
    266    C    9.506    -1.063    4.690
    267    N    7.580    -2.892    2.465
    268    H    7.393    -2.881    1.490
    269    H    7.219    -3.622    3.040
    270    N    8.670    -2.055    4.319
    271    C    8.394    -2.012    3.022
    272    N    8.893    -1.065    2.173
    273    H    8.626    -1.117    1.205
    274    C    9.761    -0.046    2.519
    275    O    10.183    0.773    1.700
    276    C    10.046    -0.062    3.904
    277    N    10.857    0.775    4.652
    278    C    10.816    0.278    5.858
    279    H    11.349    0.683    6.722
    280    C    8.378    -1.701    7.592
    281    H    7.721    -1.039    6.988
    282    O    8.238    -1.395    8.965
    283    H    7.358    -1.695    9.232
    284    C    8.049    -3.170    7.308
    285    H    7.817    -3.320    6.232
    286    O    7.033    -3.735    8.170
    287    P    5.511    -3.598    7.780
    288    O    4.708    -3.624    9.019
    289    O    5.212    -4.640    6.773
    290    O    5.361    -2.197    7.101
    291    C    4.891    -0.993    7.746
    292    H    5.504    -0.795    8.651
    293    H    3.839    -1.121    8.083
    294    C    4.962    0.286    6.852
    295    H    5.352    1.137    7.449
    296    O    5.894    0.093    5.734
    297    C    5.287    0.531    4.528
    298    H    6.060    1.087    3.952
    299    N    4.789    -0.577    3.719
    300    C    4.610    -0.575    2.363
    301    N    4.683    1.025    -0.722
    302    H    4.431    0.809    -1.666
    303    H    5.068    1.917    -0.503
    304    N    4.868    0.448    1.517
    305    C    4.524    0.150    0.258
    306    N    3.989    -1.057    -0.100
    307    H    3.735    -1.222    -1.064
    308    C    3.718    -2.106    0.770
    309    O    3.223    -3.189    0.462
    310    C    4.082    -1.811    2.079
    311    N    3.943    -2.585    3.213
    312    C    4.369    -1.813    4.162
    313    H    4.389    -2.098    5.204
    314    C    4.172    1.456    4.931
    315    H    3.392    1.556    4.146
    316    O    4.708    2.729    5.240
    317    H    3.987    3.250    5.613
    318    C    3.637    0.759    6.182
    319    H    3.056    -0.152    5.915
    320    O    2.901    1.613    7.080
    321    P    1.403    2.057    6.849
    322    O    1.027    2.967    7.952
    323    O    0.579    0.839    6.684
    324    O    1.387    2.872    5.510
    325    C    1.764    4.260    5.395
    326    H    2.791    4.410    5.796
    327    H    1.080    4.887    6.007
    328    C    1.720    4.795    3.931
    329    H    2.262    5.766    3.876
    330    O    2.408    3.887    3.019
    331    C    1.676    3.756    1.804
    332    H    2.398    4.040    1.005
    333    N    1.210    2.369    1.576
    334    C    0.957    1.587    2.667
    335    H    1.288    1.996    3.600
    336    C    0.959    1.910    0.300
    337    O    1.069    2.626    -0.689
    338    N    0.605    0.573    0.240
    339    H    0.474    0.183    -0.686
    340    C    0.597    -0.305    1.327
    341    O    0.644    -1.515    1.202
    342    C    0.627    0.307    2.591
    343    H    0.634    -0.331    3.472
    344    C    0.543    4.750    1.825
    345    H    -0.379    4.339    1.363
    346    O    0.916    5.928    1.139
    347    H    0.116    6.483    1.127
    348    C    0.317    5.007    3.320
    349    H    -0.337    4.218    3.755
    350    O    -0.150    6.331    3.648
    351    P    -1.558    6.902    3.264
    352    O    -1.584    8.330    3.642
    353    O    -2.586    6.021    3.860
    354    O    -1.654    6.786    1.703
    355    C    -1.894    7.888    0.802
    356    H    -1.004    8.557    0.774
    357    H    -2.766    8.493    1.141
    358    C    -2.173    7.445    -0.659
    359    H    -1.776    8.198    -1.374
    360    O    -1.516    6.181    -0.957
    361    C    -2.371    5.364    -1.735
    362    H    -1.790    5.082    -2.645
    363    N    -2.748    4.146    -1.009
    364    C    -3.132    2.947    -1.551
    365    N    -3.806    0.950    -4.307
    366    H    -4.102    0.019    -4.509
    367    H    -3.605    1.567    -5.065
    368    N    -3.253    2.666    -2.862
    369    C    -3.648    1.405    -3.077
    370    N    -3.872    0.509    -2.064
    371    H    -4.240    -0.404    -2.284
    372    C    -3.737    0.791    -0.711
    373    O    -3.933    -0.031    0.182
    374    C    -3.347    2.119    -0.475
    375    N    -3.128    2.777    0.725
    376    C    -2.778    3.979    0.358
    377    H    -2.519    4.789    1.039
    378    C    -3.570    6.194    -2.134
    379    H    -4.498    5.589    -2.187
    380    O    -3.331    6.815    -3.384
    381    H    -4.129    7.319    -3.599
    382    C    -3.658    7.218    -1.003
    383    H    -4.124    6.767    -0.097
    384    O    -4.272    8.473    -1.376
    385    P    -5.823    8.710    -1.272
    386    O    -6.129    10.052    -1.811
    387    O    -6.247    8.444    0.117
    388    O    -6.488    7.626    -2.192
    389    C    -6.828    7.861    -3.578
    390    H    -5.991    8.381    -4.094
    391    H    -7.721    8.523    -3.645
    392    C    -7.137    6.560    -4.373
    393    H    -6.897    6.705    -5.448
    394    O    -6.308    5.467    -3.907
    395    C    -7.058    4.265    -3.822
    396    H    -6.545    3.573    -4.528
    397    N    -7.011    3.656    -2.479
    398    C    -6.793    4.472    -1.397
    399    H    -6.650    5.526    -1.605
    400    C    -6.683    3.990    -0.170
    401    H    -6.418    4.606    0.688
    402    C    -7.250    2.291    -2.287
    403    O    -7.552    1.580    -3.258
    404    N    -7.122    1.781    -1.040
    405    C    -6.796    2.599    -0.013
    406    N    -6.514    2.141    1.179
    407    H    -7.248    2.224    1.849
    408    H    -6.169    1.203    1.192
    409    C    -8.464    4.517    -4.313
    410    H    -9.227    4.073    -3.639
    411    O    -8.630    3.990    -5.617
    412    H    -9.543    4.217    -5.872
    413    C    -8.586    6.048    -4.280
    414    H    -8.963    6.379    -3.285
    415    O    -9.363    6.621    -5.349
    416    P    -10.917    6.454    -5.475
    417    O    -11.364    7.340    -6.567
    418    O    -11.527    6.651    -4.147
    419    O    -11.170    4.960    -5.915
    420    C    -12.410    4.607    -6.599
    421    H    -12.183    4.449    -7.676
    422    H    -13.180    5.422    -6.567
    423    C    -13.109    3.319    -6.078
    424    H    -13.489    2.712    -6.929
    425    O    -12.192    2.473    -5.337
    426    C    -12.864    1.865    -4.248
    427    H    -12.808    0.773    -4.470
    428    N    -12.190    2.148    -2.969
    429    C    -11.711    3.417    -2.741
    430    H    -11.832    4.135    -3.559
    431    C    -11.068    3.717    -1.614
    432    H    -10.636    4.700    -1.427
    433    C    -12.129    1.184    -1.961
    434    O    -12.679    0.087    -2.148
    435    N    -11.443    1.462    -0.825
    436    C    -10.880    2.675    -0.669
    437    N    -10.094    2.903    0.363
    438    H    -10.168    2.191    1.058
    439    H    -10.076    3.828    0.743
    440    C    -14.321    2.293    -4.254
    441    H    -14.670    2.550    -3.231
    442    O    -15.136    1.262    -4.792
    443    H    -16.049    1.587    -4.883
    444    C    -14.285    3.557    -5.118
    445    H    -14.018    4.437    -4.492
    446    O    -15.500    3.806    -5.849
    447    H    -16.248    3.938    -5.235
 $END
