!*** FMO 5.3 (Gamess) INPUT generated by Facio 22.1.1.32 ***
 $CONTRL RUNTYP=ENERGY NPRINT=-5 ISPHER=1 MAXIT=200 $END
 $SYSTEM MWORDS=63 MEMDDI=63 $END
 $GDDI NGROUP=1 $END
 $SCF DIRSCF=.TRUE. NPUNCH=0 $END
!*** NumCPU : 2  MemPerNode : 512MB
 $PCM SOLVNT=WATER IEF=-10 ICOMP=2 ICAV=1 IDISP=1 IFMO=-1 $END
 $PCMCAV RADII=SUAHF $END
 $TESCAV NTSALL=60 $END
 $FMOPRP
    NAODIR=200
    NGRFMO(1)=1, 1, 0, 0, 0,   0, 0, 0, 0, 0
    IPIEDA=1
    NPRINT=9
 $END
 $FMO
      SCFTYP(1)=RHF
      MODGRD=10
      MODMUL=0
      MAXCAO=5
      MAXBND=16
      NLAYER=1
      MPLEVL(1)=2
      NFRAG=14
      ICHARG(1)=-1, -1, -1, -1, -1, -1, -1, -1, -1, -1, -1, -1, -1, 0
      FRGNAM(1)=F1, F2, F3, F4, F5, F6, F7, F8, F9, F10, F11, F12, F13, F14
      indat(1)=0
               1   -36   0
               37   -70   0
               71   -101   0
               102   -134   0
               135   -165   0
               166   -195   0
               196   -225   0
               226   -256   0
               257   -290   0
               291   -324   0
               325   -354   0
               355   -388   0
               389   -419   0
               420   -447   0
 $END

 $FMOBND
   -37   36       6-31G*    MINI
   -71   70       6-31G*    MINI
   -102   101       6-31G*    MINI
   -135   134       6-31G*    MINI
   -166   165       6-31G*    MINI
   -196   195       6-31G*    MINI
   -226   225       6-31G*    MINI
   -257   256       6-31G*    MINI
   -291   290       6-31G*    MINI
   -325   324       6-31G*    MINI
   -355   354       6-31G*    MINI
   -389   388       6-31G*    MINI
   -420   419       6-31G*    MINI
 $END
 $FMOHYB
 6-31G*      15   5
   1 0  -0.065034   0.288264   0.000000   0.000000   0.604412
         0.290129   0.000000   0.000000   0.319045  -0.017106
        -0.017106   0.057934   0.000000   0.000000   0.000000
   0 1  -0.065040   0.288293   0.569832   0.000000  -0.201456
         0.290147   0.300783   0.000000  -0.106342   0.049598
        -0.017106  -0.008771   0.000000  -0.027223   0.000000
   0 1  -0.065039   0.288293  -0.284916  -0.493490  -0.201455
         0.290145  -0.150392  -0.260486  -0.106340  -0.000427
         0.032923  -0.008771   0.033353   0.013612   0.023576
   0 1  -0.065039   0.288293  -0.284916   0.493490  -0.201455
         0.290145  -0.150392   0.260486  -0.106340  -0.000427
         0.032923  -0.008771  -0.033353   0.013612  -0.023576
   0 1   1.010938  -0.011975   0.000000   0.000000   0.000000
        -0.054085   0.000000   0.000000  -0.000000  -0.003174
        -0.003174  -0.003174   0.000000   0.000000   0.000000
 MINI         5   5
   1 0  -0.104883   0.308874   0.000000   0.000000   0.521806
   0 1  -0.104883   0.308874   0.491961   0.000000  -0.173934
   0 1  -0.104883   0.308876  -0.245980  -0.426050  -0.173933
   0 1  -0.104883   0.308876  -0.245980   0.426050  -0.173933
   0 1   0.988209   0.063992   0.000000   0.000000   0.000000
 $END
 
 $DATA
 FMO calculation
 C1 
 H.1-1    1
      N31 6
   
 O.1-1    8
      N31 6
      d 1
      1 0.800 1.0
   
 C.1-1    6
      N31 6
      d 1
      1 0.800 1.0
   
 N.1-1    7
      N31 6
      d 1
      1 0.800 1.0
   
 P.1-1   15
      N31 6
      d 1
      1 0.550 1.0
   
 $END
 $FMOXYZ
    1    H    -7.945    -7.408    8.393
    2    O    -8.373    -7.181    7.544
    3    C    -9.030    -8.372    7.080
    4    H    -9.567    -8.836    7.938
    5    H    -8.265    -9.102    6.728
    6    C    -10.044    -8.135    5.946
    7    H    -10.718    -9.012    5.835
    8    O    -10.884    -6.978    6.242
    9    C    -11.098    -6.234    5.054
    10    H    -12.201    -6.138    4.924
    11    N    -10.510    -4.889    5.135
    12    C    -10.777    -3.832    4.302
    13    N    -12.497    -2.488    1.617
    14    H    -12.571    -1.632    1.110
    15    H    -13.009    -3.282    1.295
    16    N    -11.620    -3.842    3.255
    17    C    -11.697    -2.656    2.651
    18    N    -10.985    -1.554    3.058
    19    H    -11.108    -0.688    2.564
    20    C    -10.118    -1.526    4.147
    21    O    -9.519    -0.506    4.489
    22    C    -10.022    -2.785    4.785
    23    N    -9.274    -3.175    5.890
    24    C    -9.595    -4.436    6.059
    25    H    -9.211    -5.080    6.854
    26    C    -10.527    -7.028    3.904
    27    H    -10.120    -6.369    3.113
    28    O    -11.505    -7.877    3.342
    29    H    -11.051    -8.324    2.616
    30    C    -9.420    -7.842    4.567
    31    H    -8.516    -7.215    4.744
    32    O    -9.104    -9.084    3.900
    33    P    -8.212    -9.150    2.605
    34    O    -8.245    -10.533    2.084
    35    O    -6.884    -8.599    2.937
    36    O    -8.896    -8.197    1.558
    37    C    -9.865    -8.633    0.577
    38    H    -10.712    -9.160    1.074
    39    H    -9.402    -9.345    -0.143
    40    C    -10.455    -7.453    -0.234
    41    H    -11.399    -7.767    -0.734
    42    O    -10.779    -6.333    0.645
    43    C    -10.398    -5.108    0.029
    44    H    -11.287    -4.440    0.082
    45    N    -9.281    -4.457    0.742
    46    C    -8.882    -3.157    0.595
    47    N    -9.231    -0.099    -0.942
    48    H    -10.019    -0.251    -1.532
    49    H    -8.861    0.833    -0.861
    50    N    -9.422    -2.264    -0.243
    51    C    -8.831    -1.078    -0.169
    52    N    -7.817    -0.790    0.706
    53    H    -7.449    0.148    0.714
    54    C    -7.280    -1.680    1.628
    55    O    -6.393    -1.329    2.412
    56    C    -7.855    -2.974    1.500
    57    N    -7.574    -4.155    2.173
    58    C    -8.445    -5.006    1.687
    59    H    -8.526    -6.047    1.984
    60    C    -10.077    -5.402    -1.417
    61    H    -9.302    -4.724    -1.837
    62    O    -11.263    -5.311    -2.194
    63    H    -11.066    -5.665    -3.076
    64    C    -9.554    -6.831    -1.319
    65    H    -8.529    -6.826    -0.882
    66    O    -9.650    -7.573    -2.553
    67    P    -8.359    -7.941    -3.365
    68    O    -8.724    -8.908    -4.422
    69    O    -7.290    -8.335    -2.424
    70    O    -7.929    -6.590    -4.028
    71    C    -8.076    -6.395    -5.454
    72    H    -9.153    -6.417    -5.740
    73    H    -7.526    -7.181    -6.035
    74    C    -7.545    -5.032    -5.883
    75    H    -7.886    -4.766    -6.906
    76    O    -8.026    -4.015    -4.973
    77    C    -7.032    -3.045    -4.849
    78    H    -7.567    -2.117    -5.161
    79    N    -6.494    -2.942    -3.470
    80    C    -6.414    -3.968    -2.567
    81    H    -6.858    -4.912    -2.884
    82    C    -5.860    -3.777    -1.357
    83    H    -5.798    -4.569    -0.613
    84    C    -5.983    -1.718    -3.166
    85    O    -6.086    -0.863    -4.050
    86    N    -5.404    -1.481    -1.955
    87    C    -5.313    -2.488    -1.066
    88    N    -4.705    -2.275    0.104
    89    H    -4.309    -1.392    0.334
    90    H    -4.669    -2.982    0.813
    91    C    -5.927    -3.348    -5.856
    92    H    -4.920    -3.015    -5.525
    93    O    -6.243    -2.759    -7.109
    94    H    -6.306    -1.794    -7.012
    95    C    -6.024    -4.866    -5.849
    96    H    -5.717    -5.242    -4.849
    97    O    -5.387    -5.578    -6.936
    98    P    -3.982    -6.259    -6.670
    99    O    -3.866    -7.469    -7.509
    100    O    -3.732    -6.428    -5.223
    101    O    -2.975    -5.214    -7.181
    102    C    -2.273    -5.235    -8.423
    103    H    -2.992    -5.086    -9.258
    104    H    -1.732    -6.199    -8.575
    105    C    -1.258    -4.093    -8.428
    106    H    -0.976    -3.811    -9.466
    107    O    -1.824    -2.895    -7.755
    108    C    -0.813    -2.313    -6.967
    109    H    -0.800    -1.222    -7.198
    110    N    -0.988    -2.545    -5.503
    111    C    -0.830    -2.308    -3.311
    112    N    -1.422    -3.537    -3.523
    113    C    -1.490    -3.638    -4.829
    114    H    -1.898    -4.499    -5.352
    115    N    0.052    -0.371    -2.284
    116    C    0.286    0.057    -3.532
    117    H    0.754    1.019    -3.669
    118    N    0.021    -0.505    -4.706
    119    C    -0.539    -1.700    -4.524
    120    C    -0.504    -1.599    -2.132
    121    N    -0.719    -2.083    -0.891
    122    H    -1.065    -3.012    -0.722
    123    H    -0.418    -1.557    -0.097
    124    C    0.465    -2.937    -7.432
    125    H    1.141    -2.787    -6.601
    126    O    0.974    -2.335    -8.611
    127    H    1.772    -2.821    -8.868
    128    C    0.039    -4.379    -7.639
    129    H    -0.261    -4.857    -6.683
    130    O    0.970    -5.198    -8.372
    131    P    1.744    -6.424    -7.726
    132    O    2.345    -7.204    -8.836
    133    O    0.874    -7.186    -6.800
    134    O    2.941    -5.821    -6.902
    135    C    4.003    -5.089    -7.575
    136    H    3.806    -4.931    -8.662
    137    H    4.950    -5.676    -7.514
    138    C    4.264    -3.693    -6.975
    139    H    4.444    -2.943    -7.774
    140    O    3.141    -3.246    -6.230
    141    C    3.509    -2.491    -5.117
    142    H    3.021    -1.498    -5.253
    143    N    3.035    -3.094    -3.840
    144    C    2.424    -4.328    -3.791
    145    H    2.358    -4.873    -4.737
    146    C    1.974    -4.830    -2.633
    147    H    1.495    -5.806    -2.567
    148    C    3.101    -2.318    -2.696
    149    O    3.510    -1.156    -2.809
    150    N    2.715    -2.824    -1.502
    151    C    2.136    -4.037    -1.456
    152    N    1.702    -4.494    -0.286
    153    H    1.769    -3.908    0.518
    154    H    1.258    -5.387    -0.185
    155    C    5.005    -2.340    -5.194
    156    H    5.487    -2.320    -4.195
    157    O    5.337    -1.169    -5.918
    158    H    6.285    -1.217    -6.099
    159    C    5.382    -3.592    -5.972
    160    H    5.285    -4.484    -5.312
    161    O    6.619    -3.495    -6.692
    162    P    7.775    -4.477    -6.343
    163    O    8.762    -4.454    -7.444
    164    O    7.208    -5.794    -5.975
    165    O    8.380    -3.797    -5.057
    166    C    8.781    -2.402    -5.123
    167    H    8.091    -1.767    -5.727
    168    H    9.788    -2.343    -5.594
    169    C    8.893    -1.765    -3.733
    170    H    9.283    -0.728    -3.805
    171    O    7.615    -1.688    -3.053
    172    C    7.828    -1.908    -1.665
    173    H    7.437    -1.002    -1.150
    174    N    7.098    -3.121    -1.177
    175    C    6.668    -4.093    -2.057
    176    H    6.934    -3.933    -3.104
    177    C    6.828    -3.227    0.171
    178    O    7.190    -2.389    0.989
    179    N    6.104    -4.333    0.538
    180    H    5.885    -4.432    1.518
    181    C    5.613    -5.319    -0.289
    182    O    4.951    -6.244    0.176
    183    C    5.943    -5.154    -1.671
    184    H    5.593    -5.901    -2.379
    185    C    9.344    -1.974    -1.452
    186    H    9.603    -2.630    -0.603
    187    O    9.875    -0.678    -1.250
    188    H    10.824    -0.761    -1.062
    189    C    9.775    -2.549    -2.785
    190    H    9.466    -3.613    -2.856
    191    O    11.103    -2.422    -3.213
    192    P    12.537    -1.983    -2.926
    193    O    12.981    -1.126    -4.046
    194    O    13.272    -3.246    -2.711
    195    O    12.665    -1.137    -1.582
    196    C    14.062    -1.186    -1.099
    197    H    14.820    -1.130    -1.935
    198    H    14.234    -2.135    -0.540
    199    C    14.478    -0.034    -0.181
    200    H    15.562    -0.122    0.050
    201    O    14.301    1.215    -0.904
    202    C    13.621    2.139    -0.110
    203    H    14.424    2.765    0.347
    204    N    12.679    2.962    -0.926
    205    C    11.802    2.350    -1.792
    206    H    11.917    1.267    -1.877
    207    C    12.613    4.320    -0.702
    208    O    13.317    4.891    0.125
    209    N    11.707    4.995    -1.481
    210    H    11.663    5.989    -1.333
    211    C    10.849    4.463    -2.419
    212    O    10.146    5.206    -3.107
    213    C    10.905    3.034    -2.523
    214    H    10.265    2.540    -3.249
    215    C    12.897    1.375    0.963
    216    H    11.870    1.120    0.639
    217    O    12.908    2.184    2.110
    218    H    13.731    1.989    2.573
    219    C    13.701    0.070    1.147
    220    H    12.969    -0.773    1.156
    221    O    14.574    0.022    2.312
    222    P    14.724    -1.286    3.214
    223    O    15.640    -0.968    4.332
    224    O    15.125    -2.420    2.349
    225    O    13.303    -1.626    3.799
    226    C    12.997    -1.605    5.223
    227    H    12.982    -0.547    5.572
    228    H    13.792    -2.111    5.807
    229    C    11.627    -2.241    5.636
    230    H    11.107    -1.560    6.336
    231    O    10.777    -2.445    4.476
    232    C    10.515    -3.813    4.317
    233    H    9.543    -3.978    4.831
    234    N    10.423    -4.204    2.899
    235    C    11.317    -3.673    2.001
    236    H    12.004    -2.926    2.402
    237    C    11.294    -4.026    0.709
    238    H    11.982    -3.606    -0.024
    239    C    9.451    -5.108    2.475
    240    O    8.655    -5.589    3.300
    241    N    9.415    -5.477    1.173
    242    C    10.304    -4.971    0.301
    243    N    10.241    -5.360    -0.970
    244    H    10.897    -5.049    -1.658
    245    H    9.573    -6.057    -1.226
    246    C    11.607    -4.519    5.088
    247    H    12.579    -4.465    4.549
    248    O    11.281    -5.850    5.432
    249    H    10.525    -5.794    6.037
    250    C    11.628    -3.631    6.319
    251    H    12.578    -3.757    6.884
    252    O    10.450    -3.830    7.149
    253    P    10.410    -4.037    8.699
    254    O    11.753    -4.451    9.162
    255    O    9.300    -4.974    9.016
    256    O    10.055    -2.627    9.321
    257    C    8.806    -1.905    9.095
    258    H    8.098    -2.116    9.926
    259    H    8.323    -2.229    8.147
    260    C    8.988    -0.364    8.998
    261    H    9.171    0.060    10.009
    262    O    10.202    -0.152    8.229
    263    C    10.116    1.045    7.511
    264    H    10.951    1.665    7.904
    265    N    10.274    0.876    6.078
    266    C    9.537    0.189    5.121
    267    N    6.903    -1.867    4.188
    268    H    6.591    -2.327    3.365
    269    H    6.458    -2.040    5.064
    270    N    8.424    -0.559    5.307
    271    C    7.982    -1.103    4.187
    272    N    8.565    -0.899    2.966
    273    H    8.195    -1.377    2.163
    274    C    9.720    -0.168    2.749
    275    O    10.184    -0.064    1.614
    276    C    10.190    0.445    3.939
    277    N    11.271    1.278    4.148
    278    C    11.279    1.513    5.420
    279    H    12.014    2.130    5.943
    280    C    8.828    1.712    7.820
    281    H    8.418    2.219    6.918
    282    O    9.002    2.644    8.875
    283    H    8.115    2.905    9.164
    284    C    7.948    0.551    8.246
    285    H    7.590    -0.041    7.393
    286    O    6.819    0.983    9.026
    287    P    5.672    1.920    8.398
    288    O    5.417    3.000    9.375
    289    O    4.510    1.066    8.069
    290    O    6.144    2.622    7.059
    291    C    5.676    3.886    6.474
    292    H    5.950    4.725    7.152
    293    H    4.569    3.876    6.390
    294    C    6.284    4.245    5.038
    295    H    7.132    4.943    5.187
    296    O    6.882    3.025    4.513
    297    C    6.268    2.650    3.301
    298    H    7.084    2.187    2.698
    299    N    5.206    1.652    3.426
    300    C    4.742    0.909    2.376
    301    N    4.944    0.038    -0.943
    302    H    5.550    0.741    -1.301
    303    H    4.448    -0.544    -1.596
    304    N    5.171    0.993    1.108
    305    C    4.611    0.086    0.324
    306    N    3.681    -0.828    0.759
    307    H    3.299    -1.476    0.090
    308    C    3.208    -0.924    2.067
    309    O    2.380    -1.776    2.400
    310    C    3.801    0.057    2.910
    311    N    3.647    0.288    4.272
    312    C    4.505    1.247    4.536
    313    H    4.691    1.679    5.518
    314    C    5.810    3.889    2.633
    315    H    4.966    3.738    1.929
    316    O    6.923    4.417    1.936
    317    H    7.445    4.916    2.580
    318    C    5.407    4.786    3.802
    319    H    4.338    4.633    4.076
    320    O    5.659    6.175    3.480
    321    P    5.087    7.014    2.228
    322    O    5.967    8.195    2.080
    323    O    3.673    7.302    2.542
    324    O    5.096    6.230    0.830
    325    C    5.200    6.953    -0.442
    326    H    6.276    6.992    -0.730
    327    H    4.850    8.009    -0.355
    328    C    4.450    6.354    -1.683
    329    H    4.874    6.789    -2.611
    330    O    4.628    4.907    -1.784
    331    C    3.402    4.316    -2.218
    332    H    3.665    3.610    -3.041
    333    N    2.715    3.595    -1.103
    334    C    2.969    3.878    0.209
    335    H    3.783    4.574    0.369
    336    C    1.690    2.759    -1.450
    337    O    1.358    2.634    -2.600
    338    N    1.075    2.114    -0.397
    339    H    0.370    1.448    -0.664
    340    C    1.291    2.344    0.946
    341    O    0.638    1.745    1.796
    342    C    2.297    3.323    1.226
    343    H    2.512    3.579    2.259
    344    C    2.542    5.440    -2.764
    345    H    1.455    5.216    -2.714
    346    O    2.908    5.726    -4.108
    347    H    2.316    6.410    -4.460
    348    C    2.918    6.541    -1.775
    349    H    2.541    6.289    -0.758
    350    O    2.552    7.879    -2.176
    351    P    1.132    8.423    -1.722
    352    O    1.092    9.877    -1.986
    353    O    0.846    7.989    -0.342
    354    O    0.105    7.716    -2.677
    355    C    -0.898    8.508    -3.365
    356    H    -0.412    9.062    -4.204
    357    H    -1.370    9.259    -2.686
    358    C    -2.039    7.666    -3.967
    359    H    -2.367    8.113    -4.930
    360    O    -1.604    6.285    -4.213
    361    C    -2.645    5.405    -3.821
    362    H    -2.740    4.642    -4.630
    363    N    -2.376    4.764    -2.516
    364    C    -2.870    3.558    -2.213
    365    N    -4.835    1.074    -3.132
    366    H    -4.792    1.159    -4.123
    367    H    -5.226    0.222    -2.777
    368    N    -3.588    2.830    -3.040
    369    C    -4.044    1.773    -2.458
    370    N    -3.740    1.347    -1.196
    371    H    -4.142    0.490    -0.873
    372    C    -2.910    2.052    -0.332
    373    O    -2.643    1.621    0.791
    374    C    -2.492    3.283    -0.916
    375    N    -1.762    4.336    -0.394
    376    C    -1.709    5.199    -1.387
    377    H    -1.202    6.166    -1.361
    378    C    -3.898    6.246    -3.766
    379    H    -4.713    5.792    -3.162
    380    O    -4.348    6.492    -5.089
    381    H    -3.578    6.711    -5.639
    382    C    -3.299    7.470    -3.094
    383    H    -2.888    7.175    -2.109
    384    O    -4.155    8.637    -2.984
    385    P    -4.619    9.059    -1.513
    386    O    -4.995    10.491    -1.515
    387    O    -3.590    8.661    -0.526
    388    O    -5.876    8.192    -1.216
    389    C    -7.208    8.573    -1.596
    390    H    -7.228    8.985    -2.631
    391    H    -7.621    9.352    -0.916
    392    C    -8.132    7.356    -1.576
    393    H    -9.009    7.587    -2.218
    394    O    -7.446    6.186    -2.155
    395    C    -7.989    5.012    -1.565
    396    H    -8.322    4.380    -2.419
    397    N    -7.033    4.260    -0.700
    398    C    -5.998    4.879    -0.034
    399    H    -5.817    5.927    -0.292
    400    C    -5.262    4.209    0.866
    401    H    -4.461    4.679    1.431
    402    C    -7.291    2.913    -0.477
    403    O    -8.238    2.388    -1.075
    404    N    -6.538    2.212    0.399
    405    C    -5.613    2.851    1.133
    406    N    -5.033    2.198    2.138
    407    H    -5.220    1.225    2.244
    408    H    -4.206    2.553    2.575
    409    C    -9.196    5.469    -0.759
    410    H    -9.460    4.769    0.060
    411    O    -10.306    5.652    -1.627
    412    H    -10.995    6.126    -1.139
    413    C    -8.647    6.791    -0.231
    414    H    -7.730    6.611    0.366
    415    O    -9.596    7.634    0.477
    416    P    -9.366    7.944    2.036
    417    O    -9.394    9.405    2.247
    418    O    -8.185    7.224    2.556
    419    O    -10.582    7.365    2.816
    420    C    -11.937    7.832    2.785
    421    H    -12.080    8.695    2.091
    422    H    -12.217    8.189    3.804
    423    C    -12.888    6.688    2.406
    424    H    -13.824    7.074    1.946
    425    O    -12.232    5.787    1.457
    426    C    -12.509    4.444    1.793
    427    H    -13.034    4.057    0.891
    428    N    -11.288    3.622    2.044
    429    C    -10.237    4.132    2.767
    430    H    -10.332    5.163    3.096
    431    C    -9.152    3.395    3.038
    432    H    -8.308    3.778    3.608
    433    C    -11.243    2.297    1.607
    434    O    -12.213    1.840    0.981
    435    N    -10.160    1.529    1.884
    436    C    -9.135    2.051    2.580
    437    N    -8.093    1.285    2.874
    438    H    -8.220    0.304    2.787
    439    H    -7.357    1.608    3.467
    440    C    -13.481    4.426    2.965
    441    H    -13.227    3.626    3.694
    442    O    -14.804    4.242    2.489
    443    H    -15.428    4.374    3.224
    444    C    -13.267    5.802    3.601
    445    H    -12.388    5.777    4.280
    446    O    -14.419    6.334    4.284
    447    H    -14.688    5.740    5.009
 $END
