!*** FMO 5.3 (Gamess) INPUT generated by Facio 22.1.1.32 ***
 $CONTRL RUNTYP=ENERGY NPRINT=-5 ISPHER=1 MAXIT=200 $END
 $SYSTEM MWORDS=63 MEMDDI=63 $END
 $GDDI NGROUP=1 $END
 $SCF DIRSCF=.TRUE. NPUNCH=0 $END
!*** NumCPU : 2  MemPerNode : 512MB
 $PCM SOLVNT=WATER IEF=-10 ICOMP=2 ICAV=1 IDISP=1 IFMO=-1 $END
 $PCMCAV RADII=SUAHF $END
 $TESCAV NTSALL=60 $END
 $FMOPRP
    NAODIR=200
    NGRFMO(1)=1, 1, 0, 0, 0,   0, 0, 0, 0, 0
    IPIEDA=1
    NPRINT=9
 $END
 $FMO
      SCFTYP(1)=RHF
      MODGRD=10
      MODMUL=0
      MAXCAO=5
      MAXBND=16
      NLAYER=1
      MPLEVL(1)=2
      NFRAG=14
      ICHARG(1)=-1, -1, -1, -1, -1, -1, -1, -1, -1, -1, -1, -1, -1, 0
      FRGNAM(1)=F1, F2, F3, F4, F5, F6, F7, F8, F9, F10, F11, F12, F13, F14
      indat(1)=0
               1   -36   0
               37   -70   0
               71   -101   0
               102   -134   0
               135   -165   0
               166   -195   0
               196   -225   0
               226   -256   0
               257   -290   0
               291   -324   0
               325   -354   0
               355   -388   0
               389   -419   0
               420   -447   0
 $END

 $FMOBND
   -37   36       6-31G*    MINI
   -71   70       6-31G*    MINI
   -102   101       6-31G*    MINI
   -135   134       6-31G*    MINI
   -166   165       6-31G*    MINI
   -196   195       6-31G*    MINI
   -226   225       6-31G*    MINI
   -257   256       6-31G*    MINI
   -291   290       6-31G*    MINI
   -325   324       6-31G*    MINI
   -355   354       6-31G*    MINI
   -389   388       6-31G*    MINI
   -420   419       6-31G*    MINI
 $END
 $FMOHYB
 6-31G*      15   5
   1 0  -0.065034   0.288264   0.000000   0.000000   0.604412
         0.290129   0.000000   0.000000   0.319045  -0.017106
        -0.017106   0.057934   0.000000   0.000000   0.000000
   0 1  -0.065040   0.288293   0.569832   0.000000  -0.201456
         0.290147   0.300783   0.000000  -0.106342   0.049598
        -0.017106  -0.008771   0.000000  -0.027223   0.000000
   0 1  -0.065039   0.288293  -0.284916  -0.493490  -0.201455
         0.290145  -0.150392  -0.260486  -0.106340  -0.000427
         0.032923  -0.008771   0.033353   0.013612   0.023576
   0 1  -0.065039   0.288293  -0.284916   0.493490  -0.201455
         0.290145  -0.150392   0.260486  -0.106340  -0.000427
         0.032923  -0.008771  -0.033353   0.013612  -0.023576
   0 1   1.010938  -0.011975   0.000000   0.000000   0.000000
        -0.054085   0.000000   0.000000  -0.000000  -0.003174
        -0.003174  -0.003174   0.000000   0.000000   0.000000
 MINI         5   5
   1 0  -0.104883   0.308874   0.000000   0.000000   0.521806
   0 1  -0.104883   0.308874   0.491961   0.000000  -0.173934
   0 1  -0.104883   0.308876  -0.245980  -0.426050  -0.173933
   0 1  -0.104883   0.308876  -0.245980   0.426050  -0.173933
   0 1   0.988209   0.063992   0.000000   0.000000   0.000000
 $END
 
 $DATA
 FMO calculation
 C1 
 H.1-1    1
      N31 6
   
 O.1-1    8
      N31 6
      d 1
      1 0.800 1.0
   
 C.1-1    6
      N31 6
      d 1
      1 0.800 1.0
   
 N.1-1    7
      N31 6
      d 1
      1 0.800 1.0
   
 P.1-1   15
      N31 6
      d 1
      1 0.550 1.0
   
 $END
 $FMOXYZ
    1    H    -7.366    1.376    8.084
    2    O    -7.982    0.872    7.516
    3    C    -8.295    -0.359    8.193
    4    H    -8.585    -0.113    9.239
    5    H    -7.384    -0.994    8.242
    6    C    -9.444    -1.185    7.571
    7    H    -9.929    -1.803    8.359
    8    O    -10.466    -0.293    7.039
    9    C    -10.893    -0.742    5.771
    10    H    -11.998    -0.865    5.858
    11    N    -10.649    0.248    4.719
    12    C    -11.171    0.218    3.451
    13    N    -13.145    -1.280    1.024
    14    H    -13.560    -1.019    0.153
    15    H    -13.529    -2.064    1.510
    16    N    -11.963    -0.744    2.934
    17    C    -12.377    -0.450    1.702
    18    N    -12.170    0.770    1.120
    19    H    -12.521    0.930    0.194
    20    C    -11.491    1.824    1.715
    21    O    -11.459    2.944    1.210
    22    C    -10.834    1.434    2.902
    23    N    -9.992    2.154    3.742
    24    C    -9.902    1.403    4.813
    25    H    -9.332    1.645    5.713
    26    C    -10.269    -2.080    5.489
    27    H    -9.961    -2.148    4.435
    28    O    -11.190    -3.110    5.775
    29    H    -10.732    -3.947    5.586
    30    C    -9.050    -2.127    6.409
    31    H    -8.168    -1.667    5.907
    32    O    -8.737    -3.433    6.931
    33    P    -8.169    -4.667    6.138
    34    O    -8.144    -5.823    7.065
    35    O    -6.892    -4.274    5.530
    36    O    -9.216    -4.990    4.993
    37    C    -9.243    -6.314    4.386
    38    H    -9.952    -6.938    4.979
    39    H    -8.251    -6.826    4.425
    40    C    -9.702    -6.391    2.900
    41    H    -10.270    -7.335    2.739
    42    O    -10.622    -5.300    2.583
    43    C    -10.320    -4.806    1.280
    44    H    -11.285    -4.689    0.738
    45    N    -9.648    -3.520    1.350
    46    C    -9.447    -2.627    0.341
    47    N    -9.717    -1.701    -2.986
    48    H    -10.221    -2.463    -3.380
    49    H    -9.512    -0.908    -3.556
    50    N    -9.820    -2.770    -0.943
    51    C    -9.456    -1.720    -1.690
    52    N    -8.805    -0.631    -1.173
    53    H    -8.645    0.170    -1.760
    54    C    -8.498    -0.458    0.175
    55    O    -7.952    0.521    0.676
    56    C    -8.788    -1.581    0.932
    57    N    -8.516    -1.826    2.259
    58    C    -9.033    -2.998    2.453
    59    H    -9.013    -3.534    3.393
    60    C    -9.451    -5.831    0.604
    61    H    -8.807    -5.401    -0.195
    62    O    -10.277    -6.850    0.069
    63    H    -9.707    -7.568    -0.248
    64    C    -8.619    -6.322    1.784
    65    H    -7.899    -5.533    2.111
    66    O    -7.989    -7.609    1.554
    67    P    -6.429    -7.715    1.296
    68    O    -6.006    -9.113    1.519
    69    O    -5.737    -6.692    2.101
    70    O    -6.226    -7.368    -0.229
    71    C    -5.371    -8.133    -1.142
    72    H    -5.688    -9.201    -1.144
    73    H    -4.319    -8.107    -0.787
    74    C    -5.376    -7.659    -2.652
    75    H    -5.843    -8.446    -3.276
    76    O    -6.265    -6.519    -2.746
    77    C    -5.697    -5.467    -3.475
    78    H    -6.457    -5.310    -4.276
    79    N    -5.615    -4.203    -2.724
    80    C    -5.564    -4.197    -1.350
    81    H    -5.552    -5.177    -0.864
    82    C    -5.556    -3.050    -0.668
    83    H    -5.538    -3.010    0.419
    84    C    -5.613    -3.003    -3.435
    85    O    -5.612    -3.037    -4.675
    86    N    -5.654    -1.833    -2.761
    87    C    -5.643    -1.844    -1.414
    88    N    -5.736    -0.702    -0.764
    89    H    -5.531    0.068    -1.371
    90    H    -5.426    -0.631    0.186
    91    C    -4.405    -5.909    -4.119
    92    H    -3.593    -5.158    -3.998
    93    O    -4.649    -6.130    -5.500
    94    H    -3.819    -6.454    -5.890
    95    C    -4.040    -7.203    -3.369
    96    H    -3.321    -6.973    -2.551
    97    O    -3.511    -8.240    -4.236
    98    P    -2.139    -8.228    -5.048
    99    O    -2.008    -9.537    -5.719
    100    O    -1.057    -7.861    -4.116
    101    O    -2.161    -7.126    -6.214
    102    C    -1.184    -7.264    -7.325
    103    H    -1.665    -7.886    -8.116
    104    H    -0.269    -7.818    -7.013
    105    C    -0.671    -5.955    -8.067
    106    H    -0.889    -6.054    -9.151
    107    O    -1.452    -4.825    -7.596
    108    C    -0.612    -3.775    -7.174
    109    H    -1.078    -2.838    -7.563
    110    N    -0.539    -3.683    -5.741
    111    C    -0.415    -2.903    -3.727
    112    N    -0.655    -4.260    -3.592
    113    C    -0.708    -4.679    -4.816
    114    H    -0.862    -5.710    -5.107
    115    N    -0.061    -0.620    -3.224
    116    C    0.222    -0.461    -4.520
    117    H    0.508    0.553    -4.819
    118    N    0.019    -1.326    -5.523
    119    C    -0.291    -2.541    -5.041
    120    C    -0.418    -1.864    -2.805
    121    N    -0.898    -2.120    -1.591
    122    H    -0.503    -2.924    -1.141
    123    H    -1.086    -1.318    -1.036
    124    C    0.730    -3.953    -7.770
    125    H    1.548    -3.565    -7.128
    126    O    0.751    -3.264    -8.999
    127    H    0.300    -3.806    -9.663
    128    C    0.839    -5.469    -7.938
    129    H    1.234    -5.937    -7.010
    130    O    1.646    -5.846    -9.076
    131    P    3.155    -5.396    -9.399
    132    O    3.272    -5.179    -10.857
    133    O    4.041    -6.448    -8.830
    134    O    3.544    -4.052    -8.669
    135    C    4.527    -3.085    -9.151
    136    H    4.302    -2.813    -10.208
    137    H    5.541    -3.541    -9.159
    138    C    4.642    -1.742    -8.332
    139    H    4.662    -0.879    -9.024
    140    O    3.464    -1.561    -7.482
    141    C    3.851    -1.179    -6.168
    142    H    3.184    -0.321    -5.919
    143    N    3.623    -2.238    -5.150
    144    C    3.518    -3.551    -5.536
    145    H    3.599    -3.728    -6.589
    146    C    3.269    -4.537    -4.665
    147    H    3.138    -5.575    -4.970
    148    C    3.558    -1.913    -3.804
    149    O    3.746    -0.739    -3.440
    150    N    3.275    -2.888    -2.921
    151    C    3.125    -4.162    -3.313
    152    N    2.841    -5.102    -2.419
    153    H    2.803    -4.727    -1.496
    154    H    3.275    -5.997    -2.498
    155    C    5.277    -0.690    -6.235
    156    H    5.832    -0.832    -5.282
    157    O    5.273    0.682    -6.587
    158    H    6.182    0.923    -6.818
    159    C    5.855    -1.562    -7.351
    160    H    6.085    -2.567    -6.937
    161    O    6.995    -0.953    -8.006
    162    P    8.459    -1.537    -7.985
    163    O    9.252    -0.831    -9.012
    164    O    8.391    -3.009    -8.092
    165    O    9.069    -1.203    -6.579
    166    C    9.636    0.071    -6.205
    167    H    9.140    0.905    -6.752
    168    H    10.716    0.098    -6.470
    169    C    9.500    0.378    -4.694
    170    H    9.464    1.475    -4.530
    171    O    8.251    -0.174    -4.186
    172    C    8.446    -0.741    -2.912
    173    H    7.717    -0.215    -2.247
    174    N    8.165    -2.218    -2.894
    175    C    8.093    -2.971    -4.046
    176    H    8.195    -2.412    -4.969
    177    C    7.853    -2.792    -1.689
    178    O    7.801    -2.138    -0.656
    179    N    7.610    -4.140    -1.708
    180    H    7.317    -4.556    -0.842
    181    C    7.555    -4.956    -2.815
    182    O    7.302    -6.153    -2.693
    183    C    7.819    -4.285    -4.052
    184    H    7.758    -4.860    -4.974
    185    C    9.863    -0.371    -2.465
    186    H    10.302    -1.175    -1.851
    187    O    9.843    0.829    -1.725
    188    H    10.759    1.041    -1.507
    189    C    10.621    -0.169    -3.782
    190    H    10.936    -1.144    -4.218
    191    O    11.714    0.785    -3.745
    192    P    13.149    0.580    -3.147
    193    O    14.077    1.511    -3.832
    194    O    13.525    -0.848    -3.194
    195    O    12.991    1.042    -1.637
    196    C    14.204    1.178    -0.846
    197    H    15.068    1.538    -1.455
    198    H    14.494    0.184    -0.426
    199    C    14.079    2.156    0.332
    200    H    15.066    2.211    0.837
    201    O    13.855    3.505    -0.105
    202    C    12.673    4.005    0.471
    203    H    12.998    4.626    1.339
    204    N    11.938    4.769    -0.541
    205    C    11.711    4.189    -1.766
    206    H    12.159    3.205    -1.905
    207    C    11.471    6.022    -0.244
    208    O    11.646    6.552    0.853
    209    N    10.802    6.641    -1.268
    210    H    10.463    7.570    -1.069
    211    C    10.592    6.151    -2.545
    212    O    10.040    6.847    -3.394
    213    C    11.079    4.822    -2.758
    214    H    10.978    4.373    -3.744
    215    C    11.868    2.828    0.968
    216    H    11.246    2.384    0.160
    217    O    11.065    3.185    2.072
    218    H    11.659    3.247    2.834
    219    C    12.963    1.841    1.351
    220    H    12.574    0.812    1.165
    221    O    13.417    1.994    2.712
    222    P    14.382    0.886    3.287
    223    O    14.890    1.368    4.590
    224    O    15.388    0.490    2.279
    225    O    13.445    -0.330    3.468
    226    C    12.382    -0.379    4.429
    227    H    11.559    0.320    4.145
    228    H    12.746    -0.116    5.451
    229    C    11.839    -1.803    4.457
    230    H    11.026    -1.899    5.212
    231    O    11.267    -2.105    3.172
    232    C    11.763    -3.324    2.679
    233    H    11.083    -4.111    3.076
    234    N    11.795    -3.315    1.204
    235    C    12.250    -2.176    0.611
    236    H    12.490    -1.349    1.289
    237    C    12.348    -2.092    -0.711
    238    H    12.695    -1.188    -1.172
    239    C    11.414    -4.411    0.430
    240    O    11.003    -5.432    0.998
    241    N    11.494    -4.335    -0.924
    242    C    11.967    -3.216    -1.500
    243    N    12.072    -3.135    -2.824
    244    H    12.596    -2.359    -3.203
    245    H    11.865    -3.924    -3.401
    246    C    13.128    -3.495    3.282
    247    H    13.886    -2.900    2.723
    248    O    13.508    -4.856    3.348
    249    H    12.945    -5.252    4.032
    250    C    12.915    -2.888    4.676
    251    H    13.871    -2.375    4.943
    252    O    12.506    -3.854    5.676
    253    P    12.773    -3.489    7.191
    254    O    13.764    -2.391    7.290
    255    O    13.092    -4.730    7.931
    256    O    11.387    -2.973    7.701
    257    C    10.156    -3.729    7.561
    258    H    10.105    -4.515    8.348
    259    H    10.103    -4.233    6.570
    260    C    8.888    -2.846    7.691
    261    H    8.581    -2.792    8.757
    262    O    9.206    -1.458    7.303
    263    C    8.042    -0.827    6.827
    264    H    7.830    -0.017    7.565
    265    N    8.237    -0.198    5.507
    266    C    8.400    -0.793    4.283
    267    N    8.521    -3.675    2.401
    268    H    8.893    -3.968    1.529
    269    H    8.535    -4.311    3.168
    270    N    8.372    -2.106    4.042
    271    C    8.499    -2.400    2.767
    272    N    8.667    -1.451    1.793
    273    H    8.665    -1.738    0.827
    274    C    8.681    -0.078    1.998
    275    O    8.799    0.718    1.061
    276    C    8.538    0.238    3.378
    277    N    8.473    1.465    4.022
    278    C    8.285    1.156    5.280
    279    H    8.187    1.878    6.091
    280    C    6.917    -1.837    6.868
    281    H    6.249    -1.731    5.992
    282    O    6.201    -1.677    8.079
    283    H    5.639    -2.463    8.138
    284    C    7.620    -3.198    6.852
    285    H    7.985    -3.486    5.853
    286    O    6.807    -4.254    7.422
    287    P    6.216    -5.528    6.677
    288    O    5.952    -6.542    7.722
    289    O    7.137    -5.942    5.590
    290    O    4.835    -5.200    6.017
    291    C    3.475    -4.933    6.447
    292    H    3.336    -5.225    7.508
    293    H    2.792    -5.574    5.842
    294    C    2.987    -3.449    6.262
    295    H    2.736    -3.017    7.251
    296    O    4.144    -2.713    5.764
    297    C    3.803    -2.002    4.610
    298    H    4.422    -1.075    4.605
    299    N    4.055    -2.785    3.384
    300    C    4.184    -2.260    2.137
    301    N    4.167    0.443    -0.012
    302    H    4.160    0.623    -0.992
    303    H    4.084    1.206    0.630
    304    N    4.129    -0.955    1.816
    305    C    4.222    -0.773    0.498
    306    N    4.455    -1.786    -0.395
    307    H    4.236    -1.630    -1.366
    308    C    4.520    -3.131    -0.064
    309    O    4.743    -4.045    -0.854
    310    C    4.373    -3.343    1.307
    311    N    4.369    -4.530    2.006
    312    C    4.202    -4.153    3.234
    313    H    4.144    -4.857    4.046
    314    C    2.353    -1.677    4.799
    315    H    1.870    -1.295    3.876
    316    O    2.231    -0.729    5.850
    317    H    1.314    -0.757    6.149
    318    C    1.823    -3.036    5.239
    319    H    1.811    -3.753    4.390
    320    O    0.526    -2.956    5.868
    321    P    -0.935    -2.908    5.231
    322    O    -1.853    -3.160    6.366
    323    O    -1.007    -3.838    4.079
    324    O    -1.188    -1.456    4.719
    325    C    -2.262    -0.462    4.788
    326    H    -2.785    -0.551    5.769
    327    H    -3.014    -0.647    3.990
    328    C    -1.742    1.049    4.679
    329    H    -1.818    1.481    5.698
    330    O    -0.329    0.959    4.381
    331    C    -0.049    1.436    3.100
    332    H    0.928    1.930    3.316
    333    N    0.217    0.488    2.021
    334    C    -0.181    -0.817    1.990
    335    H    -1.029    -1.082    2.609
    336    C    0.908    1.049    0.960
    337    O    1.271    2.222    0.921
    338    N    1.192    0.196    -0.048
    339    H    1.720    0.595    -0.805
    340    C    1.128    -1.167    0.032
    341    O    1.688    -1.853    -0.806
    342    C    0.285    -1.666    1.072
    343    H    -0.001    -2.713    1.052
    344    C    -1.081    2.407    2.691
    345    H    -1.419    2.273    1.646
    346    O    -0.426    3.639    2.834
    347    H    -0.408    3.830    3.782
    348    C    -2.257    2.190    3.649
    349    H    -3.124    1.755    3.104
    350    O    -2.645    3.437    4.273
    351    P    -3.031    4.923    3.766
    352    O    -2.504    5.822    4.822
    353    O    -4.491    4.937    3.562
    354    O    -2.377    5.394    2.380
    355    C    -2.484    6.737    1.808
    356    H    -1.863    7.424    2.430
    357    H    -3.531    7.103    1.884
    358    C    -2.031    6.992    0.299
    359    H    -1.413    7.913    0.258
    360    O    -1.185    5.912    -0.187
    361    C    -1.691    5.375    -1.404
    362    H    -0.816    5.263    -2.084
    363    N    -2.277    4.052    -1.222
    364    C    -2.480    3.111    -2.188
    365    N    -2.380    2.065    -5.481
    366    H    -2.569    1.229    -5.996
    367    H    -1.947    2.836    -5.941
    368    N    -2.205    3.241    -3.499
    369    C    -2.531    2.133    -4.177
    370    N    -2.953    0.980    -3.581
    371    H    -3.159    0.182    -4.158
    372    C    -3.092    0.804    -2.222
    373    O    -3.351    -0.285    -1.732
    374    C    -2.946    2.006    -1.515
    375    N    -3.142    2.273    -0.178
    376    C    -2.746    3.504    -0.060
    377    H    -2.768    4.049    0.859
    378    C    -2.659    6.342    -2.007
    379    H    -3.517    5.830    -2.497
    380    O    -2.007    7.154    -2.972
    381    H    -2.675    7.755    -3.331
    382    C    -3.158    7.131    -0.794
    383    H    -4.046    6.626    -0.355
    384    O    -3.451    8.509    -1.107
    385    P    -4.698    8.966    -1.977
    386    O    -4.401    10.294    -2.553
    387    O    -5.875    8.893    -1.088
    388    O    -4.928    7.952    -3.180
    389    C    -5.843    8.361    -4.252
    390    H    -5.292    9.023    -4.958
    391    H    -6.706    8.953    -3.867
    392    C    -6.462    7.214    -5.108
    393    H    -6.524    7.530    -6.173
    394    O    -5.620    6.022    -5.080
    395    C    -6.448    4.865    -5.057
    396    H    -6.081    4.198    -5.876
    397    N    -6.366    4.134    -3.770
    398    C    -6.004    4.801    -2.627
    399    H    -5.753    5.853    -2.737
    400    C    -5.931    4.168    -1.452
    401    H    -5.623    4.666    -0.537
    402    C    -6.718    2.793    -3.714
    403    O    -7.072    2.230    -4.761
    404    N    -6.651    2.126    -2.535
    405    C    -6.248    2.790    -1.438
    406    N    -6.147    2.159    -0.289
    407    H    -6.236    2.680    0.559
    408    H    -6.488    1.221    -0.248
    409    C    -7.863    5.312    -5.362
    410    H    -8.635    4.649    -4.916
    411    O    -8.034    5.378    -6.770
    412    H    -8.907    5.758    -6.954
    413    C    -7.875    6.692    -4.704
    414    H    -7.859    6.589    -3.595
    415    O    -8.937    7.567    -5.163
    416    P    -10.263    7.796    -4.308
    417    O    -10.885    9.062    -4.747
    418    O    -9.980    7.679    -2.863
    419    O    -11.226    6.625    -4.714
    420    C    -12.668    6.692    -4.508
    421    H    -13.134    7.324    -5.300
    422    H    -12.905    7.171    -3.530
    423    C    -13.398    5.311    -4.536
    424    H    -14.010    5.208    -5.458
    425    O    -12.422    4.238    -4.583
    426    C    -12.684    3.264    -3.606
    427    H    -12.704    2.312    -4.184
    428    N    -11.614    3.204    -2.592
    429    C    -11.088    4.367    -2.078
    430    H    -11.478    5.306    -2.472
    431    C    -10.119    4.339    -1.156
    432    H    -9.709    5.238    -0.703
    433    C    -11.171    1.970    -2.129
    434    O    -11.699    0.931    -2.555
    435    N    -10.168    1.929    -1.232
    436    C    -9.668    3.071    -0.724
    437    N    -8.821    3.015    0.290
    438    H    -8.605    2.092    0.624
    439    H    -8.619    3.803    0.869
    440    C    -14.059    3.500    -3.025
    441    H    -14.080    3.323    -1.924
    442    O    -15.009    2.656    -3.662
    443    H    -15.900    2.873    -3.345
    444    C    -14.280    4.991    -3.301
    445    H    -13.881    5.583    -2.449
    446    O    -15.651    5.352    -3.545
    447    H    -16.217    5.082    -2.798
 $END
