!*** FMO 5.3 (Gamess) INPUT generated by Facio 22.1.1.32 ***
 $CONTRL RUNTYP=ENERGY NPRINT=-5 ISPHER=1 MAXIT=200 $END
 $SYSTEM MWORDS=63 MEMDDI=63 $END
 $GDDI NGROUP=1 $END
 $SCF DIRSCF=.TRUE. NPUNCH=0 $END
!*** NumCPU : 2  MemPerNode : 512MB
 $PCM SOLVNT=WATER IEF=-10 ICOMP=2 ICAV=1 IDISP=1 IFMO=-1 $END
 $PCMCAV RADII=SUAHF $END
 $TESCAV NTSALL=60 $END
 $FMOPRP
    NAODIR=200
    NGRFMO(1)=1, 1, 0, 0, 0,   0, 0, 0, 0, 0
    IPIEDA=1
    NPRINT=9
 $END
 $FMO
      SCFTYP(1)=RHF
      MODGRD=10
      MODMUL=0
      MAXCAO=5
      MAXBND=16
      NLAYER=1
      MPLEVL(1)=2
      NFRAG=14
      ICHARG(1)=-1, -1, -1, -1, -1, -1, -1, -1, -1, -1, -1, -1, -1, 0
      FRGNAM(1)=F1, F2, F3, F4, F5, F6, F7, F8, F9, F10, F11, F12, F13, F14
      indat(1)=0
               1   -36   0
               37   -70   0
               71   -101   0
               102   -134   0
               135   -165   0
               166   -195   0
               196   -225   0
               226   -256   0
               257   -290   0
               291   -324   0
               325   -354   0
               355   -388   0
               389   -419   0
               420   -447   0
 $END

 $FMOBND
   -37   36       6-31G*    MINI
   -71   70       6-31G*    MINI
   -102   101       6-31G*    MINI
   -135   134       6-31G*    MINI
   -166   165       6-31G*    MINI
   -196   195       6-31G*    MINI
   -226   225       6-31G*    MINI
   -257   256       6-31G*    MINI
   -291   290       6-31G*    MINI
   -325   324       6-31G*    MINI
   -355   354       6-31G*    MINI
   -389   388       6-31G*    MINI
   -420   419       6-31G*    MINI
 $END
 $FMOHYB
 6-31G*      15   5
   1 0  -0.065034   0.288264   0.000000   0.000000   0.604412
         0.290129   0.000000   0.000000   0.319045  -0.017106
        -0.017106   0.057934   0.000000   0.000000   0.000000
   0 1  -0.065040   0.288293   0.569832   0.000000  -0.201456
         0.290147   0.300783   0.000000  -0.106342   0.049598
        -0.017106  -0.008771   0.000000  -0.027223   0.000000
   0 1  -0.065039   0.288293  -0.284916  -0.493490  -0.201455
         0.290145  -0.150392  -0.260486  -0.106340  -0.000427
         0.032923  -0.008771   0.033353   0.013612   0.023576
   0 1  -0.065039   0.288293  -0.284916   0.493490  -0.201455
         0.290145  -0.150392   0.260486  -0.106340  -0.000427
         0.032923  -0.008771  -0.033353   0.013612  -0.023576
   0 1   1.010938  -0.011975   0.000000   0.000000   0.000000
        -0.054085   0.000000   0.000000  -0.000000  -0.003174
        -0.003174  -0.003174   0.000000   0.000000   0.000000
 MINI         5   5
   1 0  -0.104883   0.308874   0.000000   0.000000   0.521806
   0 1  -0.104883   0.308874   0.491961   0.000000  -0.173934
   0 1  -0.104883   0.308876  -0.245980  -0.426050  -0.173933
   0 1  -0.104883   0.308876  -0.245980   0.426050  -0.173933
   0 1   0.988209   0.063992   0.000000   0.000000   0.000000
 $END
 
 $DATA
 FMO calculation
 C1 
 H.1-1    1
      N31 6
   
 O.1-1    8
      N31 6
      d 1
      1 0.800 1.0
   
 C.1-1    6
      N31 6
      d 1
      1 0.800 1.0
   
 N.1-1    7
      N31 6
      d 1
      1 0.800 1.0
   
 P.1-1   15
      N31 6
      d 1
      1 0.550 1.0
   
 $END
 $FMOXYZ
    1    H    -4.556    -1.033    9.551
    2    O    -5.100    -1.433    8.846
    3    C    -5.025    -2.857    9.007
    4    H    -5.220    -3.106    10.074
    5    H    -3.995    -3.198    8.762
    6    C    -6.024    -3.634    8.136
    7    H    -6.186    -4.654    8.546
    8    O    -7.325    -2.968    8.104
    9    C    -7.852    -3.014    6.793
    10    H    -8.860    -3.485    6.865
    11    N    -8.024    -1.665    6.209
    12    C    -8.777    -1.321    5.106
    13    N    -10.901    -2.185    2.494
    14    H    -10.989    -3.172    2.600
    15    H    -11.380    -1.733    1.743
    16    N    -9.495    -2.160    4.334
    17    C    -10.134    -1.525    3.344
    18    N    -10.076    -0.165    3.166
    19    H    -10.578    0.247    2.397
    20    C    -9.363    0.722    3.964
    21    O    -9.362    1.939    3.760
    22    C    -8.659    0.052    4.996
    23    N    -7.843    0.565    5.997
    24    C    -7.496    -0.488    6.698
    25    H    -6.855    -0.472    7.582
    26    C    -6.948    -3.905    5.975
    27    H    -6.904    -3.546    4.937
    28    O    -7.417    -5.237    5.992
    29    H    -6.879    -5.705    5.337
    30    C    -5.591    -3.793    6.669
    31    H    -5.073    -2.849    6.379
    32    O    -4.750    -4.965    6.536
    33    P    -3.533    -5.108    5.560
    34    O    -2.788    -6.317    5.962
    35    O    -2.782    -3.835    5.558
    36    O    -4.153    -5.355    4.118
    37    C    -4.881    -6.581    3.815
    38    H    -5.336    -7.024    4.737
    39    H    -4.188    -7.340    3.395
    40    C    -6.060    -6.397    2.816
    41    H    -6.741    -7.272    2.887
    42    O    -6.825    -5.254    3.246
    43    C    -7.184    -4.429    2.167
    44    H    -8.292    -4.325    2.232
    45    N    -6.607    -3.068    2.302
    46    C    -6.996    -1.940    1.632
    47    N    -8.818    -0.441    -0.884
    48    H    -9.370    -1.199    -1.227
    49    H    -8.896    0.462    -1.295
    50    N    -7.925    -1.878    0.669
    51    C    -8.040    -0.654    0.158
    52    N    -7.384    0.441    0.670
    53    H    -7.503    1.336    0.224
    54    C    -6.463    0.412    1.714
    55    O    -5.895    1.417    2.149
    56    C    -6.251    -0.909    2.176
    57    N    -5.361    -1.384    3.124
    58    C    -5.610    -2.664    3.163
    59    H    -5.105    -3.360    3.825
    60    C    -6.830    -5.153    0.885
    61    H    -6.441    -4.455    0.126
    62    O    -7.972    -5.799    0.363
    63    H    -7.645    -6.408    -0.317
    64    C    -5.763    -6.170    1.310
    65    H    -4.748    -5.724    1.250
    66    O    -5.831    -7.425    0.608
    67    P    -5.346    -7.840    -0.834
    68    O    -5.963    -9.150    -1.132
    69    O    -3.870    -7.802    -0.836
    70    O    -5.883    -6.783    -1.893
    71    C    -5.928    -7.101    -3.339
    72    H    -6.735    -7.856    -3.495
    73    H    -4.982    -7.578    -3.678
    74    C    -6.261    -5.919    -4.353
    75    H    -7.046    -6.266    -5.058
    76    O    -6.861    -4.862    -3.553
    77    C    -6.345    -3.595    -3.897
    78    H    -7.264    -3.012    -4.129
    79    N    -5.657    -2.889    -2.791
    80    C    -5.133    -3.569    -1.728
    81    H    -5.292    -4.645    -1.736
    82    C    -4.531    -2.927    -0.716
    83    H    -4.164    -3.449    0.165
    84    C    -5.502    -1.510    -2.870
    85    O    -5.926    -0.915    -3.872
    86    N    -4.893    -0.841    -1.860
    87    C    -4.419    -1.510    -0.800
    88    N    -3.856    -0.826    0.199
    89    H    -3.824    0.171    0.195
    90    H    -3.562    -1.282    1.040
    91    C    -5.511    -3.703    -5.146
    92    H    -4.586    -3.087    -5.102
    93    O    -6.311    -3.287    -6.239
    94    H    -5.870    -3.575    -7.050
    95    C    -5.145    -5.184    -5.233
    96    H    -4.183    -5.373    -4.707
    97    O    -5.083    -5.618    -6.630
    98    P    -3.857    -5.287    -7.621
    99    O    -4.072    -6.104    -8.834
    100    O    -2.605    -5.532    -6.885
    101    O    -3.798    -3.756    -8.121
    102    C    -2.990    -3.495    -9.349
    103    H    -3.709    -3.243    -10.163
    104    H    -2.427    -4.392    -9.713
    105    C    -1.924    -2.328    -9.369
    106    H    -1.912    -1.868    -10.382
    107    O    -2.307    -1.270    -8.440
    108    C    -1.166    -0.815    -7.730
    109    H    -1.181    0.300    -7.731
    110    N    -1.184    -1.328    -6.355
    111    C    -0.911    -1.635    -4.197
    112    N    -1.578    -2.756    -4.660
    113    C    -1.710    -2.526    -5.938
    114    H    -2.175    -3.204    -6.646
    115    N    0.172    -0.084    -2.787
    116    C    0.388    0.645    -3.889
    117    H    0.932    1.581    -3.735
    118    N    0.012    0.409    -5.151
    119    C    -0.648    -0.753    -5.233
    120    C    -0.477    -1.268    -2.910
    121    N    -0.681    -2.051    -1.830
    122    H    -1.043    -2.985    -1.933
    123    H    -0.344    -1.759    -0.939
    124    C    0.055    -1.304    -8.468
    125    H    0.887    -1.478    -7.766
    126    O    0.444    -0.384    -9.476
    127    H    1.245    -0.731    -9.897
    128    C    -0.423    -2.644    -9.028
    129    H    -0.444    -3.416    -8.227
    130    O    0.329    -3.094    -10.181
    131    P    1.643    -3.986    -10.100
    132    O    2.277    -4.025    -11.435
    133    O    1.275    -5.292    -9.517
    134    O    2.646    -3.300    -9.107
    135    C    3.818    -2.527    -9.482
    136    H    3.651    -2.002    -10.450
    137    H    4.695    -3.195    -9.633
    138    C    4.233    -1.443    -8.444
    139    H    4.511    -0.504    -8.975
    140    O    3.097    -1.129    -7.600
    141    C    3.486    -1.038    -6.255
    142    H    3.036    -0.083    -5.892
    143    N    2.988    -2.157    -5.407
    144    C    2.388    -3.296    -5.905
    145    H    2.298    -3.360    -6.981
    146    C    1.938    -4.268    -5.097
    147    H    1.467    -5.176    -5.465
    148    C    3.094    -1.994    -4.040
    149    O    3.557    -0.936    -3.597
    150    N    2.694    -2.986    -3.227
    151    C    2.119    -4.093    -3.704
    152    N    1.720    -5.023    -2.846
    153    H    1.898    -4.819    -1.876
    154    H    0.947    -5.626    -3.047
    155    C    4.994    -0.917    -6.246
    156    H    5.447    -1.319    -5.317
    157    O    5.365    0.439    -6.412
    158    H    6.324    0.436    -6.517
    159    C    5.391    -1.758    -7.458
    160    H    5.337    -2.845    -7.216
    161    O    6.655    -1.375    -8.044
    162    P    8.047    -2.024    -7.703
    163    O    9.103    -1.304    -8.450
    164    O    7.944    -3.480    -7.940
    165    O    8.266    -1.785    -6.165
    166    C    8.835    -0.573    -5.613
    167    H    8.423    0.324    -6.131
    168    H    9.938    -0.572    -5.764
    169    C    8.574    -0.393    -4.091
    170    H    8.609    0.681    -3.815
    171    O    7.254    -0.886    -3.742
    172    C    7.283    -1.593    -2.519
    173    H    6.542    -1.065    -1.877
    174    N    6.856    -3.019    -2.675
    175    C    6.800    -3.634    -3.905
    176    H    7.100    -3.019    -4.747
    177    C    6.440    -3.688    -1.548
    178    O    6.457    -3.179    -0.442
    179    N    5.985    -4.965    -1.754
    180    H    5.678    -5.479    -0.950
    181    C    5.865    -5.624    -2.952
    182    O    5.394    -6.761    -2.985
    183    C    6.325    -4.877    -4.080
    184    H    6.250    -5.340    -5.060
    185    C    8.667    -1.425    -1.911
    186    H    9.006    -2.352    -1.413
    187    O    8.625    -0.368    -0.975
    188    H    8.483    -0.704    -0.074
    189    C    9.532    -1.125    -3.143
    190    H    9.747    -2.075    -3.675
    191    O    10.738    -0.399    -2.978
    192    P    11.631    0.516    -2.070
    193    O    11.717    1.844    -2.716
    194    O    12.921    -0.195    -1.949
    195    O    11.127    0.735    -0.571
    196    C    12.193    1.235    0.311
    197    H    12.775    2.063    -0.167
    198    H    12.917    0.417    0.539
    199    C    11.728    1.818    1.655
    200    H    12.616    2.107    2.257
    201    O    10.986    3.050    1.417
    202    C    9.761    3.042    2.100
    203    H    9.904    3.657    3.020
    204    N    8.694    3.578    1.201
    205    C    8.549    3.028    -0.059
    206    H    9.249    2.225    -0.307
    207    C    7.768    4.477    1.682
    208    O    7.762    4.869    2.845
    209    N    6.878    4.933    0.744
    210    H    6.070    5.407    1.104
    211    C    6.742    4.504    -0.558
    212    O    5.967    5.063    -1.327
    213    C    7.615    3.441    -0.927
    214    H    7.542    3.045    -1.935
    215    C    9.472    1.612    2.480
    216    H    8.877    1.162    1.660
    217    O    8.769    1.562    3.701
    218    H    8.735    0.624    3.989
    219    C    10.845    0.901    2.524
    220    H    10.737    -0.055    1.959
    221    O    11.403    0.665    3.852
    222    P    12.278    -0.630    4.164
    223    O    12.807    -0.500    5.542
    224    O    13.301    -0.755    3.102
    225    O    11.339    -1.895    4.092
    226    C    11.051    -2.753    5.235
    227    H    10.528    -2.161    6.014
    228    H    11.985    -3.132    5.700
    229    C    10.124    -3.975    4.924
    230    H    9.273    -3.970    5.625
    231    O    9.609    -3.911    3.562
    232    C    10.089    -5.009    2.837
    233    H    9.281    -5.770    2.903
    234    N    10.360    -4.684    1.427
    235    C    10.871    -3.449    1.106
    236    H    11.004    -2.756    1.940
    237    C    11.143    -3.126    -0.164
    238    H    11.531    -2.148    -0.446
    239    C    10.072    -5.613    0.430
    240    O    9.577    -6.713    0.736
    241    N    10.342    -5.300    -0.858
    242    C    10.873    -4.105    -1.167
    243    N    11.149    -3.841    -2.441
    244    H    11.528    -2.960    -2.726
    245    H    10.916    -4.516    -3.139
    246    C    11.294    -5.470    3.616
    247    H    12.133    -4.749    3.509
    248    O    11.712    -6.778    3.300
    249    H    10.978    -7.364    3.537
    250    C    10.701    -5.407    5.007
    251    H    11.477    -5.460    5.801
    252    O    9.639    -6.368    5.200
    253    P    9.480    -7.548    6.206
    254    O    10.764    -7.775    6.904
    255    O    8.954    -8.687    5.415
    256    O    8.357    -7.125    7.245
    257    C    6.987    -6.809    6.841
    258    H    6.315    -7.648    7.121
    259    H    6.902    -6.678    5.734
    260    C    6.458    -5.507    7.507
    261    H    6.334    -5.662    8.602
    262    O    7.523    -4.526    7.344
    263    C    6.995    -3.231    7.292
    264    H    7.404    -2.728    8.199
    265    N    7.379    -2.476    6.102
    266    C    7.138    -2.705    4.758
    267    N    5.987    -4.693    2.151
    268    H    6.035    -4.657    1.160
    269    H    5.521    -5.450    2.608
    270    N    6.475    -3.751    4.210
    271    C    6.539    -3.748    2.887
    272    N    7.164    -2.781    2.167
    273    H    7.142    -2.838    1.166
    274    C    7.847    -1.714    2.684
    275    O    8.379    -0.962    1.875
    276    C    7.761    -1.659    4.106
    277    N    8.311    -0.764    5.019
    278    C    8.060    -1.295    6.184
    279    H    8.358    -0.871    7.146
    280    C    5.525    -3.312    7.396
    281    H    5.056    -2.586    6.703
    282    O    5.120    -3.061    8.730
    283    H    4.173    -3.256    8.772
    284    C    5.198    -4.733    6.963
    285    H    5.212    -4.861    5.867
    286    O    3.927    -5.173    7.488
    287    P    2.552    -4.389    7.168
    288    O    1.800    -4.359    8.440
    289    O    1.935    -5.163    6.073
    290    O    2.812    -2.899    6.670
    291    C    2.185    -1.576    6.770
    292    H    1.943    -1.367    7.834
    293    H    1.230    -1.574    6.207
    294    C    3.067    -0.334    6.233
    295    H    3.625    0.061    7.107
    296    O    4.075    -0.889    5.353
    297    C    3.737    -0.636    4.018
    298    H    4.739    -0.451    3.564
    299    N    3.140    -1.727    3.243
    300    C    3.189    -1.729    1.879
    301    N    4.111    -0.253    -1.101
    302    H    4.481    0.625    -0.816
    303    H    4.022    -0.473    -2.077
    304    N    3.779    -0.807    1.097
    305    C    3.642    -1.069    -0.187
    306    N    3.026    -2.198    -0.644
    307    H    2.960    -2.330    -1.641
    308    C    2.429    -3.178    0.132
    309    O    1.877    -4.178    -0.319
    310    C    2.505    -2.861    1.495
    311    N    1.993    -3.535    2.579
    312    C    2.384    -2.817    3.603
    313    H    2.141    -3.062    4.626
    314    C    2.868    0.576    3.943
    315    H    1.942    0.396    3.361
    316    O    3.657    1.537    3.314
    317    H    4.285    1.853    3.977
    318    C    2.515    0.950    5.386
    319    H    1.409    0.963    5.512
    320    O    3.078    2.261    5.758
    321    P    2.937    3.831    5.306
    322    O    3.873    4.527    6.207
    323    O    1.511    4.226    5.464
    324    O    3.346    4.221    3.785
    325    C    3.663    5.568    3.240
    326    H    4.703    5.791    3.565
    327    H    3.025    6.342    3.707
    328    C    3.707    5.861    1.637
    329    H    4.552    6.558    1.459
    330    O    4.068    4.614    0.986
    331    C    3.238    4.337    -0.139
    332    H    3.919    3.999    -0.951
    333    N    2.265    3.256    0.116
    334    C    1.946    2.925    1.395
    335    H    2.717    3.191    2.092
    336    C    1.611    2.669    -0.936
    337    O    1.806    3.000    -2.103
    338    N    0.713    1.689    -0.586
    339    H    0.366    1.119    -1.347
    340    C    0.393    1.274    0.689
    341    O    -0.353    0.315    0.867
    342    C    0.998    2.046    1.718
    343    H    0.797    1.796    2.754
    344    C    2.563    5.607    -0.563
    345    H    1.529    5.432    -0.934
    346    O    3.315    6.229    -1.595
    347    H    2.870    7.058    -1.816
    348    C    2.503    6.434    0.723
    349    H    1.574    6.197    1.286
    350    O    2.571    7.860    0.406
    351    P    1.379    8.662    -0.338
    352    O    1.881    10.024    -0.646
    353    O    0.208    8.601    0.559
    354    O    0.922    7.992    -1.735
    355    C    0.103    8.780    -2.696
    356    H    0.802    9.399    -3.300
    357    H    -0.582    9.486    -2.177
    358    C    -0.770    8.026    -3.792
    359    H    -0.548    8.455    -4.795
    360    O    -0.333    6.640    -3.838
    361    C    -1.450    5.777    -3.894
    362    H    -1.229    4.996    -4.660
    363    N    -1.710    5.146    -2.603
    364    C    -2.449    4.015    -2.432
    365    N    -4.305    1.434    -3.773
    366    H    -4.806    0.634    -3.431
    367    H    -4.326    1.651    -4.745
    368    N    -3.028    3.304    -3.410
    369    C    -3.679    2.247    -2.952
    370    N    -3.736    1.920    -1.623
    371    H    -4.254    1.094    -1.383
    372    C    -3.134    2.629    -0.587
    373    O    -3.225    2.259    0.585
    374    C    -2.459    3.780    -1.074
    375    N    -1.765    4.773    -0.395
    376    C    -1.343    5.572    -1.347
    377    H    -0.755    6.481    -1.202
    378    C    -2.641    6.575    -4.314
    379    H    -3.588    6.143    -3.914
    380    O    -2.725    6.653    -5.727
    381    H    -3.504    7.188    -5.935
    382    C    -2.355    7.931    -3.680
    383    H    -2.584    7.916    -2.592
    384    O    -3.070    9.008    -4.352
    385    P    -4.657    9.163    -4.175
    386    O    -5.157    10.074    -5.226
    387    O    -4.888    9.591    -2.780
    388    O    -5.355    7.755    -4.360
    389    C    -6.420    7.455    -5.314
    390    H    -6.025    7.587    -6.348
    391    H    -7.267    8.166    -5.208
    392    C    -7.021    5.997    -5.248
    393    H    -7.030    5.577    -6.274
    394    O    -6.135    5.146    -4.465
    395    C    -6.870    4.255    -3.648
    396    H    -6.497    3.261    -3.991
    397    N    -6.575    4.314    -2.217
    398    C    -5.915    5.401    -1.697
    399    H    -5.673    6.203    -2.403
    400    C    -5.573    5.436    -0.404
    401    H    -5.014    6.262    0.033
    402    C    -6.949    3.244    -1.395
    403    O    -7.541    2.258    -1.866
    404    N    -6.635    3.289    -0.094
    405    C    -5.938    4.318    0.406
    406    N    -5.563    4.247    1.672
    407    H    -5.683    3.346    2.097
    408    H    -4.972    4.929    2.102
    409    C    -8.325    4.385    -3.946
    410    H    -8.977    4.355    -3.048
    411    O    -8.625    3.310    -4.798
    412    H    -8.807    3.677    -5.674
    413    C    -8.450    5.734    -4.657
    414    H    -8.632    6.547    -3.918
    415    O    -9.470    5.728    -5.692
    416    P    -11.005    5.394    -5.381
    417    O    -11.787    5.784    -6.573
    418    O    -11.374    5.993    -4.083
    419    O    -11.180    3.836    -5.244
    420    C    -12.376    3.096    -5.584
    421    H    -12.199    2.574    -6.550
    422    H    -13.256    3.766    -5.748
    423    C    -12.813    2.005    -4.557
    424    H    -13.218    1.123    -5.098
    425    O    -11.716    1.518    -3.734
    426    C    -12.194    1.184    -2.438
    427    H    -12.053    0.081    -2.355
    428    N    -11.429    1.855    -1.362
    429    C    -10.968    3.135    -1.574
    430    H    -11.144    3.550    -2.573
    431    C    -10.284    3.789    -0.626
    432    H    -9.887    4.789    -0.782
    433    C    -11.252    1.248    -0.117
    434    O    -11.732    0.121    0.093
    435    N    -10.546    1.887    0.840
    436    C    -10.076    3.127    0.619
    437    N    -9.418    3.737    1.598
    438    H    -9.259    3.206    2.435
    439    H    -9.058    4.668    1.515
    440    C    -13.683    1.496    -2.367
    441    H    -13.945    2.042    -1.429
    442    O    -14.448    0.304    -2.451
    443    H    -15.393    0.528    -2.487
    444    C    -13.891    2.438    -3.559
    445    H    -13.659    3.486    -3.263
    446    O    -15.199    2.354    -4.159
    447    H    -15.890    2.557    -3.498
 $END
