!*** FMO 5.3 (Gamess) INPUT generated by Facio 22.1.1.32 ***
 $CONTRL RUNTYP=ENERGY NPRINT=-5 ISPHER=1 MAXIT=200 $END
 $SYSTEM MWORDS=63 MEMDDI=63 $END
 $GDDI NGROUP=1 $END
 $SCF DIRSCF=.TRUE. NPUNCH=0 $END
!*** NumCPU : 2  MemPerNode : 512MB
 $PCM SOLVNT=WATER IEF=-10 ICOMP=2 ICAV=1 IDISP=1 IFMO=-1 $END
 $PCMCAV RADII=SUAHF $END
 $TESCAV NTSALL=60 $END
 $FMOPRP
    NAODIR=200
    NGRFMO(1)=1, 1, 0, 0, 0,   0, 0, 0, 0, 0
    IPIEDA=1
    NPRINT=9
 $END
 $FMO
      SCFTYP(1)=RHF
      MODGRD=10
      MODMUL=0
      MAXCAO=5
      MAXBND=16
      NLAYER=1
      MPLEVL(1)=2
      NFRAG=14
      ICHARG(1)=-1, -1, -1, -1, -1, -1, -1, -1, -1, -1, -1, -1, -1, 0
      FRGNAM(1)=F1, F2, F3, F4, F5, F6, F7, F8, F9, F10, F11, F12, F13, F14
      indat(1)=0
               1   -36   0
               37   -70   0
               71   -101   0
               102   -134   0
               135   -165   0
               166   -195   0
               196   -225   0
               226   -256   0
               257   -290   0
               291   -324   0
               325   -354   0
               355   -388   0
               389   -419   0
               420   -447   0
 $END

 $FMOBND
   -37   36       6-31G*    MINI
   -71   70       6-31G*    MINI
   -102   101       6-31G*    MINI
   -135   134       6-31G*    MINI
   -166   165       6-31G*    MINI
   -196   195       6-31G*    MINI
   -226   225       6-31G*    MINI
   -257   256       6-31G*    MINI
   -291   290       6-31G*    MINI
   -325   324       6-31G*    MINI
   -355   354       6-31G*    MINI
   -389   388       6-31G*    MINI
   -420   419       6-31G*    MINI
 $END
 $FMOHYB
 6-31G*      15   5
   1 0  -0.065034   0.288264   0.000000   0.000000   0.604412
         0.290129   0.000000   0.000000   0.319045  -0.017106
        -0.017106   0.057934   0.000000   0.000000   0.000000
   0 1  -0.065040   0.288293   0.569832   0.000000  -0.201456
         0.290147   0.300783   0.000000  -0.106342   0.049598
        -0.017106  -0.008771   0.000000  -0.027223   0.000000
   0 1  -0.065039   0.288293  -0.284916  -0.493490  -0.201455
         0.290145  -0.150392  -0.260486  -0.106340  -0.000427
         0.032923  -0.008771   0.033353   0.013612   0.023576
   0 1  -0.065039   0.288293  -0.284916   0.493490  -0.201455
         0.290145  -0.150392   0.260486  -0.106340  -0.000427
         0.032923  -0.008771  -0.033353   0.013612  -0.023576
   0 1   1.010938  -0.011975   0.000000   0.000000   0.000000
        -0.054085   0.000000   0.000000  -0.000000  -0.003174
        -0.003174  -0.003174   0.000000   0.000000   0.000000
 MINI         5   5
   1 0  -0.104883   0.308874   0.000000   0.000000   0.521806
   0 1  -0.104883   0.308874   0.491961   0.000000  -0.173934
   0 1  -0.104883   0.308876  -0.245980  -0.426050  -0.173933
   0 1  -0.104883   0.308876  -0.245980   0.426050  -0.173933
   0 1   0.988209   0.063992   0.000000   0.000000   0.000000
 $END
 
 $DATA
 FMO calculation
 C1 
 H.1-1    1
      N31 6
   
 O.1-1    8
      N31 6
      d 1
      1 0.800 1.0
   
 C.1-1    6
      N31 6
      d 1
      1 0.800 1.0
   
 N.1-1    7
      N31 6
      d 1
      1 0.800 1.0
   
 P.1-1   15
      N31 6
      d 1
      1 0.550 1.0
   
 $END
 $FMOXYZ
    1    H    -8.668    -4.420    10.422
    2    O    -9.093    -4.368    9.547
    3    C    -9.640    -5.665    9.270
    4    H    -10.355    -5.933    10.079
    5    H    -8.816    -6.412    9.281
    6    C    -10.370    -5.764    7.923
    7    H    -10.994    -6.683    7.880
    8    O    -11.251    -4.617    7.709
    9    C    -11.181    -4.228    6.344
    10    H    -12.226    -4.219    5.956
    11    N    -10.594    -2.884    6.177
    12    C    -10.690    -2.103    5.053
    13    N    -11.845    -1.627    1.828
    14    H    -12.323    -2.482    1.642
    15    H    -11.750    -0.962    1.084
    16    N    -11.332    -2.434    3.919
    17    C    -11.266    -1.472    3.002
    18    N    -10.616    -0.282    3.201
    19    H    -10.653    0.395    2.458
    20    C    -9.949    0.090    4.364
    21    O    -9.403    1.195    4.453
    22    C    -10.017    -0.933    5.353
    23    N    -9.499    -0.977    6.644
    24    C    -9.856    -2.162    7.091
    25    H    -9.635    -2.559    8.086
    26    C    -10.385    -5.284    5.614
    27    H    -9.824    -4.860    4.758
    28    O    -11.232    -6.322    5.163
    29    H    -10.655    -6.966    4.734
    30    C    -9.446    -5.770    6.705
    31    H    -8.672    -4.994    6.914
    32    O    -8.909    -7.100    6.494
    33    P    -7.426    -7.241    5.980
    34    O    -6.984    -8.635    6.193
    35    O    -6.605    -6.174    6.592
    36    O    -7.547    -6.968    4.433
    37    C    -8.368    -7.832    3.607
    38    H    -9.313    -8.123    4.119
    39    H    -7.819    -8.771    3.373
    40    C    -8.755    -7.165    2.279
    41    H    -9.454    -7.813    1.708
    42    O    -9.455    -5.920    2.550
    43    C    -9.049    -4.942    1.606
    44    H    -9.981    -4.527    1.162
    45    N    -8.310    -3.850    2.247
    46    C    -8.058    -2.620    1.704
    47    N    -8.298    -0.356    -0.923
    48    H    -8.747    -0.888    -1.637
    49    H    -7.961    0.562    -1.136
    50    N    -8.424    -2.199    0.479
    51    C    -8.067    -0.936    0.244
    52    N    -7.440    -0.161    1.182
    53    H    -7.179    0.774    0.908
    54    C    -7.042    -0.582    2.449
    55    O    -6.451    0.140    3.250
    56    C    -7.381    -1.928    2.682
    57    N    -7.175    -2.712    3.807
    58    C    -7.748    -3.845    3.506
    59    H    -7.814    -4.706    4.169
    60    C    -8.240    -5.646    0.539
    61    H    -7.479    -4.990    0.065
    62    O    -9.116    -6.153    -0.452
    63    H    -8.586    -6.699    -1.049
    64    C    -7.594    -6.767    1.345
    65    H    -6.789    -6.363    1.998
    66    O    -7.165    -7.900    0.561
    67    P    -5.652    -8.159    0.195
    68    O    -5.535    -9.536    -0.340
    69    O    -4.784    -7.814    1.341
    70    O    -5.368    -7.143    -0.980
    71    C    -5.702    -7.541    -2.337
    72    H    -6.707    -8.030    -2.366
    73    H    -4.956    -8.276    -2.715
    74    C    -5.761    -6.359    -3.331
    75    H    -6.392    -6.635    -4.204
    76    O    -6.396    -5.221    -2.702
    77    C    -5.766    -4.024    -3.108
    78    H    -6.580    -3.462    -3.623
    79    N    -5.308    -3.193    -1.983
    80    C    -5.032    -3.790    -0.778
    81    H    -5.159    -4.871    -0.732
    82    C    -4.673    -3.067    0.282
    83    H    -4.494    -3.506    1.262
    84    C    -5.137    -1.818    -2.147
    85    O    -5.329    -1.308    -3.264
    86    N    -4.775    -1.070    -1.077
    87    C    -4.580    -1.666    0.115
    88    N    -4.323    -0.942    1.182
    89    H    -4.139    0.038    1.038
    90    H    -3.970    -1.346    2.028
    91    C    -4.677    -4.345    -4.108
    92    H    -3.744    -3.762    -3.951
    93    O    -5.188    -4.093    -5.398
    94    H    -5.727    -4.855    -5.655
    95    C    -4.421    -5.840    -3.883
    96    H    -3.668    -5.998    -3.074
    97    O    -4.085    -6.583    -5.075
    98    P    -2.726    -6.379    -5.848
    99    O    -2.555    -7.548    -6.743
    100    O    -1.659    -6.119    -4.862
    101    O    -2.874    -5.094    -6.753
    102    C    -2.302    -5.011    -8.089
    103    H    -3.146    -5.077    -8.811
    104    H    -1.612    -5.856    -8.324
    105    C    -1.545    -3.700    -8.427
    106    H    -1.667    -3.460    -9.507
    107    O    -2.088    -2.570    -7.680
    108    C    -1.033    -1.743    -7.238
    109    H    -1.274    -0.701    -7.554
    110    N    -0.907    -1.794    -5.788
    111    C    -0.492    -1.342    -3.695
    112    N    -0.942    -2.651    -3.722
    113    C    -1.170    -2.874    -4.983
    114    H    -1.538    -3.812    -5.390
    115    N    0.350    0.728    -2.920
    116    C    0.295    1.135    -4.195
    117    H    0.624    2.164    -4.375
    118    N    -0.096    0.458    -5.285
    119    C    -0.471    -0.793    -4.956
    120    C    -0.043    -0.541    -2.644
    121    N    -0.013    -1.049    -1.414
    122    H    0.553    -0.624    -0.703
    123    H    -0.741    -1.646    -1.082
    124    C    0.231    -2.204    -7.920
    125    H    1.110    -2.062    -7.265
    126    O    0.403    -1.504    -9.138
    127    H    1.186    -1.874    -9.573
    128    C    -0.024    -3.693    -8.138
    129    H    0.115    -4.261    -7.189
    130    O    0.719    -4.266    -9.243
    131    P    2.105    -5.010    -9.055
    132    O    2.653    -5.312    -10.395
    133    O    1.887    -6.166    -8.164
    134    O    3.071    -4.005    -8.336
    135    C    4.054    -3.218    -9.058
    136    H    3.688    -2.934    -10.074
    137    H    4.989    -3.812    -9.198
    138    C    4.417    -1.903    -8.330
    139    H    4.652    -1.110    -9.070
    140    O    3.292    -1.428    -7.534
    141    C    3.751    -0.899    -6.303
    142    H    3.282    0.109    -6.221
    143    N    3.353    -1.710    -5.113
    144    C    2.882    -3.000    -5.248
    145    H    2.790    -3.377    -6.260
    146    C    2.535    -3.737    -4.186
    147    H    2.163    -4.757    -4.274
    148    C    3.482    -1.159    -3.838
    149    O    3.912    -0.001    -3.708
    150    N    3.142    -1.896    -2.763
    151    C    2.671    -3.144    -2.907
    152    N    2.350    -3.833    -1.824
    153    H    2.424    -3.340    -0.950
    154    H    2.164    -4.816    -1.825
    155    C    5.251    -0.756    -6.433
    156    H    5.778    -0.823    -5.458
    157    O    5.540    0.485    -7.059
    158    H    6.484    0.499    -7.274
    159    C    5.586    -1.946    -7.329
    160    H    5.479    -2.896    -6.761
    161    O    6.850    -1.829    -8.012
    162    P    8.037    -2.839    -7.783
    163    O    9.069    -2.575    -8.811
    164    O    7.531    -4.228    -7.694
    165    O    8.614    -2.426    -6.379
    166    C    9.302    -1.165    -6.201
    167    H    8.829    -0.349    -6.799
    168    H    10.359    -1.262    -6.539
    169    C    9.303    -0.699    -4.730
    170    H    9.582    0.375    -4.670
    171    O    7.983    -0.823    -4.141
    172    C    8.087    -1.222    -2.788
    173    H    7.623    -0.397    -2.201
    174    N    7.345    -2.497    -2.527
    175    C    7.003    -3.342    -3.565
    176    H    7.322    -3.018    -4.556
    177    C    6.961    -2.797    -1.241
    178    O    7.225    -2.059    -0.282
    179    N    6.251    -3.956    -1.084
    180    H    5.959    -4.201    -0.149
    181    C    5.878    -4.842    -2.075
    182    O    5.227    -5.848    -1.798
    183    C    6.301    -4.469    -3.389
    184    H    6.031    -5.115    -4.223
    185    C    9.576    -1.297    -2.442
    186    H    9.783    -2.158    -1.781
    187    O    10.017    -0.116    -1.806
    188    H    10.966    -0.227    -1.647
    189    C    10.251    -1.462    -3.805
    190    H    10.229    -2.525    -4.133
    191    O    11.563    -0.874    -3.920
    192    P    12.864    -1.529    -3.362
    193    O    13.983    -1.059    -4.213
    194    O    12.656    -2.994    -3.313
    195    O    13.000    -0.933    -1.896
    196    C    14.272    -1.158    -1.219
    197    H    15.143    -1.109    -1.921
    198    H    14.281    -2.171    -0.751
    199    C    14.570    -0.119    -0.122
    200    H    15.589    -0.311    0.288
    201    O    14.591    1.222    -0.687
    202    C    13.748    2.080    0.044
    203    H    14.414    2.608    0.767
    204    N    13.046    3.022    -0.876
    205    C    12.403    2.535    -1.996
    206    H    12.487    1.457    -2.145
    207    C    13.032    4.366    -0.592
    208    O    13.591    4.842    0.404
    209    N    12.368    5.153    -1.491
    210    H    12.359    6.138    -1.292
    211    C    11.733    4.744    -2.646
    212    O    11.215    5.576    -3.389
    213    C    11.765    3.329    -2.870
    214    H    11.289    2.937    -3.768
    215    C    12.781    1.211    0.823
    216    H    11.890    0.986    0.196
    217    O    12.408    1.853    2.031
    218    H    11.787    1.281    2.522
    219    C    13.567    -0.098    1.050
    220    H    12.849    -0.938    0.891
    221    O    14.243    -0.198    2.334
    222    P    14.456    -1.630    2.981
    223    O    15.164    -1.488    4.273
    224    O    15.081    -2.510    1.972
    225    O    13.022    -2.177    3.257
    226    C    12.389    -2.152    4.560
    227    H    12.035    -1.120    4.764
    228    H    13.090    -2.436    5.380
    229    C    11.136    -3.059    4.657
    230    H    10.460    -2.661    5.443
    231    O    10.400    -3.063    3.409
    232    C    10.252    -4.383    2.955
    233    H    9.281    -4.726    3.373
    234    N    10.272    -4.460    1.488
    235    C    11.192    -3.699    0.816
    236    H    11.803    -3.034    1.431
    237    C    11.294    -3.760    -0.513
    238    H    12.016    -3.162    -1.061
    239    C    9.420    -5.316    0.795
    240    O    8.600    -5.997    1.432
    241    N    9.497    -5.377    -0.556
    242    C    10.412    -4.637    -1.209
    243    N    10.494    -4.711    -2.532
    244    H    11.232    -4.218    -3.007
    245    H    9.938    -5.381    -3.027
    246    C    11.373    -5.163    3.587
    247    H    12.335    -4.954    3.076
    248    O    11.126    -6.556    3.633
    249    H    10.401    -6.670    4.269
    250    C    11.370    -4.551    4.977
    251    H    12.381    -4.658    5.434
    252    O    10.313    -5.108    5.794
    253    P    10.515    -5.498    7.299
    254    O    11.957    -5.687    7.584
    255    O    9.630    -6.643    7.608
    256    O    9.995    -4.252    8.100
    257    C    8.655    -3.744    7.893
    258    H    7.939    -4.272    8.561
    259    H    8.307    -3.885    6.842
    260    C    8.573    -2.240    8.176
    261    H    8.657    -2.040    9.266
    262    O    9.686    -1.549    7.528
    263    C    9.285    -0.248    7.169
    264    H    9.903    0.431    7.797
    265    N    9.549    0.055    5.747
    266    C    9.002    -0.473    4.591
    267    N    6.870    -2.667    2.977
    268    H    6.707    -2.983    2.051
    269    H    6.479    -3.157    3.752
    270    N    8.045    -1.414    4.503
    271    C    7.773    -1.746    3.248
    272    N    8.372    -1.172    2.162
    273    H    8.142    -1.510    1.245
    274    C    9.365    -0.215    2.225
    275    O    9.869    0.259    1.205
    276    C    9.658    0.165    3.556
    277    N    10.571    1.088    4.036
    278    C    10.470    0.993    5.339
    279    H    11.051    1.579    6.059
    280    C    7.830    -0.084    7.561
    281    H    7.279    0.463    6.788
    282    O    7.738    0.604    8.797
    283    H    6.821    0.522    9.096
    284    C    7.320    -1.528    7.653
    285    H    7.127    -1.945    6.644
    286    O    6.198    -1.731    8.540
    287    P    4.721    -1.864    8.002
    288    O    3.798    -1.703    9.148
    289    O    4.591    -3.129    7.243
    290    O    4.520    -0.657    7.035
    291    C    4.417    0.716    7.460
    292    H    5.030    0.903    8.372
    293    H    3.358    0.936    7.729
    294    C    4.873    1.737    6.382
    295    H    5.505    2.522    6.844
    296    O    5.688    1.107    5.347
    297    C    5.289    1.536    4.077
    298    H    6.212    1.820    3.515
    299    N    4.590    0.461    3.367
    300    C    4.462    0.314    2.018
    301    N    5.099    1.371    -1.223
    302    H    4.897    1.060    -2.151
    303    H    5.618    2.210    -1.078
    304    N    4.937    1.150    1.074
    305    C    4.693    0.702    -0.159
    306    N    3.992    -0.448    -0.411
    307    H    3.833    -0.732    -1.367
    308    C    3.468    -1.300    0.553
    309    O    2.837    -2.325    0.308
    310    C    3.749    -0.855    1.852
    311    N    3.428    -1.438    3.065
    312    C    3.946    -0.616    3.933
    313    H    3.874    -0.742    5.003
    314    C    4.428    2.748    4.290
    315    H    3.698    2.890    3.473
    316    O    5.240    3.898    4.408
    317    H    4.637    4.623    4.616
    318    C    3.743    2.437    5.617
    319    H    2.925    1.695    5.480
    320    O    3.322    3.591    6.370
    321    P    2.068    4.447    5.989
    322    O    2.012    5.595    6.918
    323    O    0.898    3.543    5.966
    324    O    2.353    4.978    4.541
    325    C    2.957    6.248    4.210
    326    H    4.019    6.269    4.544
    327    H    2.436    7.088    4.731
    328    C    2.908    6.553    2.689
    329    H    3.525    7.446    2.443
    330    O    3.443    5.449    1.904
    331    C    2.656    5.252    0.732
    332    H    3.364    5.373    -0.119
    333    N    2.049    3.897    0.692
    334    C    1.803    3.249    1.872
    335    H    2.076    3.794    2.762
    336    C    1.700    3.323    -0.509
    337    O    1.850    3.908    -1.585
    338    N    1.182    2.052    -0.414
    339    H    0.923    1.609    -1.289
    340    C    0.989    1.333    0.762
    341    O    0.578    0.186    0.757
    342    C    1.321    2.016    1.949
    343    H    1.192    1.500    2.897
    344    C    1.609    6.353    0.677
    345    H    0.629    5.979    0.308
    346    O    2.039    7.419    -0.147
    347    H    1.354    8.099    -0.074
    348    C    1.496    6.781    2.142
    349    H    0.848    6.063    2.691
    350    O    1.119    8.160    2.355
    351    P    -0.401    8.552    2.437
    352    O    -0.512    10.000    2.713
    353    O    -1.077    7.639    3.381
    354    O    -0.943    8.265    1.002
    355    C    -1.351    9.298    0.081
    356    H    -0.457    9.863    -0.275
    357    H    -2.051    10.019    0.559
    358    C    -2.063    8.703    -1.146
    359    H    -2.020    9.413    -1.999
    360    O    -1.371    7.473    -1.561
    361    C    -2.334    6.530    -1.987
    362    H    -2.011    6.168    -2.990
    363    N    -2.448    5.386    -1.071
    364    C    -2.875    4.122    -1.396
    365    N    -4.040    1.828    -3.725
    366    H    -4.407    0.900    -3.742
    367    H    -4.032    2.367    -4.570
    368    N    -3.252    3.689    -2.618
    369    C    -3.662    2.418    -2.603
    370    N    -3.657    1.646    -1.474
    371    H    -4.030    0.710    -1.524
    372    C    -3.258    2.081    -0.212
    373    O    -3.260    1.378    0.789
    374    C    -2.844    3.423    -0.215
    375    N    -2.415    4.216    0.839
    376    C    -2.195    5.376    0.284
    377    H    -1.842    6.254    0.816
    378    C    -3.641    7.260    -2.118
    379    H    -4.481    6.567    -1.962
    380    O    -3.710    7.860    -3.403
    381    H    -4.537    8.361    -3.451
    382    C    -3.548    8.279    -0.982
    383    H    -3.623    7.773    0.006
    384    O    -4.460    9.402    -1.095
    385    P    -5.774    9.567    -0.211
    386    O    -6.318    10.923    -0.443
    387    O    -5.465    9.222    1.195
    388    O    -6.838    8.539    -0.755
    389    C    -7.484    8.671    -2.052
    390    H    -6.880    9.319    -2.732
    391    H    -8.471    9.175    -1.943
    392    C    -7.681    7.317    -2.805
    393    H    -7.482    7.485    -3.885
    394    O    -6.673    6.407    -2.348
    395    C    -7.139    5.097    -2.248
    396    H    -6.489    4.559    -2.976
    397    N    -6.888    4.457    -0.944
    398    C    -6.527    5.220    0.142
    399    H    -6.497    6.301    -0.010
    400    C    -6.219    4.650    1.310
    401    H    -5.898    5.223    2.177
    402    C    -6.974    3.067    -0.829
    403    O    -7.317    2.383    -1.807
    404    N    -6.664    2.484    0.347
    405    C    -6.269    3.234    1.388
    406    N    -5.911    2.643    2.515
    407    H    -5.987    1.646    2.609
    408    H    -5.695    3.165    3.337
    409    C    -8.566    5.048    -2.698
    410    H    -9.219    4.447    -2.037
    411    O    -8.538    4.500    -3.992
    412    H    -8.536    5.245    -4.610
    413    C    -9.011    6.516    -2.717
    414    H    -9.486    6.805    -1.750
    415    O    -9.858    6.853    -3.832
    416    P    -11.239    6.255    -4.314
    417    O    -11.507    6.837    -5.648
    418    O    -12.238    6.519    -3.254
    419    O    -11.193    4.686    -4.488
    420    C    -12.189    4.006    -5.313
    421    H    -11.751    3.822    -6.319
    422    H    -13.107    4.621    -5.479
    423    C    -12.670    2.628    -4.773
    424    H    -12.884    1.939    -5.620
    425    O    -11.650    2.001    -3.953
    426    C    -12.240    1.353    -2.842
    427    H    -11.965    0.282    -2.974
    428    N    -11.695    1.844    -1.552
    429    C    -11.423    3.181    -1.399
    430    H    -11.574    3.803    -2.285
    431    C    -10.942    3.659    -0.242
    432    H    -10.700    4.712    -0.107
    433    C    -11.525    0.973    -0.479
    434    O    -11.836    -0.218    -0.617
    435    N    -11.023    1.431    0.693
    436    C    -10.724    2.735    0.824
    437    N    -10.225    3.168    1.982
    438    H    -10.116    2.540    2.749
    439    H    -10.100    4.144    2.164
    440    C    -13.754    1.481    -2.931
    441    H    -14.197    1.745    -1.944
    442    O    -14.335    0.273    -3.405
    443    H    -15.292    0.403    -3.523
    444    C    -13.928    2.667    -3.888
    445    H    -13.883    3.623    -3.324
    446    O    -15.121    2.609    -4.694
    447    H    -15.918    2.572    -4.129
 $END
