!*** FMO 5.3 (Gamess) INPUT generated by Facio 22.1.1.32 ***
 $CONTRL RUNTYP=ENERGY NPRINT=-5 ISPHER=1 MAXIT=200 $END
 $SYSTEM MWORDS=63 MEMDDI=63 $END
 $GDDI NGROUP=1 $END
 $SCF DIRSCF=.TRUE. NPUNCH=0 $END
!*** NumCPU : 2  MemPerNode : 512MB
 $PCM SOLVNT=WATER IEF=-10 ICOMP=2 ICAV=1 IDISP=1 IFMO=-1 $END
 $PCMCAV RADII=SUAHF $END
 $TESCAV NTSALL=60 $END
 $FMOPRP
    NAODIR=200
    NGRFMO(1)=1, 1, 0, 0, 0,   0, 0, 0, 0, 0
    IPIEDA=1
    NPRINT=9
 $END
 $FMO
      SCFTYP(1)=RHF
      MODGRD=10
      MODMUL=0
      MAXCAO=5
      MAXBND=16
      NLAYER=1
      MPLEVL(1)=2
      NFRAG=14
      ICHARG(1)=-1, -1, -1, -1, -1, -1, -1, -1, -1, -1, -1, -1, -1, 0
      FRGNAM(1)=F1, F2, F3, F4, F5, F6, F7, F8, F9, F10, F11, F12, F13, F14
      indat(1)=0
               1   -36   0
               37   -70   0
               71   -101   0
               102   -134   0
               135   -165   0
               166   -195   0
               196   -225   0
               226   -256   0
               257   -290   0
               291   -324   0
               325   -354   0
               355   -388   0
               389   -419   0
               420   -447   0
 $END

 $FMOBND
   -37   36       6-31G*    MINI
   -71   70       6-31G*    MINI
   -102   101       6-31G*    MINI
   -135   134       6-31G*    MINI
   -166   165       6-31G*    MINI
   -196   195       6-31G*    MINI
   -226   225       6-31G*    MINI
   -257   256       6-31G*    MINI
   -291   290       6-31G*    MINI
   -325   324       6-31G*    MINI
   -355   354       6-31G*    MINI
   -389   388       6-31G*    MINI
   -420   419       6-31G*    MINI
 $END
 $FMOHYB
 6-31G*      15   5
   1 0  -0.065034   0.288264   0.000000   0.000000   0.604412
         0.290129   0.000000   0.000000   0.319045  -0.017106
        -0.017106   0.057934   0.000000   0.000000   0.000000
   0 1  -0.065040   0.288293   0.569832   0.000000  -0.201456
         0.290147   0.300783   0.000000  -0.106342   0.049598
        -0.017106  -0.008771   0.000000  -0.027223   0.000000
   0 1  -0.065039   0.288293  -0.284916  -0.493490  -0.201455
         0.290145  -0.150392  -0.260486  -0.106340  -0.000427
         0.032923  -0.008771   0.033353   0.013612   0.023576
   0 1  -0.065039   0.288293  -0.284916   0.493490  -0.201455
         0.290145  -0.150392   0.260486  -0.106340  -0.000427
         0.032923  -0.008771  -0.033353   0.013612  -0.023576
   0 1   1.010938  -0.011975   0.000000   0.000000   0.000000
        -0.054085   0.000000   0.000000  -0.000000  -0.003174
        -0.003174  -0.003174   0.000000   0.000000   0.000000
 MINI         5   5
   1 0  -0.104883   0.308874   0.000000   0.000000   0.521806
   0 1  -0.104883   0.308874   0.491961   0.000000  -0.173934
   0 1  -0.104883   0.308876  -0.245980  -0.426050  -0.173933
   0 1  -0.104883   0.308876  -0.245980   0.426050  -0.173933
   0 1   0.988209   0.063992   0.000000   0.000000   0.000000
 $END
 
 $DATA
 FMO calculation
 C1 
 H.1-1    1
      N31 6
   
 O.1-1    8
      N31 6
      d 1
      1 0.800 1.0
   
 C.1-1    6
      N31 6
      d 1
      1 0.800 1.0
   
 N.1-1    7
      N31 6
      d 1
      1 0.800 1.0
   
 P.1-1   15
      N31 6
      d 1
      1 0.550 1.0
   
 $END
 $FMOXYZ
    1    H    -7.263    -10.400    8.039
    2    O    -7.514    -9.576    7.582
    3    C    -8.890    -9.723    7.190
    4    H    -9.461    -10.049    8.090
    5    H    -8.979    -10.529    6.429
    6    C    -9.553    -8.440    6.654
    7    H    -10.654    -8.519    6.782
    8    O    -9.105    -7.290    7.444
    9    C    -8.977    -6.180    6.581
    10    H    -9.483    -5.316    7.065
    11    N    -7.567    -5.853    6.326
    12    C    -7.191    -4.727    5.683
    13    N    -8.143    -1.905    4.025
    14    H    -9.107    -1.866    4.275
    15    H    -7.697    -1.056    3.758
    16    N    -8.032    -3.794    5.238
    17    C    -7.414    -2.825    4.610
    18    N    -6.039    -2.740    4.505
    19    H    -5.635    -1.939    4.058
    20    C    -5.141    -3.716    4.937
    21    O    -3.919    -3.617    4.777
    22    C    -5.817    -4.781    5.587
    23    N    -5.326    -5.933    6.191
    24    C    -6.410    -6.548    6.615
    25    H    -6.435    -7.500    7.151
    26    C    -9.686    -6.550    5.295
    27    H    -9.346    -5.957    4.419
    28    O    -11.090    -6.420    5.456
    29    H    -11.513    -6.868    4.707
    30    C    -9.288    -8.009    5.179
    31    H    -8.196    -8.124    4.998
    32    O    -10.088    -8.751    4.228
    33    P    -9.669    -8.866    2.696
    34    O    -10.296    -10.088    2.150
    35    O    -8.195    -8.794    2.604
    36    O    -10.303    -7.633    1.982
    37    C    -10.521    -7.323    0.569
    38    H    -11.235    -8.059    0.134
    39    H    -9.565    -7.384    0.002
    40    C    -11.153    -5.892    0.343
    41    H    -12.251    -5.989    0.210
    42    O    -10.965    -5.178    1.609
    43    C    -10.244    -4.008    1.388
    44    H    -10.587    -3.286    2.165
    45    N    -8.779    -4.199    1.517
    46    C    -7.909    -3.179    1.331
    47    N    -7.473    0.126    0.964
    48    H    -8.399    0.379    0.685
    49    H    -6.781    0.811    0.756
    50    N    -8.253    -1.938    1.009
    51    C    -7.246    -1.117    1.085
    52    N    -5.956    -1.472    1.325
    53    H    -5.256    -0.758    1.369
    54    C    -5.554    -2.755    1.642
    55    O    -4.366    -3.001    1.850
    56    C    -6.654    -3.673    1.611
    57    N    -6.724    -5.018    1.929
    58    C    -8.012    -5.291    1.880
    59    H    -8.453    -6.258    2.115
    60    C    -10.668    -3.547    0.022
    61    H    -10.005    -2.787    -0.434
    62    O    -11.988    -3.027    0.106
    63    H    -12.350    -2.973    -0.792
    64    C    -10.599    -4.858    -0.750
    65    H    -9.545    -5.123    -0.982
    66    O    -11.393    -4.818    -1.935
    67    P    -11.225    -4.442    -3.461
    68    O    -12.421    -3.648    -3.835
    69    O    -11.077    -5.741    -4.150
    70    O    -9.907    -3.575    -3.827
    71    C    -9.179    -4.008    -5.062
    72    H    -9.905    -4.405    -5.809
    73    H    -8.517    -4.849    -4.802
    74    C    -8.319    -3.031    -5.992
    75    H    -8.830    -3.075    -6.979
    76    O    -8.481    -1.627    -5.637
    77    C    -7.183    -1.115    -5.412
    78    H    -7.281    -0.020    -5.571
    79    N    -6.687    -1.505    -4.038
    80    C    -7.603    -2.001    -3.136
    81    H    -8.650    -1.867    -3.399
    82    C    -7.215    -2.648    -2.037
    83    H    -7.906    -3.244    -1.444
    84    C    -5.331    -1.463    -3.650
    85    O    -4.464    -1.012    -4.414
    86    N    -4.982    -1.857    -2.426
    87    C    -5.821    -2.657    -1.781
    88    N    -5.274    -3.521    -0.967
    89    H    -4.325    -3.327    -0.719
    90    H    -5.799    -4.143    -0.391
    91    C    -6.333    -1.742    -6.507
    92    H    -5.245    -1.653    -6.354
    93    O    -6.611    -1.210    -7.783
    94    H    -7.550    -1.352    -7.984
    95    C    -6.767    -3.190    -6.427
    96    H    -6.762    -3.613    -7.458
    97    O    -5.838    -3.934    -5.580
    98    P    -5.056    -5.265    -6.018
    99    O    -5.937    -6.030    -6.929
    100    O    -4.690    -5.963    -4.773
    101    O    -3.670    -5.012    -6.806
    102    C    -2.637    -6.105    -6.812
    103    H    -3.045    -7.001    -7.331
    104    H    -2.432    -6.450    -5.778
    105    C    -1.214    -5.805    -7.491
    106    H    -1.182    -6.284    -8.491
    107    O    -1.219    -4.361    -7.716
    108    C    -0.173    -3.768    -6.995
    109    H    0.121    -2.856    -7.565
    110    N    -0.544    -3.412    -5.612
    111    C    -0.628    -2.345    -3.696
    112    N    -1.293    -3.536    -3.487
    113    C    -1.229    -4.121    -4.650
    114    H    -1.644    -5.104    -4.823
    115    N    0.381    -0.250    -3.364
    116    C    0.777    -0.313    -4.639
    117    H    1.362    0.536    -5.010
    118    N    0.565    -1.273    -5.537
    119    C    -0.159    -2.262    -4.998
    120    C    -0.328    -1.273    -2.840
    121    N    -0.692    -1.246    -1.543
    122    H    -1.174    -2.020    -1.129
    123    H    -0.409    -0.485    -0.958
    124    C    0.942    -4.744    -7.013
    125    H    1.667    -4.552    -6.198
    126    O    1.586    -4.713    -8.280
    127    H    2.326    -5.334    -8.235
    128    C    0.219    -6.064    -6.766
    129    H    0.017    -6.196    -5.681
    130    O    0.989    -7.196    -7.271
    131    P    2.364    -7.741    -6.623
    132    O    3.016    -8.669    -7.573
    133    O    2.023    -8.302    -5.299
    134    O    3.346    -6.558    -6.339
    135    C    4.755    -6.320    -6.638
    136    H    5.054    -6.856    -7.566
    137    H    5.387    -6.727    -5.817
    138    C    5.118    -4.786    -6.830
    139    H    5.315    -4.603    -7.907
    140    O    3.911    -4.043    -6.503
    141    C    4.122    -3.055    -5.539
    142    H    3.533    -2.200    -5.947
    143    N    3.567    -3.326    -4.176
    144    C    2.978    -4.523    -3.818
    145    H    3.011    -5.320    -4.555
    146    C    2.422    -4.695    -2.608
    147    H    1.956    -5.632    -2.308
    148    C    3.542    -2.258    -3.278
    149    O    4.003    -1.159    -3.623
    150    N    3.033    -2.429    -2.045
    151    C    2.458    -3.590    -1.701
    152    N    1.920    -3.676    -0.487
    153    H    1.981    -2.865    0.095
    154    H    1.475    -4.502    -0.141
    155    C    5.584    -2.719    -5.576
    156    H    5.966    -2.375    -4.596
    157    O    5.758    -1.696    -6.534
    158    H    6.699    -1.627    -6.744
    159    C    6.241    -4.040    -6.000
    160    H    6.423    -4.690    -5.124
    161    O    7.455    -3.887    -6.753
    162    P    8.760    -2.989    -6.698
    163    O    8.666    -1.993    -7.788
    164    O    9.923    -3.898    -6.730
    165    O    8.853    -2.139    -5.361
    166    C    9.992    -1.213    -5.205
    167    H    9.894    -0.387    -5.947
    168    H    10.959    -1.724    -5.426
    169    C    10.180    -0.504    -3.811
    170    H    10.686    0.475    -3.952
    171    O    8.892    -0.233    -3.181
    172    C    8.912    -0.642    -1.815
    173    H    8.509    0.219    -1.228
    174    N    8.066    -1.855    -1.583
    175    C    7.696    -2.654    -2.626
    176    H    7.771    -2.165    -3.579
    177    C    7.669    -2.172    -0.311
    178    O    7.985    -1.491    0.654
    179    N    6.872    -3.284    -0.194
    180    H    6.683    -3.598    0.745
    181    C    6.553    -4.175    -1.194
    182    O    5.890    -5.181    -0.960
    183    C    7.005    -3.788    -2.483
    184    H    6.713    -4.406    -3.320
    185    C    10.360    -0.842    -1.419
    186    H    10.484    -1.629    -0.644
    187    O    10.925    0.375    -0.954
    188    H    11.844    0.190    -0.719
    189    C    10.988    -1.280    -2.732
    190    H    10.749    -2.348    -2.933
    191    O    12.410    -0.991    -2.799
    192    P    13.438    -2.072    -2.270
    193    O    14.697    -1.866    -3.019
    194    O    12.822    -3.416    -2.371
    195    O    13.722    -1.765    -0.725
    196    C    14.614    -2.743    -0.081
    197    H    15.459    -3.034    -0.758
    198    H    14.084    -3.692    0.135
    199    C    15.310    -2.282    1.225
    200    H    15.986    -3.112    1.538
    201    O    16.153    -1.140    0.935
    202    C    15.806    -0.066    1.778
    203    H    16.556    -0.083    2.599
    204    N    15.820    1.207    1.026
    205    C    15.094    1.323    -0.137
    206    H    14.630    0.400    -0.487
    207    C    16.516    2.275    1.542
    208    O    17.146    2.214    2.594
    209    N    16.447    3.423    0.794
    210    H    16.929    4.217    1.178
    211    C    15.735    3.620    -0.371
    212    O    15.754    4.716    -0.930
    213    C    15.014    2.470    -0.828
    214    H    14.448    2.545    -1.753
    215    C    14.440    -0.371    2.358
    216    H    13.641    -0.090    1.636
    217    O    14.235    0.289    3.594
    218    H    13.347    0.045    3.908
    219    C    14.482    -1.889    2.480
    220    H    13.457    -2.296    2.351
    221    O    15.100    -2.357    3.699
    222    P    14.372    -3.048    4.908
    223    O    15.034    -2.614    6.158
    224    O    14.354    -4.503    4.644
    225    O    12.881    -2.533    4.914
    226    C    12.144    -2.444    6.170
    227    H    12.354    -1.450    6.623
    228    H    12.480    -3.214    6.908
    229    C    10.592    -2.550    6.067
    230    H    10.124    -1.737    6.664
    231    O    10.121    -2.438    4.695
    232    C    9.555    -3.670    4.289
    233    H    8.457    -3.544    4.434
    234    N    9.862    -3.990    2.883
    235    C    11.108    -3.696    2.412
    236    H    11.778    -3.228    3.126
    237    C    11.439    -3.926    1.139
    238    H    12.393    -3.636    0.739
    239    C    8.913    -4.551    2.037
    240    O    7.763    -4.753    2.461
    241    N    9.259    -4.858    0.760
    242    C    10.475    -4.531    0.294
    243    N    10.770    -4.759    -0.985
    244    H    11.606    -4.392    -1.415
    245    H    10.105    -5.231    -1.564
    246    C    10.068    -4.705    5.262
    247    H    11.123    -4.975    5.031
    248    O    9.248    -5.857    5.322
    249    H    8.396    -5.570    5.688
    250    C    9.998    -3.895    6.548
    251    H    10.673    -4.348    7.311
    252    O    8.640    -3.740    7.026
    253    P    8.247    -3.727    8.544
    254    O    9.294    -4.410    9.336
    255    O    6.878    -4.278    8.668
    256    O    8.209    -2.216    8.962
    257    C    7.213    -1.243    8.545
    258    H    6.320    -1.323    9.206
    259    H    6.892    -1.428    7.495
    260    C    7.742    0.222    8.620
    261    H    7.704    0.587    9.668
    262    O    9.153    0.194    8.258
    263    C    9.530    1.393    7.640
    264    H    10.294    1.829    8.324
    265    N    10.136    1.180    6.326
    266    C    9.606    0.655    5.166
    267    N    6.975    -0.755    3.397
    268    H    6.831    -1.135    2.490
    269    H    6.267    -0.827    4.096
    270    N    8.351    0.203    4.977
    271    C    8.151    -0.259    3.755
    272    N    9.098    -0.199    2.770
    273    H    8.871    -0.602    1.878
    274    C    10.393    0.268    2.926
    275    O    11.201    0.294    1.994
    276    C    10.623    0.744    4.239
    277    N    11.765    1.301    4.798
    278    C    11.425    1.546    6.035
    279    H    12.075    1.994    6.789
    280    C    8.330    2.302    7.576
    281    H    8.274    2.872    6.623
    282    O    8.363    3.191    8.680
    283    H    7.492    3.614    8.738
    284    C    7.156    1.330    7.678
    285    H    6.936    0.827    6.720
    286    O    5.965    1.957    8.187
    287    P    5.027    2.857    7.257
    288    O    4.482    3.933    8.119
    289    O    4.035    1.954    6.635
    290    O    5.871    3.553    6.103
    291    C    5.397    4.756    5.395
    292    H    5.524    5.640    6.059
    293    H    4.308    4.677    5.171
    294    C    6.124    5.101    4.029
    295    H    6.838    5.941    4.180
    296    O    6.922    3.931    3.641
    297    C    6.617    3.554    2.312
    298    H    7.569    3.219    1.843
    299    N    5.618    2.475    2.257
    300    C    5.356    1.673    1.175
    301    N    6.003    0.725    -2.090
    302    H    5.697    0.035    -2.741
    303    H    6.779    1.309    -2.325
    304    N    5.977    1.722    -0.016
    305    C    5.516    0.802    -0.865
    306    N    4.541    -0.109    -0.537
    307    H    4.222    -0.760    -1.236
    308    C    3.885    -0.179    0.688
    309    O    3.013    -1.024    0.917
    310    C    4.343    0.827    1.580
    311    N    3.946    1.116    2.877
    312    C    4.731    2.097    3.243
    313    H    4.720    2.570    4.226
    314    C    6.108    4.784    1.627
    315    H    5.502    4.559    0.723
    316    O    7.198    5.623    1.282
    317    H    6.838    6.495    1.054
    318    C    5.256    5.397    2.724
    319    H    4.300    4.842    2.842
    320    O    5.021    6.801    2.487
    321    P    3.919    7.374    1.481
    322    O    4.070    8.845    1.491
    323    O    2.611    6.850    1.921
    324    O    4.166    6.874    -0.020
    325    C    3.619    7.691    -1.127
    326    H    4.334    8.526    -1.316
    327    H    2.646    8.163    -0.855
    328    C    3.386    7.005    -2.532
    329    H    3.924    7.587    -3.310
    330    O    4.006    5.682    -2.528
    331    C    3.160    4.746    -3.168
    332    H    3.812    4.184    -3.879
    333    N    2.533    3.805    -2.207
    334    C    2.538    4.012    -0.843
    335    H    3.073    4.900    -0.507
    336    C    1.939    2.696    -2.747
    337    O    1.946    2.462    -3.951
    338    N    1.331    1.876    -1.843
    339    H    0.905    1.052    -2.258
    340    C    1.256    2.016    -0.482
    341    O    0.640    1.188    0.185
    342    C    1.934    3.177    0.019
    343    H    1.929    3.361    1.091
    344    C    2.120    5.523    -3.950
    345    H    1.159    4.973    -4.054
    346    O    2.623    5.842    -5.239
    347    H    2.050    6.532    -5.610
    348    C    1.925    6.761    -3.089
    349    H    1.280    6.527    -2.211
    350    O    1.419    7.865    -3.882
    351    P    -0.045    8.464    -3.832
    352    O    0.046    9.828    -4.405
    353    O    -0.535    8.332    -2.443
    354    O    -1.049    7.647    -4.778
    355    C    -2.410    8.249    -4.920
    356    H    -2.336    9.178    -5.531
    357    H    -2.823    8.557    -3.935
    358    C    -3.561    7.399    -5.582
    359    H    -3.952    7.910    -6.488
    360    O    -2.958    6.155    -6.049
    361    C    -3.702    5.072    -5.567
    362    H    -3.693    4.290    -6.359
    363    N    -3.137    4.546    -4.302
    364    C    -3.377    3.292    -3.897
    365    N    -5.859    1.231    -4.090
    366    H    -6.409    0.684    -3.472
    367    H    -5.774    0.908    -5.032
    368    N    -4.129    2.443    -4.560
    369    C    -4.708    1.647    -3.727
    370    N    -4.240    1.323    -2.477
    371    H    -4.487    0.428    -2.098
    372    C    -3.183    1.994    -1.874
    373    O    -2.770    1.658    -0.760
    374    C    -2.825    3.153    -2.639
    375    N    -2.181    4.325    -2.275
    376    C    -2.397    5.133    -3.292
    377    H    -2.042    6.158    -3.361
    378    C    -5.110    5.582    -5.373
    379    H    -5.725    4.919    -4.727
    380    O    -5.752    5.766    -6.628
    381    H    -6.534    6.329    -6.485
    382    C    -4.813    6.914    -4.706
    383    H    -4.454    6.742    -3.670
    384    O    -5.972    7.789    -4.726
    385    P    -6.673    8.501    -3.481
    386    O    -7.314    9.727    -3.998
    387    O    -5.670    8.666    -2.410
    388    O    -7.843    7.603    -2.911
    389    C    -8.683    7.958    -1.739
    390    H    -9.587    8.512    -2.061
    391    H    -8.112    8.591    -1.017
    392    C    -9.103    6.657    -0.955
    393    H    -8.146    6.544    -0.418
    394    O    -9.287    5.578    -1.907
    395    C    -9.146    4.426    -1.174
    396    H    -9.556    3.590    -1.784
    397    N    -7.694    4.195    -0.836
    398    C    -6.673    5.070    -1.168
    399    H    -6.923    5.950    -1.746
    400    C    -5.452    4.943    -0.691
    401    H    -4.696    5.719    -0.800
    402    C    -7.355    2.981    -0.331
    403    O    -8.264    2.147    -0.302
    404    N    -6.068    2.750    0.095
    405    C    -5.161    3.768    -0.007
    406    N    -3.934    3.735    0.478
    407    H    -3.343    2.950    0.265
    408    H    -3.609    4.406    1.148
    409    C    -10.042    4.666    0.062
    410    H    -9.669    4.101    0.942
    411    O    -11.374    4.279    -0.216
    412    H    -11.647    4.690    -1.053
    413    C    -9.966    6.198    0.296
    414    H    -10.973    6.671    0.261
    415    O    -9.281    6.473    1.525
    416    P    -9.577    6.557    3.066
    417    O    -10.771    7.395    3.309
    418    O    -8.314    7.080    3.620
    419    O    -9.772    5.131    3.790
    420    C    -9.627    5.220    5.271
    421    H    -10.409    5.893    5.699
    422    H    -8.642    5.672    5.531
    423    C    -9.698    3.911    6.132
    424    H    -10.664    3.857    6.676
    425    O    -9.637    2.754    5.273
    426    C    -8.519    1.965    5.582
    427    H    -8.943    0.934    5.618
    428    N    -7.486    2.027    4.552
    429    C    -7.025    3.216    4.022
    430    H    -7.617    4.110    4.235
    431    C    -5.958    3.224    3.211
    432    H    -5.565    4.137    2.764
    433    C    -6.694    0.901    4.429
    434    O    -6.829    -0.015    5.234
    435    N    -5.782    0.824    3.480
    436    C    -5.324    1.951    2.964
    437    N    -4.216    1.795    2.288
    438    H    -4.365    1.523    1.341
    439    H    -3.506    2.489    2.392
    440    C    -7.980    2.312    6.949
    441    H    -6.867    2.346    6.949
    442    O    -8.400    1.372    7.928
    443    H    -9.369    1.388    7.991
    444    C    -8.529    3.723    7.155
    445    H    -7.726    4.441    6.879
    446    O    -8.947    3.982    8.506
    447    H    -8.246    3.680    9.110
 $END
