!*** FMO 5.3 (Gamess) INPUT generated by Facio 22.1.1.32 ***
 $CONTRL RUNTYP=ENERGY NPRINT=-5 ISPHER=1 MAXIT=200 $END
 $SYSTEM MWORDS=63 MEMDDI=63 $END
 $GDDI NGROUP=1 $END
 $SCF DIRSCF=.TRUE. NPUNCH=0 $END
!*** NumCPU : 2  MemPerNode : 512MB
 $PCM SOLVNT=WATER IEF=-10 ICOMP=2 ICAV=1 IDISP=1 IFMO=-1 $END
 $PCMCAV RADII=SUAHF $END
 $TESCAV NTSALL=60 $END
 $FMOPRP
    NAODIR=200
    NGRFMO(1)=1, 1, 0, 0, 0,   0, 0, 0, 0, 0
    IPIEDA=1
    NPRINT=9
 $END
 $FMO
      SCFTYP(1)=RHF
      MODGRD=10
      MODMUL=0
      MAXCAO=5
      MAXBND=16
      NLAYER=1
      MPLEVL(1)=2
      NFRAG=14
      ICHARG(1)=-1, -1, -1, -1, -1, -1, -1, -1, -1, -1, -1, -1, -1, 0
      FRGNAM(1)=F1, F2, F3, F4, F5, F6, F7, F8, F9, F10, F11, F12, F13, F14
      indat(1)=0
               1   -36   0
               37   -70   0
               71   -101   0
               102   -134   0
               135   -165   0
               166   -195   0
               196   -225   0
               226   -256   0
               257   -290   0
               291   -324   0
               325   -354   0
               355   -388   0
               389   -419   0
               420   -447   0
 $END

 $FMOBND
   -37   36       6-31G*    MINI
   -71   70       6-31G*    MINI
   -102   101       6-31G*    MINI
   -135   134       6-31G*    MINI
   -166   165       6-31G*    MINI
   -196   195       6-31G*    MINI
   -226   225       6-31G*    MINI
   -257   256       6-31G*    MINI
   -291   290       6-31G*    MINI
   -325   324       6-31G*    MINI
   -355   354       6-31G*    MINI
   -389   388       6-31G*    MINI
   -420   419       6-31G*    MINI
 $END
 $FMOHYB
 6-31G*      15   5
   1 0  -0.065034   0.288264   0.000000   0.000000   0.604412
         0.290129   0.000000   0.000000   0.319045  -0.017106
        -0.017106   0.057934   0.000000   0.000000   0.000000
   0 1  -0.065040   0.288293   0.569832   0.000000  -0.201456
         0.290147   0.300783   0.000000  -0.106342   0.049598
        -0.017106  -0.008771   0.000000  -0.027223   0.000000
   0 1  -0.065039   0.288293  -0.284916  -0.493490  -0.201455
         0.290145  -0.150392  -0.260486  -0.106340  -0.000427
         0.032923  -0.008771   0.033353   0.013612   0.023576
   0 1  -0.065039   0.288293  -0.284916   0.493490  -0.201455
         0.290145  -0.150392   0.260486  -0.106340  -0.000427
         0.032923  -0.008771  -0.033353   0.013612  -0.023576
   0 1   1.010938  -0.011975   0.000000   0.000000   0.000000
        -0.054085   0.000000   0.000000  -0.000000  -0.003174
        -0.003174  -0.003174   0.000000   0.000000   0.000000
 MINI         5   5
   1 0  -0.104883   0.308874   0.000000   0.000000   0.521806
   0 1  -0.104883   0.308874   0.491961   0.000000  -0.173934
   0 1  -0.104883   0.308876  -0.245980  -0.426050  -0.173933
   0 1  -0.104883   0.308876  -0.245980   0.426050  -0.173933
   0 1   0.988209   0.063992   0.000000   0.000000   0.000000
 $END
 
 $DATA
 FMO calculation
 C1 
 H.1-1    1
      N31 6
   
 O.1-1    8
      N31 6
      d 1
      1 0.800 1.0
   
 C.1-1    6
      N31 6
      d 1
      1 0.800 1.0
   
 N.1-1    7
      N31 6
      d 1
      1 0.800 1.0
   
 P.1-1   15
      N31 6
      d 1
      1 0.550 1.0
   
 $END
 $FMOXYZ
    1    H    -10.545    -5.481    9.878
    2    O    -10.746    -5.423    8.925
    3    C    -11.217    -6.717    8.517
    4    H    -12.049    -7.020    9.193
    5    H    -10.395    -7.459    8.629
    6    C    -11.729    -6.765    7.071
    7    H    -12.316    -7.694    6.893
    8    O    -12.613    -5.632    6.802
    9    C    -12.373    -5.159    5.488
    10    H    -13.354    -5.159    4.958
    11    N    -11.825    -3.794    5.484
    12    C    -11.768    -2.957    4.401
    13    N    -12.377    -2.330    1.042
    14    H    -12.836    -3.160    0.732
    15    H    -12.287    -1.561    0.405
    16    N    -12.204    -3.241    3.160
    17    C    -12.012    -2.234    2.309
    18    N    -11.438    -1.045    2.678
    19    H    -11.360    -0.321    1.983
    20    C    -10.992    -0.721    3.955
    21    O    -10.489    0.379    4.205
    22    C    -11.194    -1.790    4.863
    23    N    -10.892    -1.887    6.216
    24    C    -11.277    -3.100    6.543
    25    H    -11.200    -3.544    7.538
    26    C    -11.434    -6.138    4.820
    27    H    -10.769    -5.643    4.084
    28    O    -12.169    -7.169    4.190
    29    H    -11.508    -7.748    3.793
    30    C    -10.634    -6.680    5.998
    31    H    -9.895    -5.925    6.358
    32    O    -10.053    -7.989    5.779
    33    P    -8.587    -8.125    5.215
    34    O    -8.169    -9.541    5.301
    35    O    -7.726    -7.144    5.908
    36    O    -8.695    -7.714    3.705
    37    C    -9.408    -8.492    2.716
    38    H    -10.377    -8.873    3.116
    39    H    -8.814    -9.385    2.421
    40    C    -9.715    -7.664    1.445
    41    H    -10.448    -8.197    0.800
    42    O    -10.326    -6.396    1.813
    43    C    -9.813    -5.357    0.991
    44    H    -10.698    -4.844    0.551
    45    N    -9.045    -4.366    1.770
    46    C    -8.690    -3.111    1.351
    47    N    -8.677    -0.681    -1.108
    48    H    -9.149    -1.139    -1.859
    49    H    -8.369    0.267    -1.233
    50    N    -8.964    -2.580    0.150
    51    C    -8.533    -1.329    0.033
    52    N    -7.916    -0.649    1.051
    53    H    -7.633    0.301    0.876
    54    C    -7.635    -1.164    2.312
    55    O    -7.077    -0.472    3.169
    56    C    -8.042    -2.526    2.422
    57    N    -7.950    -3.417    3.488
    58    C    -8.571    -4.491    3.058
    59    H    -8.723    -5.405    3.634
    60    C    -9.006    -6.005    -0.114
    61    H    -8.152    -5.378    -0.454
    62    O    -9.849    -6.303    -1.211
    63    H    -9.342    -6.874    -1.806
    64    C    -8.518    -7.277    0.566
    65    H    -7.686    -7.042    1.268
    66    O    -8.213    -8.352    -0.343
    67    P    -6.741    -8.637    -0.797
    68    O    -6.737    -9.902    -1.565
    69    O    -5.857    -8.579    0.386
    70    O    -6.388    -7.440    -1.757
    71    C    -6.549    -7.581    -3.191
    72    H    -7.589    -7.892    -3.443
    73    H    -5.855    -8.360    -3.587
    74    C    -6.253    -6.269    -3.948
    75    H    -6.688    -6.300    -4.970
    76    O    -6.843    -5.129    -3.268
    77    C    -5.987    -4.006    -3.402
    78    H    -6.596    -3.260    -3.964
    79    N    -5.598    -3.412    -2.101
    80    C    -5.579    -4.179    -0.960
    81    H    -5.859    -5.228    -1.086
    82    C    -5.250    -3.651    0.228
    83    H    -5.230    -4.240    1.145
    84    C    -5.221    -2.076    -2.044
    85    O    -5.206    -1.406    -3.087
    86    N    -4.888    -1.526    -0.855
    87    C    -4.905    -2.270    0.264
    88    N    -4.608    -1.688    1.424
    89    H    -4.325    -0.725    1.437
    90    H    -4.600    -2.193    2.289
    91    C    -4.793    -4.403    -4.257
    92    H    -3.842    -3.957    -3.892
    93    O    -5.003    -4.022    -5.604
    94    H    -4.218    -4.315    -6.100
    95    C    -4.763    -5.928    -4.094
    96    H    -4.278    -6.207    -3.132
    97    O    -4.217    -6.668    -5.205
    98    P    -2.690    -6.607    -5.542
    99    O    -2.387    -7.717    -6.474
    100    O    -1.916    -6.562    -4.280
    101    O    -2.551    -5.237    -6.284
    102    C    -2.050    -5.087    -7.627
    103    H    -2.900    -5.172    -8.340
    104    H    -1.304    -5.879    -7.895
    105    C    -1.389    -3.712    -7.856
    106    H    -1.514    -3.384    -8.909
    107    O    -1.980    -2.685    -6.995
    108    C    -0.959    -1.866    -6.470
    109    H    -1.236    -0.814    -6.709
    110    N    -0.832    -2.020    -5.012
    111    C    -0.468    -1.649    -2.876
    112    N    -0.844    -2.979    -2.977
    113    C    -1.046    -3.151    -4.258
    114    H    -1.341    -4.096    -4.711
    115    N    0.206    0.441    -2.012
    116    C    0.198    0.883    -3.273
    117    H    0.485    1.931    -3.397
    118    N    -0.120    0.228    -4.396
    119    C    -0.453    -1.045    -4.122
    120    C    -0.112    -0.854    -1.770
    121    N    -0.074    -1.333    -0.513
    122    H    -0.270    -2.296    -0.309
    123    H    0.233    -0.755    0.249
    124    C    0.319    -2.221    -7.184
    125    H    1.185    -2.119    -6.509
    126    O    0.486    -1.408    -8.332
    127    H    1.338    -1.658    -8.715
    128    C    0.113    -3.690    -7.538
    129    H    0.256    -4.335    -6.641
    130    O    0.867    -4.155    -8.676
    131    P    2.311    -4.766    -8.561
    132    O    2.841    -4.955    -9.929
    133    O    2.266    -5.974    -7.705
    134    O    3.189    -3.698    -7.816
    135    C    4.058    -2.792    -8.540
    136    H    3.635    -2.520    -9.537
    137    H    5.037    -3.291    -8.734
    138    C    4.314    -1.470    -7.777
    139    H    4.453    -0.631    -8.490
    140    O    3.189    -1.128    -6.921
    141    C    3.644    -0.599    -5.692
    142    H    3.111    0.374    -5.576
    143    N    3.335    -1.467    -4.513
    144    C    2.934    -2.780    -4.641
    145    H    2.851    -3.160    -5.657
    146    C    2.648    -3.532    -3.565
    147    H    2.310    -4.564    -3.646
    148    C    3.453    -0.912    -3.246
    149    O    3.784    0.277    -3.146
    150    N    3.219    -1.664    -2.152
    151    C    2.803    -2.932    -2.279
    152    N    2.535    -3.618    -1.172
    153    H    2.642    -3.156    -0.292
    154    H    2.242    -4.579    -1.190
    155    C    5.130    -0.347    -5.852
    156    H    5.690    -0.438    -4.896
    157    O    5.345    0.939    -6.411
    158    H    6.279    1.002    -6.660
    159    C    5.508    -1.463    -6.818
    160    H    5.485    -2.442    -6.284
    161    O    6.726    -1.219    -7.545
    162    P    7.900    -2.261    -7.509
    163    O    8.824    -1.973    -8.628
    164    O    7.376    -3.642    -7.421
    165    O    8.630    -1.933    -6.159
    166    C    9.310    -0.667    -5.980
    167    H    8.738    0.181    -6.426
    168    H    10.313    -0.695    -6.464
    169    C    9.512    -0.359    -4.494
    170    H    9.982    0.640    -4.361
    171    O    8.225    -0.332    -3.812
    172    C    8.389    -0.823    -2.493
    173    H    8.076    0.011    -1.822
    174    N    7.544    -2.032    -2.235
    175    C    7.061    -2.800    -3.273
    176    H    7.330    -2.459    -4.274
    177    C    7.262    -2.365    -0.928
    178    O    7.675    -1.714    0.024
    179    N    6.473    -3.476    -0.764
    180    H    6.297    -3.768    0.186
    181    C    5.986    -4.306    -1.750
    182    O    5.321    -5.296    -1.455
    183    C    6.304    -3.891    -3.082
    184    H    5.933    -4.488    -3.913
    185    C    9.877    -1.098    -2.295
    186    H    10.066    -1.951    -1.612
    187    O    10.532    0.055    -1.818
    188    H    11.424    -0.226    -1.579
    189    C    10.342    -1.389    -3.710
    190    H    9.984    -2.389    -4.032
    191    O    11.762    -1.191    -3.946
    192    P    12.764    -2.358    -3.587
    193    O    13.861    -2.306    -4.577
    194    O    12.049    -3.650    -3.476
    195    O    13.327    -1.955    -2.164
    196    C    14.493    -2.672    -1.677
    197    H    15.199    -2.955    -2.507
    198    H    14.177    -3.622    -1.185
    199    C    15.287    -1.848    -0.644
    200    H    16.190    -2.425    -0.353
    201    O    15.738    -0.591    -1.222
    202    C    15.270    0.487    -0.440
    203    H    16.122    0.747    0.232
    204    N    14.862    1.623    -1.307
    205    C    13.957    1.419    -2.324
    206    H    13.653    0.382    -2.475
    207    C    15.382    2.872    -1.059
    208    O    16.171    3.093    -0.147
    209    N    14.952    3.858    -1.913
    210    H    15.310    4.785    -1.733
    211    C    14.075    3.727    -2.970
    212    O    13.806    4.702    -3.672
    213    C    13.550    2.404    -3.141
    214    H    12.873    2.218    -3.972
    215    C    14.130    -0.022    0.414
    216    H    13.170    0.010    -0.144
    217    O    14.042    0.735    1.606
    218    H    13.281    0.439    2.135
    219    C    14.521    -1.482    0.650
    220    H    13.578    -2.079    0.660
    221    O    15.333    -1.690    1.837
    222    P    15.085    -2.972    2.722
    223    O    15.914    -2.904    3.946
    224    O    15.284    -4.171    1.875
    225    O    13.568    -2.906    3.110
    226    C    13.099    -2.474    4.406
    227    H    13.102    -1.361    4.437
    228    H    13.750    -2.839    5.237
    229    C    11.655    -2.942    4.696
    230    H    11.203    -2.278    5.464
    231    O    10.821    -2.884    3.506
    232    C    10.305    -4.165    3.229
    233    H    9.307    -4.184    3.726
    234    N    10.199    -4.410    1.777
    235    C    11.245    -4.039    0.972
    236    H    12.067    -3.526    1.473
    237    C    11.206    -4.244    -0.349
    238    H    12.008    -3.929    -1.012
    239    C    9.089    -5.050    1.237
    240    O    8.160    -5.388    1.990
    241    N    9.046    -5.302    -0.095
    242    C    10.050    -4.883    -0.888
    243    N    9.959    -5.058    -2.202
    244    H    10.695    -4.721    -2.804
    245    H    9.221    -5.615    -2.583
    246    C    11.220    -5.150    3.913
    247    H    12.153    -5.297    3.324
    248    O    10.585    -6.383    4.180
    249    H    9.914    -6.198    4.856
    250    C    11.534    -4.394    5.197
    251    H    12.538    -4.735    5.551
    252    O    10.498    -4.540    6.200
    253    P    10.872    -4.644    7.728
    254    O    12.261    -5.134    7.892
    255    O    9.819    -5.426    8.411
    256    O    10.810    -3.166    8.252
    257    C    9.601    -2.379    8.174
    258    H    8.930    -2.621    9.029
    259    H    9.040    -2.582    7.231
    260    C    9.901    -0.872    8.209
    261    H    10.207    -0.553    9.229
    262    O    11.002    -0.560    7.318
    263    C    10.844    0.743    6.809
    264    H    11.672    1.331    7.264
    265    N    10.985    0.770    5.359
    266    C    10.200    0.207    4.374
    267    N    7.472    -1.687    3.371
    268    H    7.108    -2.074    2.532
    269    H    7.052    -1.919    4.245
    270    N    9.067    -0.503    4.545
    271    C    8.575    -0.952    3.396
    272    N    9.133    -0.677    2.175
    273    H    8.715    -1.082    1.354
    274    C    10.302    0.046    1.979
    275    O    10.793    0.251    0.868
    276    C    10.830    0.535    3.193
    277    N    11.964    1.302    3.425
    278    C    12.016    1.415    4.723
    279    H    12.791    1.955    5.274
    280    C    9.516    1.295    7.281
    281    H    8.950    1.800    6.468
    282    O    9.729    2.189    8.354
    283    H    8.873    2.305    8.793
    284    C    8.770    0.041    7.733
    285    H    8.333    -0.474    6.848
    286    O    7.803    0.269    8.788
    287    P    6.285    0.399    8.381
    288    O    5.543    1.067    9.473
    289    O    5.797    -0.935    7.967
    290    O    6.299    1.348    7.137
    291    C    6.283    2.787    7.237
    292    H    7.082    3.139    7.928
    293    H    5.307    3.119    7.656
    294    C    6.491    3.519    5.887
    295    H    7.149    4.404    6.025
    296    O    7.127    2.652    4.894
    297    C    6.454    2.788    3.655
    298    H    7.235    2.883    2.870
    299    N    5.601    1.621    3.373
    300    C    5.221    1.180    2.140
    301    N    5.335    1.458    -1.293
    302    H    5.891    2.273    -1.437
    303    H    4.865    1.032    -2.071
    304    N    5.571    1.731    0.971
    305    C    5.072    1.069    -0.065
    306    N    4.266    -0.038    0.058
    307    H    3.925    -0.489    -0.776
    308    C    3.883    -0.627    1.257
    309    O    3.165    -1.631    1.299
    310    C    4.424    0.073    2.366
    311    N    4.294    -0.170    3.723
    312    C    5.013    0.771    4.279
    313    H    5.142    0.898    5.347
    314    C    5.645    4.057    3.743
    315    H    4.781    4.068    3.044
    316    O    6.478    5.177    3.493
    317    H    5.989    5.967    3.755
    318    C    5.197    4.001    5.198
    319    H    4.443    3.195    5.347
    320    O    4.775    5.262    5.750
    321    P    3.251    5.657    5.806
    322    O    3.128    6.929    6.553
    323    O    2.460    4.510    6.302
    324    O    2.882    5.893    4.299
    325    C    3.423    7.012    3.564
    326    H    4.536    6.997    3.568
    327    H    3.096    7.972    4.015
    328    C    2.951    7.005    2.104
    329    H    3.372    7.870    1.548
    330    O    3.420    5.797    1.439
    331    C    2.424    5.353    0.530
    332    H    2.931    5.331    -0.464
    333    N    1.915    3.997    0.879
    334    C    1.972    3.512    2.169
    335    H    2.435    4.174    2.897
    336    C    1.384    3.238    -0.137
    337    O    1.324    3.629    -1.295
    338    N    0.937    2.001    0.243
    339    H    0.575    1.433    -0.516
    340    C    0.984    1.437    1.499
    341    O    0.563    0.296    1.685
    342    C    1.551    2.282    2.502
    343    H    1.632    1.900    3.517
    344    C    1.317    6.396    0.507
    345    H    0.314    5.941    0.354
    346    O    1.557    7.362    -0.504
    347    H    0.781    7.937    -0.507
    348    C    1.427    6.999    1.905
    349    H    1.010    6.298    2.662
    350    O    0.899    8.337    2.052
    351    P    -0.638    8.542    2.328
    352    O    -0.893    9.989    2.490
    353    O    -1.081    7.656    3.426
    354    O    -1.307    8.058    1.008
    355    C    -1.641    8.972    -0.054
    356    H    -0.741    9.530    -0.403
    357    H    -2.389    9.722    0.292
    358    C    -2.248    8.219    -1.248
    359    H    -2.144    8.809    -2.183
    360    O    -1.587    6.927    -1.455
    361    C    -2.563    5.953    -1.778
    362    H    -2.225    5.478    -2.730
    363    N    -2.698    4.921    -0.736
    364    C    -3.119    3.639    -0.950
    365    N    -4.243    1.184    -3.112
    366    H    -4.247    1.660    -3.992
    367    H    -4.594    0.245    -3.060
    368    N    -3.470    3.119    -2.137
    369    C    -3.861    1.854    -2.040
    370    N    -3.881    1.165    -0.856
    371    H    -4.217    0.215    -0.867
    372    C    -3.527    1.671    0.387
    373    O    -3.594    0.962    1.395
    374    C    -3.116    3.030    0.292
    375    N    -2.700    3.921    1.277
    376    C    -2.464    5.031    0.617
    377    H    -2.113    5.959    1.067
    378    C    -3.867    6.682    -2.017
    379    H    -4.748    6.062    -1.752
    380    O    -3.949    7.088    -3.370
    381    H    -4.789    7.553    -3.463
    382    C    -3.738    7.879    -1.079
    383    H    -3.875    7.564    -0.016
    384    O    -4.544    9.027    -1.429
    385    P    -5.980    9.241    -0.820
    386    O    -6.531    10.522    -1.321
    387    O    -5.927    9.065    0.649
    388    O    -6.816    8.053    -1.411
    389    C    -7.312    8.111    -2.767
    390    H    -6.534    8.476    -3.477
    391    H    -8.163    8.825    -2.822
    392    C    -7.813    6.738    -3.250
    393    H    -7.897    6.722    -4.357
    394    O    -6.890    5.683    -2.871
    395    C    -7.601    4.512    -2.538
    396    H    -7.272    3.767    -3.298
    397    N    -7.263    3.988    -1.178
    398    C    -6.775    4.822    -0.196
    399    H    -6.653    5.871    -0.476
    400    C    -6.462    4.354    1.023
    401    H    -6.069    4.992    1.812
    402    C    -7.454    2.637    -0.900
    403    O    -7.907    1.900    -1.786
    404    N    -7.140    2.146    0.322
    405    C    -6.658    2.963    1.274
    406    N    -6.363    2.445    2.466
    407    H    -6.503    1.469    2.632
    408    H    -5.979    2.996    3.210
    409    C    -9.092    4.788    -2.732
    410    H    -9.707    4.340    -1.925
    411    O    -9.535    4.298    -3.980
    412    H    -10.474    4.546    -4.042
    413    C    -9.167    6.322    -2.675
    414    H    -9.164    6.655    -1.612
    415    O    -10.223    6.963    -3.441
    416    P    -11.700    6.958    -2.901
    417    O    -12.474    7.990    -3.624
    418    O    -11.703    7.022    -1.422
    419    O    -12.185    5.547    -3.352
    420    C    -13.525    5.283    -3.826
    421    H    -13.561    5.433    -4.929
    422    H    -14.273    5.982    -3.382
    423    C    -13.996    3.840    -3.525
    424    H    -14.512    3.405    -4.406
    425    O    -12.864    2.972    -3.209
    426    C    -13.213    2.092    -2.161
    427    H    -13.106    1.084    -2.625
    428    N    -12.304    2.196    -0.991
    429    C    -11.870    3.427    -0.549
    430    H    -12.178    4.292    -1.144
    431    C    -11.069    3.532    0.524
    432    H    -10.707    4.489    0.891
    433    C    -11.954    1.044    -0.290
    434    O    -12.404    -0.052    -0.659
    435    N    -11.144    1.133    0.787
    436    C    -10.706    2.331    1.204
    437    N    -9.938    2.382    2.289
    438    H    -9.898    1.572    2.878
    439    H    -9.641    3.250    2.683
    440    C    -14.675    2.305    -1.798
    441    H    -14.837    2.272    -0.698
    442    O    -15.476    1.321    -2.433
    443    H    -16.413    1.562    -2.339
    444    C    -14.943    3.718    -2.323
    445    H    -14.619    4.475    -1.577
    446    O    -16.307    3.949    -2.726
    447    H    -16.903    3.859    -1.963
 $END
