!*** FMO 5.3 (Gamess) INPUT generated by Facio 22.1.1.32 ***
 $CONTRL RUNTYP=ENERGY NPRINT=-5 ISPHER=1 MAXIT=200 $END
 $SYSTEM MWORDS=63 MEMDDI=63 $END
 $GDDI NGROUP=1 $END
 $SCF DIRSCF=.TRUE. NPUNCH=0 $END
!*** NumCPU : 2  MemPerNode : 512MB
 $PCM SOLVNT=WATER IEF=-10 ICOMP=2 ICAV=1 IDISP=1 IFMO=-1 $END
 $PCMCAV RADII=SUAHF $END
 $TESCAV NTSALL=60 $END
 $FMOPRP
    NAODIR=200
    NGRFMO(1)=1, 1, 0, 0, 0,   0, 0, 0, 0, 0
    IPIEDA=1
    NPRINT=9
 $END
 $FMO
      SCFTYP(1)=RHF
      MODGRD=10
      MODMUL=0
      MAXCAO=5
      MAXBND=18
      NLAYER=1
      MPLEVL(1)=2
      NFRAG=16
      ICHARG(1)=-1, -1, -1, -1, -1, -1, -1, 0, -1, -1, -1, -1, -1, -1,
-1, 0
      FRGNAM(1)=F1, F2, F3, F4, F5, F6, F7, F8, F9, F10, F11, F12, F13,
F14, F15, F16
      indat(1)=0
               1   -35   0
               36   -66   0
               67   -100   0
               101   -133   0
               134   -167   0
               168   -197   0
               198   -231   0
               232   -260   0
               261   -293   0
               294   -324   0
               325   -358   0
               359   -391   0
               392   -425   0
               426   -455   0
               456   -489   0
               490   -516   0
 $END

 $FMOBND
   -36   35       6-31G*    MINI
   -67   66       6-31G*    MINI
   -101   100       6-31G*    MINI
   -134   133       6-31G*    MINI
   -168   167       6-31G*    MINI
   -198   197       6-31G*    MINI
   -232   231       6-31G*    MINI
   -261   260       6-31G*    MINI
   -294   293       6-31G*    MINI
   -325   324       6-31G*    MINI
   -359   358       6-31G*    MINI
   -392   391       6-31G*    MINI
   -426   425       6-31G*    MINI
   -456   455       6-31G*    MINI
   -490   489       6-31G*    MINI
 $END
 $FMOHYB
 6-31G*      15   5
   1 0  -0.065034   0.288264   0.000000   0.000000   0.604412
         0.290129   0.000000   0.000000   0.319045  -0.017106
        -0.017106   0.057934   0.000000   0.000000   0.000000
   0 1  -0.065040   0.288293   0.569832   0.000000  -0.201456
         0.290147   0.300783   0.000000  -0.106342   0.049598
        -0.017106  -0.008771   0.000000  -0.027223   0.000000
   0 1  -0.065039   0.288293  -0.284916  -0.493490  -0.201455
         0.290145  -0.150392  -0.260486  -0.106340  -0.000427
         0.032923  -0.008771   0.033353   0.013612   0.023576
   0 1  -0.065039   0.288293  -0.284916   0.493490  -0.201455
         0.290145  -0.150392   0.260486  -0.106340  -0.000427
         0.032923  -0.008771  -0.033353   0.013612  -0.023576
   0 1   1.010938  -0.011975   0.000000   0.000000   0.000000
        -0.054085   0.000000   0.000000  -0.000000  -0.003174
        -0.003174  -0.003174   0.000000   0.000000   0.000000
 MINI         5   5
   1 0  -0.104883   0.308874   0.000000   0.000000   0.521806
   0 1  -0.104883   0.308874   0.491961   0.000000  -0.173934
   0 1  -0.104883   0.308876  -0.245980  -0.426050  -0.173933
   0 1  -0.104883   0.308876  -0.245980   0.426050  -0.173933
   0 1   0.988209   0.063992   0.000000   0.000000   0.000000
 $END
 
 $DATA
 FMO calculation
 C1 
 H.1-1    1
      N31 6
   
 O.1-1    8
      N31 6
      d 1
      1 0.800 1.0
   
 C.1-1    6
      N31 6
      d 1
      1 0.800 1.0
   
 N.1-1    7
      N31 6
      d 1
      1 0.800 1.0
   
 P.1-1   15
      N31 6
      d 1
      1 0.550 1.0
   
 $END
 $FMOXYZ
    1    H    11.847    1.006    14.975
    2    O    11.261    1.565    14.429
    3    C    11.697    2.909    14.627
    4    H    12.771    2.978    14.347
    5    H    11.607    3.153    15.707
    6    C    10.905    3.934    13.810
    7    H    11.276    4.959    14.031
    8    O    11.085    3.707    12.380
    9    C    9.902    4.106    11.701
    10    H    10.200    4.916    10.993
    11    N    9.324    3.004    10.927
    12    C    8.197    1.790    9.480
    13    N    9.010    0.911    10.170
    14    C    9.659    1.680    11.008
    15    H    10.434    1.355    11.703
    16    N    6.702    2.709    7.894
    17    C    6.985    3.901    8.434
    18    H    6.470    4.758    7.983
    19    N    7.799    4.194    9.454
    20    C    8.390    3.086    9.926
    21    C    7.298    1.604    8.411
    22    N    7.020    0.396    7.887
    23    H    7.446    -0.434    8.254
    24    H    6.309    0.291    7.188
    25    C    8.953    4.669    12.735
    26    H    7.891    4.476    12.493
    27    O    9.181    6.058    12.858
    28    H    8.615    6.361    13.577
    29    C    9.378    3.934    14.002
    30    H    9.041    2.871    13.974
    31    O    9.030    4.608    15.238
    32    P    7.638    4.320    15.916
    33    O    7.444    2.862    15.987
    34    O    7.603    5.064    17.197
    35    O    6.592    4.942    14.907
    36    C    6.509    6.382    14.763
    37    H    7.507    6.846    14.595
    38    H    6.092    6.833    15.693
    39    C    5.589    6.784    13.598
    40    H    5.621    7.882    13.432
    41    O    6.002    6.151    12.357
    42    C    4.848    5.780    11.609
    43    H    4.945    6.316    10.636
    44    N    4.770    4.314    11.342
    45    C    5.454    3.437    12.152
    46    H    6.033    3.892    12.953
    47    C    5.450    2.121    11.917
    48    H    6.034    1.416    12.499
    49    C    4.016    3.822    10.277
    50    O    3.399    4.620    9.551
    51    N    3.992    2.491    10.036
    52    C    4.696    1.647    10.809
    53    N    4.707    0.350    10.521
    54    H    4.219    0.037    9.702
    55    H    5.305    -0.294    11.019
    56    C    3.632    6.315    12.342
    57    H    2.742    5.654    12.252
    58    O    3.311    7.613    11.879
    59    H    2.516    7.862    12.371
    60    C    4.131    6.361    13.781
    61    H    4.158    5.330    14.209
    62    O    3.462    7.327    14.627
    63    P    2.224    6.869    15.469
    64    O    2.535    5.520    15.973
    65    O    1.926    7.908    16.479
    66    O    1.053    6.816    14.430
    67    C    0.480    7.968    13.782
    68    H    1.271    8.646    13.389
    69    H    -0.128    8.548    14.513
    70    C    -0.455    7.575    12.611
    71    H    -0.840    8.492    12.113
    72    O    0.265    6.815    11.590
    73    C    -0.596    5.811    11.059
    74    H    -0.642    6.020    9.965
    75    N    -0.054    4.450    11.257
    76    C    0.278    3.787    12.415
    77    N    0.559    3.741    15.814
    78    H    1.020    3.221    16.521
    79    H    0.468    4.721    15.971
    80    N    0.108    4.217    13.655
    81    C    0.621    3.433    14.564
    82    N    1.173    2.224    14.296
    83    H    1.474    1.669    15.075
    84    C    1.246    1.684    13.034
    85    O    1.721    0.550    12.894
    86    C    0.762    2.561    12.031
    87    N    0.694    2.429    10.662
    88    C    0.192    3.563    10.245
    89    H    -0.039    3.799    9.207
    90    C    -1.980    6.003    11.651
    91    H    -2.494    5.033    11.834
    92    O    -2.782    6.814    10.801
    93    H    -3.600    7.027    11.274
    94    C    -1.672    6.709    12.973
    95    H    -1.327    6.002    13.743
    96    O    -2.734    7.515    13.503
    97    P    -3.936    6.803    14.225
    98    O    -5.051    7.782    14.270
    99    O    -4.228    5.511    13.573
    100    O    -3.376    6.546    15.681
    101    C    -4.247    6.658    16.832
    102    H    -5.309    6.412    16.584
    103    H    -4.227    7.705    17.213
    104    C    -3.853    5.727    17.993
    105    H    -4.541    5.908    18.846
    106    O    -3.999    4.345    17.598
    107    C    -2.738    3.710    17.560
    108    H    -2.683    3.092    18.485
    109    N    -2.642    2.842    16.377
    110    C    -2.574    1.075    15.059
    111    N    -2.684    2.180    14.225
    112    C    -2.724    3.201    15.054
    113    H    -2.760    4.248    14.762
    114    N    -2.344    -1.134    15.864
    115    C    -2.365    -0.610    17.089
    116    H    -2.263    -1.324    17.913
    117    N    -2.447    0.671    17.463
    118    C    -2.554    1.469    16.388
    119    C    -2.467    -0.309    14.798
    120    N    -2.514    -0.841    13.564
    121    H    -2.519    -0.290    12.741
    122    H    -2.404    -1.847    13.454
    123    C    -1.690    4.793    17.642
    124    H    -1.447    5.214    16.640
    125    O    -0.543    4.345    18.330
    126    H    -0.837    4.259    19.252
    127    C    -2.399    5.830    18.496
    128    H    -2.000    6.834    18.206
    129    O    -2.284    5.550    19.932
    130    P    -2.377    6.812    20.868
    131    O    -1.385    7.817    20.432
    132    O    -3.791    7.241    20.913
    133    O    -1.970    6.299    22.296
    134    C    -0.589    5.995    22.605
    135    H    0.039    6.910    22.508
    136    H    -0.183    5.223    21.905
    137    C    -0.478    5.495    24.060
    138    H    -0.700    6.324    24.767
    139    O    -1.427    4.420    24.301
    140    C    -0.756    3.185    24.383
    141    H    -0.797    2.895    25.458
    142    N    -1.446    2.157    23.568
    143    C    -1.101    1.574    22.368
    144    N    1.158    1.134    19.795
    145    H    1.299    0.507    19.032
    146    H    1.907    1.712    20.116
    147    N    -0.007    1.831    21.632
    148    C    0.110    1.051    20.585
    149    N    -0.828    0.127    20.244
    150    H    -0.653    -0.394    19.403
    151    C    -1.990    -0.154    20.935
    152    O    -2.766    -1.033    20.545
    153    C    -2.110    0.667    22.090
    154    N    -3.102    0.715    23.059
    155    C    -2.674    1.622    23.908
    156    H    -3.212    1.952    24.801
    157    C    0.703    3.429    24.019
    158    H    0.933    3.397    22.941
    159    O    1.570    2.593    24.751
    160    H    1.551    2.927    25.654
    161    C    0.892    4.881    24.395
    162    H    1.640    5.317    23.687
    163    O    1.262    5.050    25.780
    164    P    2.406    6.066    26.118
    165    O    3.643    5.694    25.399
    166    O    1.908    7.441    25.918
    167    O    2.643    5.852    27.650
    168    C    3.282    4.699    28.223
    169    H    4.204    5.051    28.741
    170    H    3.603    3.951    27.454
    171    C    2.392    3.968    29.255
    172    H    3.020    3.249    29.824
    173    O    1.784    4.880    30.225
    174    C    0.375    4.896    30.049
    175    H    -0.036    4.217    30.837
    176    N    -0.148    6.286    30.159
    177    C    0.243    7.245    29.254
    178    H    0.890    6.913    28.452
    179    C    -0.991    6.606    31.198
    180    O    -1.351    5.784    32.036
    181    N    -1.400    7.918    31.233
    182    H    -2.001    8.158    32.004
    183    C    -1.042    8.930    30.365
    184    O    -1.474    10.072    30.522
    185    C    -0.166    8.519    29.313
    186    H    0.155    9.254    28.582
    187    C    0.083    4.260    28.703
    188    H    0.183    5.004    27.892
    189    O    -1.195    3.669    28.644
    190    H    -1.163    2.878    29.206
    191    C    1.198    3.219    28.612
    192    H    1.428    3.043    27.537
    193    O    0.876    1.977    29.285
    194    P    1.783    0.717    29.035
    195    O    3.016    1.131    28.333
    196    O    1.959    0.036    30.332
    197    O    0.905    -0.169    28.077
    198    C    -0.030    -1.140    28.607
    199    H    -1.036    -0.668    28.688
    200    H    0.250    -1.504    29.625
    201    C    -0.130    -2.382    27.706
    202    H    -0.857    -3.117    28.125
    203    O    -0.626    -1.993    26.397
    204    C    0.024    -2.754    25.391
    205    H    -0.779    -3.232    24.783
    206    N    0.843    -1.902    24.517
    207    C    1.373    -2.245    23.299
    208    N    1.952    -4.571    20.802
    209    H    1.502    -5.392    21.149
    210    H    2.529    -4.636    19.982
    211    N    1.247    -3.434    22.682
    212    C    1.930    -3.479    21.539
    213    N    2.608    -2.407    21.027
    214    H    3.069    -2.511    20.135
    215    C    2.722    -1.159    21.615
    216    O    3.362    -0.250    21.077
    217    C    2.054    -1.126    22.863
    218    N    1.974    -0.116    23.792
    219    C    1.236    -0.605    24.755
    220    H    0.937    -0.067    25.659
    221    C    0.846    -3.813    26.091
    222    H    1.762    -4.086    25.529
    223    O    0.058    -4.969    26.307
    224    H    0.584    -5.566    26.857
    225    C    1.185    -3.121    27.404
    226    H    1.951    -2.328    27.230
    227    O    1.517    -4.028    28.483
    228    P    3.038    -4.201    28.881
    229    O    3.732    -2.896    28.841
    230    O    3.126    -4.962    30.145
    231    O    3.614    -5.099    27.719
    232    C    3.177    -6.479    27.609
    233    H    2.066    -6.555    27.537
    234    H    3.500    -7.057    28.507
    235    C    3.784    -7.172    26.377
    236    H    3.486    -8.240    26.333
    237    O    3.297    -6.537    25.159
    238    C    4.350    -6.466    24.206
    239    H    3.970    -6.978    23.291
    240    N    4.703    -5.050    23.885
    241    C    4.333    -4.018    24.721
    242    H    3.788    -4.313    25.613
    243    C    5.385    -4.795    22.718
    244    O    5.743    -5.683    21.953
    245    N    5.641    -3.470    22.473
    246    H    6.113    -3.279    21.595
    247    C    5.296    -2.391    23.256
    248    O    5.604    -1.254    22.904
    249    C    4.587    -2.731    24.451
    250    H    4.268    -1.935    25.122
    251    C    5.523    -7.262    24.769
    252    H    6.502    -6.835    24.458
    253    O    5.436    -8.620    24.362
    254    H    6.093    -9.135    24.865
    255    C    5.312    -7.099    26.270
    256    H    5.634    -6.088    26.592
    257    O    5.928    -8.123    27.073
    258    H    6.895    -8.035    27.029
    259    H    10.169    0.629    13.626
    260    O    9.646    -0.107    13.254
    261    C    10.575    -1.105    12.824
    262    H    11.609    -0.829    13.128
    263    H    10.561    -1.157    11.715
    264    C    10.202    -2.456    13.403
    265    H    10.692    -3.290    12.858
    266    O    10.648    -2.505    14.790
    267    C    9.684    -3.193    15.564
    268    H    10.214    -4.048    16.044
    269    N    9.119    -2.329    16.608
    270    C    8.145    -1.607    18.446
    271    N    8.612    -0.479    17.784
    272    C    9.169    -0.954    16.695
    273    H    9.646    -0.352    15.916
    274    N    7.129    -3.043    20.032
    275    C    7.471    -4.052    19.223
    276    H    7.178    -5.055    19.560
    277    N    8.138    -4.015    18.065
    278    C    8.448    -2.751    17.730
    279    C    7.457    -1.777    19.667
    280    N    7.125    -0.749    20.473
    281    H    7.333    0.198    20.214
    282    H    6.577    -0.898    21.301
    283    C    8.631    -3.725    14.615
    284    H    7.622    -3.746    15.074
    285    O    8.986    -5.011    14.157
    286    H    8.356    -5.212    13.453
    287    C    8.688    -2.706    13.488
    288    H    8.188    -1.777    13.845
    289    O    8.191    -3.145    12.201
    290    P    6.688    -2.866    11.825
    291    O    6.341    -1.441    12.025
    292    O    6.439    -3.432    10.483
    293    O    5.930    -3.758    12.885
    294    C    5.969    -5.201    12.731
    295    H    7.016    -5.579    12.660
    296    H    5.449    -5.510    11.794
    297    C    5.301    -5.924    13.914
    298    H    5.481    -7.017    13.848
    299    O    5.881    -5.493    15.174
    300    C    4.865    -5.429    16.165
    301    H    5.211    -6.111    16.973
    302    N    4.686    -4.065    16.743
    303    C    5.098    -2.960    16.037
    304    H    5.575    -3.162    15.077
    305    C    4.959    -1.720    16.530
    306    H    5.305    -0.833    16.009
    307    C    4.088    -3.897    17.990
    308    O    3.703    -4.891    18.623
    309    N    3.947    -2.655    18.504
    310    C    4.359    -1.583    17.812
    311    N    4.192    -0.376    18.344
    312    H    3.836    -0.299    19.278
    313    H    4.487    0.460    17.880
    314    C    3.587    -5.992    15.559
    315    H    2.676    -5.473    15.929
    316    O    3.488    -7.385    15.814
    317    H    2.702    -7.687    15.334
    318    C    3.788    -5.705    14.067
    319    H    3.595    -4.631    13.853
    320    O    3.091    -6.577    13.153
    321    P    1.548    -6.468    12.846
    322    O    1.265    -5.133    12.324
    323    O    1.205    -7.625    11.965
    324    O    0.855    -6.718    14.237
    325    C    -0.468    -6.190    14.507
    326    H    -1.242    -6.729    13.916
    327    H    -0.530    -5.110    14.223
    328    C    -0.854    -6.299    15.998
    329    H    -1.074    -7.350    16.278
    330    O    0.245    -5.868    16.853
    331    C    -0.247    -5.032    17.878
    332    H    0.169    -5.450    18.820
    333    N    0.195    -3.629    17.755
    334    C    0.701    -2.910    16.689
    335    N    1.630    -2.707    13.374
    336    H    2.503    -2.431    13.001
    337    H    1.260    -3.599    13.063
    338    N    0.933    -3.359    15.450
    339    C    1.359    -2.430    14.626
    340    N    1.675    -1.163    15.031
    341    H    1.902    -0.508    14.303
    342    C    1.427    -0.644    16.292
    343    O    1.690    0.537    16.553
    344    C    0.932    -1.640    17.175
    345    N    0.593    -1.564    18.511
    346    C    0.159    -2.758    18.807
    347    H    -0.187    -3.059    19.795
    348    C    -1.754    -5.159    17.891
    349    H    -2.258    -4.231    18.240
    350    O    -2.141    -6.251    18.710
    351    H    -3.090    -6.403    18.577
    352    C    -2.049    -5.406    16.410
    353    H    -1.963    -4.439    15.850
    354    O    -3.292    -6.096    16.130
    355    P    -4.658    -5.312    16.270
    356    O    -5.729    -6.325    16.380
    357    O    -4.601    -4.331    17.369
    358    O    -4.841    -4.561    14.914
    359    C    -5.738    -5.029    13.878
    360    H    -6.620    -5.585    14.272
    361    H    -5.179    -5.707    13.192
    362    C    -6.256    -3.864    13.038
    363    H    -6.842    -4.206    12.156
    364    O    -7.120    -2.991    13.814
    365    C    -6.876    -1.640    13.439
    366    H    -7.850    -1.238    13.066
    367    N    -6.430    -0.863    14.596
    368    C    -6.130    0.712    16.091
    369    N    -5.582    -0.438    16.632
    370    C    -5.762    -1.340    15.702
    371    H    -5.437    -2.381    15.771
    372    N    -6.822    2.953    15.800
    373    C    -7.195    2.597    14.566
    374    H    -7.617    3.406    13.960
    375    N    -7.192    1.383    13.997
    376    C    -6.634    0.476    14.825
    377    C    -6.279    2.009    16.608
    378    N    -5.906    2.325    17.857
    379    H    -5.419    1.636    18.397
    380    H    -5.588    3.267    17.981
    381    C    -5.868    -1.638    12.307
    382    H    -5.162    -0.780    12.367
    383    O    -6.534    -1.617    11.059
    384    H    -5.866    -1.722    10.363
    385    C    -5.147    -2.954    12.574
    386    H    -4.469    -2.781    13.443
    387    O    -4.515    -3.593    11.460
    388    P    -2.956    -3.590    11.371
    389    O    -2.707    -2.476    10.449
    390    O    -2.370    -3.506    12.721
    391    O    -2.657    -5.005    10.723
    392    C    -1.358    -5.483    10.301
    393    H    -1.033    -6.299    10.986
    394    H    -0.590    -4.688    10.418
    395    C    -1.354    -6.069    8.845
    396    H    -1.775    -7.096    8.852
    397    O    -2.141    -5.226    7.942
    398    C    -1.278    -4.312    7.283
    399    H    -1.361    -4.561    6.200
    400    N    -1.679    -2.896    7.491
    401    C    -1.146    -1.892    8.282
    402    N    1.044    -0.928    10.736
    403    H    1.186    -0.194    11.402
    404    H    1.534    -1.785    10.842
    405    N    -0.077    -1.980    9.102
    406    C    0.062    -0.945    9.871
    407    N    -0.733    0.161    9.806
    408    H    -0.430    0.965    10.329
    409    C    -1.762    0.354    8.896
    410    O    -2.407    1.408    8.870
    411    C    -1.973    -0.797    8.095
    412    N    -2.983    -1.079    7.184
    413    C    -2.764    -2.333    6.860
    414    H    -3.398    -2.911    6.185
    415    C    0.124    -4.622    7.749
    416    H    0.403    -4.114    8.683
    417    O    1.087    -4.328    6.775
    418    H    0.983    -4.957    6.049
    419    C    0.053    -6.075    8.185
    420    H    0.779    -6.236    9.020
    421    O    0.222    -7.059    7.127
    422    P    1.695    -7.525    6.736
    423    O    2.588    -7.442    7.914
    424    O    1.628    -8.850    6.084
    425    O    2.183    -6.486    5.655
    426    C    1.881    -6.545    4.253
    427    H    0.804    -6.767    4.084
    428    H    2.485    -7.348    3.783
    429    C    2.204    -5.213    3.544
    430    H    1.634    -4.377    4.006
    431    O    3.628    -4.902    3.600
    432    C    4.214    -5.067    2.317
    433    H    4.337    -4.035    1.914
    434    N    5.505    -5.789    2.428
    435    C    5.543    -7.000    3.077
    436    H    4.590    -7.339    3.489
    437    C    6.657    -5.205    1.950
    438    O    6.669    -4.101    1.412
    439    N    7.801    -5.940    2.143
    440    H    8.654    -5.524    1.810
    441    C    7.923    -7.130    2.832
    442    O    9.034    -7.631    3.013
    443    C    6.680    -7.680    3.284
    444    H    6.691    -8.623    3.828
    445    C    3.203    -5.795    1.453
    446    H    3.273    -6.896    1.604
    447    O    3.330    -5.488    0.075
    448    H    3.082    -4.554    -0.035
    449    C    1.890    -5.283    2.041
    450    H    1.122    -6.078    1.880
    451    O    1.480    -3.998    1.529
    452    P    -0.017    -3.745    1.113
    453    O    -0.044    -3.421    -0.327
    454    O    -0.878    -4.866    1.551
    455    O    -0.413    -2.455    1.935
    456    C    -1.540    -1.678    1.442
    457    H    -2.499    -2.196    1.674
    458    H    -1.485    -1.521    0.339
    459    C    -1.587    -0.278    2.060
    460    H    -2.428    0.315    1.638
    461    O    -1.802    -0.375    3.493
    462    C    -1.067    0.652    4.148
    463    H    -1.793    1.245    4.750
    464    N    -0.038    0.101    5.038
    465    C    0.713    0.794    5.955
    466    N    1.666    3.768    7.461
    467    H    1.122    4.458    6.986
    468    H    2.319    4.049    8.173
    469    N    0.641    2.117    6.208
    470    C    1.518    2.498    7.140
    471    N    2.358    1.634    7.774
    472    H    2.932    1.969    8.536
    473    C    2.463    0.283    7.527
    474    O    3.290    -0.375    8.144
    475    C    1.558    -0.136    6.516
    476    N    1.355    -1.385    5.961
    477    C    0.382    -1.207    5.105
    478    H    -0.059    -1.984    4.476
    479    C    -0.457    1.529    3.074
    480    H    0.523    1.953    3.375
    481    O    -1.339    2.583    2.742
    482    H    -0.936    3.050    2.000
    483    C    -0.301    0.546    1.919
    484    H    0.546    -0.154    2.114
    485    O    -0.252    1.157    0.610
    486    P    1.134    1.368    -0.101
    487    O    1.984    0.179    0.109
    488    O    0.892    1.781    -1.499
    489    O    1.766    2.571    0.694
    490    C    1.173    3.888    0.621
    491    H    0.092    3.865    0.885
    492    H    1.254    4.294    -0.415
    493    C    1.877    4.883    1.561
    494    H    1.455    5.902    1.437
    495    O    1.664    4.510    2.958
    496    C    2.855    4.755    3.699
    497    H    2.561    5.416    4.548
    498    N    3.461    3.490    4.218
    499    C    3.162    2.266    3.660
    500    H    2.429    2.291    2.857
    501    C    4.354    3.584    5.261
    502    O    4.670    4.655    5.766
    503    N    4.868    2.391    5.693
    504    H    5.518    2.454    6.471
    505    C    4.611    1.134    5.192
    506    O    5.158    0.154    5.690
    507    C    3.678    1.112    4.105
    508    H    3.384    0.153    3.683
    509    C    3.808    5.513    2.783
    510    H    4.872    5.256    2.992
    511    O    3.613    6.916    2.907
    512    H    4.110    7.364    2.200
    513    C    3.398    4.977    1.415
    514    H    3.792    3.950    1.278
    515    O    3.757    5.823    0.307
    516    H    4.728    5.863    0.214
 $END
