!*** FMO 5.3 (Gamess) INPUT generated by Facio 22.1.1.32 ***
 $CONTRL RUNTYP=ENERGY NPRINT=-5 ISPHER=1 MAXIT=200 $END
 $SYSTEM MWORDS=63 MEMDDI=63 $END
 $GDDI NGROUP=1 $END
 $SCF DIRSCF=.TRUE. NPUNCH=0 $END
!*** NumCPU : 2  MemPerNode : 512MB
 $PCM SOLVNT=WATER IEF=-10 ICOMP=2 ICAV=1 IDISP=1 IFMO=-1 $END
 $PCMCAV RADII=SUAHF $END
 $TESCAV NTSALL=60 $END
 $FMOPRP
    NAODIR=200
    NGRFMO(1)=1, 1, 0, 0, 0,   0, 0, 0, 0, 0
    IPIEDA=1
    NPRINT=9
 $END
 $FMO
      SCFTYP(1)=RHF
      MODGRD=10
      MODMUL=0
      MAXCAO=5
      MAXBND=18
      NLAYER=1
      MPLEVL(1)=2
      NFRAG=16
      ICHARG(1)=-1, -1, -1, -1, -1, -1, -1, 0, -1, -1, -1, -1, -1, -1,
-1, 0
      FRGNAM(1)=F1, F2, F3, F4, F5, F6, F7, F8, F9, F10, F11, F12, F13,
F14, F15, F16
      indat(1)=0
               1   -35   0
               36   -66   0
               67   -100   0
               101   -133   0
               134   -167   0
               168   -197   0
               198   -231   0
               232   -260   0
               261   -293   0
               294   -324   0
               325   -358   0
               359   -391   0
               392   -425   0
               426   -455   0
               456   -489   0
               490   -516   0
 $END

 $FMOBND
   -36   35       6-31G*    MINI
   -67   66       6-31G*    MINI
   -101   100       6-31G*    MINI
   -134   133       6-31G*    MINI
   -168   167       6-31G*    MINI
   -198   197       6-31G*    MINI
   -232   231       6-31G*    MINI
   -261   260       6-31G*    MINI
   -294   293       6-31G*    MINI
   -325   324       6-31G*    MINI
   -359   358       6-31G*    MINI
   -392   391       6-31G*    MINI
   -426   425       6-31G*    MINI
   -456   455       6-31G*    MINI
   -490   489       6-31G*    MINI
 $END
 $FMOHYB
 6-31G*      15   5
   1 0  -0.065034   0.288264   0.000000   0.000000   0.604412
         0.290129   0.000000   0.000000   0.319045  -0.017106
        -0.017106   0.057934   0.000000   0.000000   0.000000
   0 1  -0.065040   0.288293   0.569832   0.000000  -0.201456
         0.290147   0.300783   0.000000  -0.106342   0.049598
        -0.017106  -0.008771   0.000000  -0.027223   0.000000
   0 1  -0.065039   0.288293  -0.284916  -0.493490  -0.201455
         0.290145  -0.150392  -0.260486  -0.106340  -0.000427
         0.032923  -0.008771   0.033353   0.013612   0.023576
   0 1  -0.065039   0.288293  -0.284916   0.493490  -0.201455
         0.290145  -0.150392   0.260486  -0.106340  -0.000427
         0.032923  -0.008771  -0.033353   0.013612  -0.023576
   0 1   1.010938  -0.011975   0.000000   0.000000   0.000000
        -0.054085   0.000000   0.000000  -0.000000  -0.003174
        -0.003174  -0.003174   0.000000   0.000000   0.000000
 MINI         5   5
   1 0  -0.104883   0.308874   0.000000   0.000000   0.521806
   0 1  -0.104883   0.308874   0.491961   0.000000  -0.173934
   0 1  -0.104883   0.308876  -0.245980  -0.426050  -0.173933
   0 1  -0.104883   0.308876  -0.245980   0.426050  -0.173933
   0 1   0.988209   0.063992   0.000000   0.000000   0.000000
 $END
 
 $DATA
 FMO calculation
 C1 
 H.1-1    1
      N31 6
   
 O.1-1    8
      N31 6
      d 1
      1 0.800 1.0
   
 C.1-1    6
      N31 6
      d 1
      1 0.800 1.0
   
 N.1-1    7
      N31 6
      d 1
      1 0.800 1.0
   
 P.1-1   15
      N31 6
      d 1
      1 0.550 1.0
   
 $END
 $FMOXYZ
    1    H    10.892    2.060    15.833
    2    O    10.538    2.722    15.209
    3    C    10.896    4.003    15.737
    4    H    11.993    4.147    15.601
    5    H    10.682    4.027    16.827
    6    C    10.149    5.160    15.068
    7    H    10.501    6.129    15.480
    8    O    10.414    5.178    13.635
    9    C    9.240    5.594    12.952
    10    H    9.523    6.484    12.341
    11    N    8.751    4.547    12.068
    12    C    7.778    3.406    10.464
    13    N    8.546    2.504    11.188
    14    C    9.098    3.225    12.124
    15    H    9.786    2.853    12.888
    16    N    6.297    4.356    8.883
    17    C    6.484    5.515    9.525
    18    H    5.933    6.369    9.112
    19    N    7.262    5.784    10.580
    20    C    7.889    4.674    11.003
    21    C    6.946    3.253    9.333
    22    N    6.763    2.080    8.696
    23    H    7.107    1.224    9.090
    24    H    6.088    2.012    7.956
    25    C    8.223    5.986    13.990
    26    H    7.177    5.792    13.672
    27    O    8.397    7.355    14.289
    28    H    7.818    7.538    15.037
    29    C    8.615    5.111    15.175
    30    H    8.311    4.050    15.009
    31    O    8.193    5.619    16.461
    32    P    6.811    5.174    17.067
    33    O    6.719    3.700    17.034
    34    O    6.677    5.812    18.391
    35    O    5.741    5.787    16.076
    36    C    5.523    7.221    16.014
    37    H    6.477    7.776    15.882
    38    H    5.073    7.586    16.957
    39    C    4.568    7.630    14.874
    40    H    4.515    8.736    14.780
    41    O    5.043    7.104    13.605
    42    C    3.941    6.691    12.817
    43    H    4.011    7.322    11.907
    44    N    4.012    5.254    12.412
    45    C    4.774    4.357    13.134
    46    H    5.303    4.775    13.993
    47    C    4.901    3.076    12.747
    48    H    5.548    2.366    13.262
    49    C    3.315    4.818    11.286
    50    O    2.649    5.640    10.629
    51    N    3.410    3.526    10.899
    52    C    4.190    2.664    11.578
    53    N    4.305    1.401    11.153
    54    H    3.806    1.101    10.336
    55    H    4.855    0.705    11.604
    56    C    2.664    7.050    13.562
    57    H    1.860    6.289    13.435
    58    O    2.190    8.321    13.157
    59    H    1.426    8.480    13.730
    60    C    3.138    7.096    15.014
    61    H    3.239    6.061    15.411
    62    O    2.372    7.969    15.893
    63    P    0.981    7.412    16.412
    64    O    1.160    5.968    16.553
    65    O    0.582    8.164    17.621
    66    O    -0.016    7.767    15.225
    67    C    -1.312    7.115    15.157
    68    H    -2.058    7.705    15.735
    69    H    -1.284    6.090    15.600
    70    C    -1.852    6.971    13.716
    71    H    -2.246    7.942    13.355
    72    O    -0.786    6.613    12.789
    73    C    -1.260    5.647    11.873
    74    H    -1.019    6.058    10.866
    75    N    -0.588    4.344    12.037
    76    C    -0.129    3.707    13.172
    77    N    0.196    3.517    16.601
    78    H    0.407    2.851    17.302
    79    H    -0.200    4.408    16.851
    80    N    -0.217    4.149    14.425
    81    C    0.293    3.310    15.317
    82    N    0.951    2.170    14.976
    83    H    1.127    1.514    15.719
    84    C    0.999    1.648    13.702
    85    O    1.530    0.551    13.509
    86    C    0.430    2.529    12.740
    87    N    0.313    2.413    11.370
    88    C    -0.316    3.498    11.001
    89    H    -0.617    3.733    9.979
    90    C    -2.761    5.540    12.041
    91    H    -3.144    4.519    11.823
    92    O    -3.403    6.472    11.185
    93    H    -4.339    6.517    11.437
    94    C    -2.936    5.889    13.518
    95    H    -2.637    5.033    14.162
    96    O    -4.230    6.410    13.879
    97    P    -5.469    5.465    14.104
    98    O    -6.682    6.311    14.117
    99    O    -5.472    4.403    13.080
    100    O    -5.234    4.834    15.529
    101    C    -5.936    5.261    16.719
    102    H    -6.988    5.565    16.508
    103    H    -5.427    6.142    17.167
    104    C    -5.973    4.149    17.778
    105    H    -6.372    4.532    18.741
    106    O    -6.867    3.089    17.322
    107    C    -6.353    1.823    17.706
    108    H    -7.142    1.354    18.344
    109    N    -6.115    0.983    16.526
    110    C    -6.109    -0.699    15.114
    111    N    -5.660    0.401    14.402
    112    C    -5.655    1.369    15.288
    113    H    -5.346    2.399    15.092
    114    N    -6.696    -2.913    15.714
    115    C    -6.876    -2.440    16.951
    116    H    -7.193    -3.182    17.689
    117    N    -6.781    -1.185    17.404
    118    C    -6.367    -0.361    16.429
    119    C    -6.314    -2.041    14.746
    120    N    -6.192    -2.469    13.480
    121    H    -5.841    -1.841    12.780
    122    H    -5.932    -3.431    13.358
    123    C    -5.112    2.051    18.535
    124    H    -4.335    1.284    18.352
    125    O    -5.434    2.075    19.913
    126    H    -4.645    2.399    20.370
    127    C    -4.655    3.420    18.047
    128    H    -4.152    3.305    17.053
    129    O    -3.881    4.166    19.018
    130    P    -2.330    4.071    18.803
    131    O    -2.006    2.631    18.710
    132    O    -1.988    4.956    17.678
    133    O    -1.781    4.701    20.138
    134    C    -1.821    6.130    20.350
    135    H    -2.884    6.447    20.437
    136    H    -1.368    6.669    19.485
    137    C    -1.112    6.619    21.642
    138    H    -1.443    7.651    21.877
    139    O    -1.396    5.747    22.771
    140    C    -0.307    4.834    22.924
    141    H    0.121    5.043    23.929
    142    N    -0.779    3.430    22.871
    143    C    -0.538    2.422    21.962
    144    N    0.847    1.471    19.000
    145    H    0.818    0.728    18.329
    146    H    1.436    2.261    18.870
    147    N    0.250    2.485    20.885
    148    C    0.184    1.450    20.121
    149    N    -0.496    0.316    20.453
    150    H    -0.379    -0.483    19.853
    151    C    -1.233    0.143    21.617
    152    O    -1.789    -0.929    21.882
    153    C    -1.265    1.336    22.399
    154    N    -1.952    1.637    23.569
    155    C    -1.625    2.888    23.811
    156    H    -1.985    3.484    24.653
    157    C    0.752    5.187    21.887
    158    H    0.631    4.678    20.918
    159    O    2.055    4.985    22.387
    160    H    2.634    5.546    21.850
    161    C    0.424    6.624    21.531
    162    H    0.623    6.798    20.446
    163    O    1.049    7.647    22.358
    164    P    2.489    8.094    21.877
    165    O    3.167    6.999    21.154
    166    O    2.334    9.376    21.172
    167    O    3.262    8.368    23.203
    168    C    4.257    7.468    23.737
    169    H    5.256    7.765    23.340
    170    H    4.079    6.410    23.433
    171    C    4.287    7.503    25.277
    172    H    5.183    6.974    25.667
    173    O    4.345    8.885    25.758
    174    C    3.514    9.035    26.899
    175    H    4.187    9.421    27.702
    176    N    2.393    9.998    26.669
    177    C    2.003    10.344    25.396
    178    H    2.579    9.900    24.593
    179    C    1.773    10.559    27.766
    180    O    2.101    10.298    28.916
    181    N    0.766    11.447    27.473
    182    H    0.316    11.874    28.266
    183    C    0.341    11.850    26.226
    184    O    -0.547    12.697    26.112
    185    C    1.014    11.208    25.141
    186    H    0.738    11.476    24.125
    187    C    3.027    7.655    27.290
    188    H    1.996    7.679    27.705
    189    O    3.900    7.068    28.239
    190    H    3.501    6.192    28.412
    191    C    3.051    6.889    25.960
    192    H    2.177    7.168    25.330
    193    O    3.185    5.441    26.050
    194    P    2.093    4.637    26.857
    195    O    2.203    5.029    28.283
    196    O    0.756    4.796    26.244
    197    O    2.538    3.125    26.761
    198    C    1.973    2.238    27.774
    199    H    0.912    2.490    28.024
    200    H    2.569    2.305    28.715
    201    C    1.964    0.777    27.320
    202    H    1.528    0.116    28.100
    203    O    1.137    0.645    26.131
    204    C    1.765    -0.241    25.219
    205    H    1.016    -1.015    24.945
    206    N    2.219    0.455    24.010
    207    C    2.636    -0.132    22.844
    208    N    3.163    -2.971    20.921
    209    H    2.977    -3.714    21.560
    210    H    3.488    -3.186    19.995
    211    N    2.669    -1.454    22.593
    212    C    3.045    -1.726    21.344
    213    N    3.373    -0.758    20.437
    214    H    3.604    -1.044    19.497
    215    C    3.371    0.609    20.672
    216    O    3.694    1.381    19.765
    217    C    2.998    0.908    22.014
    218    N    2.849    2.126    22.667
    219    C    2.326    1.812    23.823
    220    H    2.011    2.535    24.577
    221    C    2.925    -0.886    25.950
    222    H    3.762    -1.153    25.276
    223    O    2.483    -2.044    26.628
    224    H    3.214    -2.341    27.186
    225    C    3.330    0.214    26.919
    226    H    3.862    1.035    26.374
    227    O    4.026    -0.254    28.097
    228    P    5.583    -0.110    28.192
    229    O    5.974    1.212    27.658
    230    O    6.014    -0.405    29.578
    231    O    6.106    -1.235    27.223
    232    C    5.906    -2.629    27.550
    233    H    4.830    -2.855    27.741
    234    H    6.474    -2.896    28.473
    235    C    6.386    -3.557    26.421
    236    H    6.297    -4.624    26.721
    237    O    5.564    -3.384    25.225
    238    C    6.399    -3.440    24.069
    239    H    5.972    -4.236    23.414
    240    N    6.411    -2.144    23.331
    241    C    6.033    -0.975    23.943
    242    H    5.734    -1.068    24.985
    243    C    6.810    -2.149    22.013
    244    O    7.181    -3.161    21.441
    245    N    6.766    -0.926    21.389
    246    H    7.056    -0.915    20.417
    247    C    6.395    0.279    21.936
    248    O    6.425    1.301    21.253
    249    C    5.995    0.201    23.305
    250    H    5.661    1.098    23.803
    251    C    7.788    -3.864    24.528
    252    H    8.589    -3.413    23.900
    253    O    7.896    -5.280    24.499
    254    H    8.706    -5.539    24.967
    255    C    7.822    -3.303    25.946
    256    H    7.990    -2.204    25.919
    257    O    8.760    -3.943    26.830
    258    H    9.672    -3.811    26.511
    259    H    8.504    0.829    10.752
    260    O    8.233    -0.056    10.423
    261    C    9.395    -0.883    10.459
    262    H    10.326    -0.278    10.533
    263    H    9.394    -1.405    9.477
    264    C    9.349    -1.942    11.566
    265    H    9.880    -2.860    11.230
    266    O    10.014    -1.486    12.778
    267    C    9.368    -2.082    13.904
    268    H    10.129    -2.686    14.450
    269    N    8.815    -1.058    14.793
    270    C    8.009    0.032    16.522
    271    N    8.078    0.941    15.483
    272    C    8.571    0.259    14.488
    273    H    8.804    0.667    13.501
    274    N    7.639    -0.957    18.637
    275    C    7.994    -2.113    18.066
    276    H    7.975    -2.987    18.729
    277    N    8.446    -2.346    16.828
    278    C    8.432    -1.216    16.102
    279    C    7.645    0.169    17.877
    280    N    7.326    1.353    18.432
    281    H    7.154    2.164    17.843
    282    H    6.986    1.386    19.374
    283    C    8.289    -3.001    13.374
    284    H    7.398    -3.043    14.035
    285    O    8.793    -4.306    13.174
    286    H    8.081    -4.807    12.752
    287    C    7.955    -2.327    12.055
    288    H    7.387    -1.383    12.250
    289    O    7.341    -3.180    11.074
    290    P    5.775    -3.156    10.988
    291    O    5.273    -1.765    11.042
    292    O    5.369    -4.002    9.850
    293    O    5.328    -3.878    12.308
    294    C    5.612    -5.287    12.475
    295    H    6.686    -5.517    12.274
    296    H    5.001    -5.896    11.768
    297    C    5.282    -5.747    13.895
    298    H    5.614    -6.793    14.052
    299    O    5.970    -4.920    14.879
    300    C    5.108    -4.705    15.987
    301    H    5.673    -5.102    16.863
    302    N    4.798    -3.269    16.237
    303    C    4.948    -2.347    15.227
    304    H    5.304    -2.743    14.277
    305    C    4.708    -1.044    15.424
    306    H    4.867    -0.302    14.643
    307    C    4.360    -2.853    17.494
    308    O    4.232    -3.688    18.403
    309    N    4.093    -1.543    17.706
    310    C    4.262    -0.641    16.720
    311    N    4.006    0.647    16.962
    312    H    3.864    0.910    17.920
    313    H    4.240    1.355    16.306
    314    C    3.867    -5.561    15.778
    315    H    2.943    -5.102    16.193
    316    O    4.078    -6.836    16.351
    317    H    3.351    -7.381    16.031
    318    C    3.791    -5.665    14.253
    319    H    3.407    -4.715    13.820
    320    O    3.104    -6.835    13.737
    321    P    1.571    -6.797    13.385
    322    O    1.257    -5.649    12.503
    323    O    1.202    -8.141    12.886
    324    O    0.899    -6.591    14.791
    325    C    0.900    -7.662    15.765
    326    H    1.927    -8.020    15.990
    327    H    0.337    -8.533    15.370
    328    C    0.226    -7.269    17.093
    329    H    0.181    -8.164    17.746
    330    O    1.006    -6.299    17.831
    331    C    0.133    -5.539    18.654
    332    H    0.421    -5.794    19.699
    333    N    0.296    -4.095    18.459
    334    C    0.439    -3.390    17.287
    335    N    0.844    -3.300    13.875
    336    H    1.142    -2.667    13.174
    337    H    0.599    -4.234    13.606
    338    N    0.452    -3.890    16.044
    339    C    0.720    -2.986    15.128
    340    N    0.871    -1.664    15.397
    341    H    0.990    -1.015    14.640
    342    C    0.771    -1.109    16.649
    343    O    0.898    0.103    16.762
    344    C    0.563    -2.075    17.663
    345    N    0.483    -1.942    19.037
    346    C    0.318    -3.167    19.470
    347    H    0.206    -3.447    20.521
    348    C    -1.299    -5.993    18.394
    349    H    -2.012    -5.142    18.321
    350    O    -1.717    -6.874    19.421
    351    H    -2.569    -7.249    19.148
    352    C    -1.183    -6.699    17.034
    353    H    -1.181    -5.957    16.206
    354    O    -2.111    -7.780    16.811
    355    P    -3.584    -7.509    16.362
    356    O    -4.265    -8.816    16.207
    357    O    -4.193    -6.518    17.272
    358    O    -3.391    -6.856    14.940
    359    C    -4.447    -6.951    13.957
    360    H    -5.447    -6.742    14.411
    361    H    -4.480    -7.979    13.533
    362    C    -4.270    -5.968    12.782
    363    H    -5.066    -6.166    12.033
    364    O    -4.425    -4.611    13.245
    365    C    -3.185    -3.925    13.171
    366    H    -3.270    -3.219    12.313
    367    N    -2.951    -3.195    14.423
    368    C    -2.626    -1.590    15.892
    369    N    -2.837    -2.748    16.627
    370    C    -3.036    -3.667    15.712
    371    H    -3.268    -4.710    15.925
    372    N    -2.273    0.663    15.281
    373    C    -2.377    0.253    14.016
    374    H    -2.260    1.029    13.253
    375    N    -2.550    -0.981    13.536
    376    C    -2.697    -1.857    14.536
    377    C    -2.397    -0.249    16.274
    378    N    -2.287    0.136    17.559
    379    H    -2.474    -0.491    18.311
    380    H    -2.109    1.111    17.790
    381    C    -2.107    -4.938    12.854
    382    H    -1.700    -5.393    13.787
    383    O    -1.064    -4.384    12.074
    384    H    -0.309    -5.007    12.068
    385    C    -2.902    -5.986    12.075
    386    H    -2.441    -6.975    12.290
    387    O    -3.032    -5.704    10.652
    388    P    -2.908    -6.897    9.629
    389    O    -2.041    -7.966    10.181
    390    O    -4.271    -7.302    9.224
    391    O    -2.214    -6.265    8.374
    392    C    -0.824    -5.895    8.350
    393    H    -0.182    -6.759    8.635
    394    H    -0.631    -5.072    9.081
    395    C    -0.435    -5.464    6.920
    396    H    -0.568    -6.307    6.213
    397    O    -1.253    -4.332    6.489
    398    C    -0.505    -3.132    6.605
    399    H    -0.310    -2.786    5.562
    400    N    -1.280    -2.086    7.336
    401    C    -1.029    -1.418    8.517
    402    N    1.096    -0.797    11.126
    403    H    1.202    -0.162    11.892
    404    H    1.901    -1.238    10.743
    405    N    0.038    -1.572    9.301
    406    C    0.048    -0.793    10.341
    407    N    -0.976    0.053    10.646
    408    H    -0.774    0.758    11.330
    409    C    -2.074    0.309    9.838
    410    O    -2.915    1.159    10.149
    411    C    -2.088    -0.549    8.700
    412    N    -3.013    -0.674    7.671
    413    C    -2.490    -1.595    6.890
    414    H    -2.951    -1.969    5.973
    415    C    0.829    -3.509    7.238
    416    H    0.797    -3.508    8.343
    417    O    1.881    -2.712    6.763
    418    H    1.900    -2.818    5.809
    419    C    1.011    -4.951    6.835
    420    H    1.594    -5.469    7.648
    421    O    1.603    -5.123    5.520
    422    P    3.073    -5.689    5.462
    423    O    3.832    -5.309    6.667
    424    O    3.002    -7.135    5.168
    425    O    3.735    -4.981    4.234
    426    C    3.957    -3.569    4.089
    427    H    5.045    -3.356    4.206
    428    H    3.438    -2.975    4.869
    429    C    3.487    -3.052    2.716
    430    H    3.541    -1.941    2.707
    431    O    4.347    -3.548    1.649
    432    C    3.627    -4.443    0.816
    433    H    3.368    -3.850    -0.095
    434    N    4.461    -5.634    0.509
    435    C    5.037    -6.344    1.537
    436    H    4.883    -5.935    2.534
    437    C    4.656    -6.003    -0.801
    438    O    4.152    -5.400    -1.740
    439    N    5.469    -7.098    -0.978
    440    H    5.625    -7.379    -1.936
    441    C    6.109    -7.834    -0.003
    442    O    6.865    -8.755    -0.316
    443    C    5.831    -7.406    1.333
    444    H    6.334    -7.911    2.157
    445    C    2.337    -4.797    1.538
    446    H    2.505    -5.634    2.250
    447    O    1.281    -5.134    0.657
    448    H    1.022    -4.325    0.189
    449    C    2.067    -3.510    2.322
    450    H    1.538    -3.758    3.271
    451    O    1.381    -2.488    1.574
    452    P    -0.146    -2.176    1.777
    453    O    -0.827    -2.465    0.497
    454    O    -0.688    -2.837    2.981
    455    O    -0.164    -0.617    2.026
    456    C    -1.324    0.121    1.558
    457    H    -2.273    -0.458    1.678
    458    H    -1.204    0.344    0.475
    459    C    -1.514    1.446    2.305
    460    H    -2.376    2.011    1.890
    461    O    -1.819    1.169    3.703
    462    C    -1.195    2.151    4.523
    463    H    -1.988    2.602    5.159
    464    N    -0.164    1.563    5.380
    465    C    0.468    2.162    6.443
    466    N    1.028    4.923    8.470
    467    H    0.471    5.633    8.043
    468    H    1.646    5.173    9.223
    469    N    0.246    3.409    6.906
    470    C    1.039    3.715    7.932
    471    N    1.917    2.827    8.488
    472    H    2.414    3.091    9.326
    473    C    2.134    1.528    8.062
    474    O    2.958    0.821    8.643
    475    C    1.371    1.227    6.902
    476    N    1.347    0.091    6.109
    477    C    0.398    0.317    5.242
    478    H    0.063    -0.383    4.473
    479    C    -0.606    3.202    3.605
    480    H    0.317    3.660    4.016
    481    O    -1.561    4.213    3.355
    482    H    -1.175    4.801    2.693
    483    C    -0.300    2.387    2.353
    484    H    0.588    1.736    2.530
    485    O    -0.213    3.162    1.131
    486    P    1.194    3.497    0.508
    487    O    2.103    2.345    0.666
    488    O    0.997    3.995    -0.872
    489    O    1.723    4.660    1.429
    490    C    1.018    5.920    1.483
    491    H    -0.063    5.783    1.715
    492    H    1.092    6.435    0.500
    493    C    1.630    6.856    2.534
    494    H    1.168    7.864    2.487
    495    O    1.387    6.331    3.873
    496    C    2.537    6.555    4.681
    497    H    2.180    7.136    5.563
    498    N    3.161    5.277    5.136
    499    C    2.923    4.087    4.486
    500    H    2.253    4.153    3.629
    501    C    4.018    5.331    6.214
    502    O    4.294    6.372    6.786
    503    N    4.551    4.125    6.588
    504    H    5.170    4.158    7.392
    505    C    4.377    2.904    5.981
    506    O    4.988    1.925    6.402
    507    C    3.468    2.922    4.870
    508    H    3.252    1.993    4.347
    509    C    3.498    7.422    3.877
    510    H    4.562    7.185    4.106
    511    O    3.240    8.799    4.118
    512    H    3.744    9.333    3.478
    513    C    3.155    7.012    2.454
    514    H    3.602    6.020    2.228
    515    O    3.528    7.980    1.455
    516    H    4.497    8.058    1.414
 $END
