!*** FMO 5.3 (Gamess) INPUT generated by Facio 22.1.1.32 ***
 $CONTRL RUNTYP=ENERGY NPRINT=-5 ISPHER=1 MAXIT=200 $END
 $SYSTEM MWORDS=63 MEMDDI=63 $END
 $GDDI NGROUP=1 $END
 $SCF DIRSCF=.TRUE. NPUNCH=0 $END
!*** NumCPU : 2  MemPerNode : 512MB
 $PCM SOLVNT=WATER IEF=-10 ICOMP=2 ICAV=1 IDISP=1 IFMO=-1 $END
 $PCMCAV RADII=SUAHF $END
 $TESCAV NTSALL=60 $END
 $FMOPRP
    NAODIR=200
    NGRFMO(1)=1, 1, 0, 0, 0,   0, 0, 0, 0, 0
    IPIEDA=1
    NPRINT=9
 $END
 $FMO
      SCFTYP(1)=RHF
      MODGRD=10
      MODMUL=0
      MAXCAO=5
      MAXBND=12
      NLAYER=1
      MPLEVL(1)=2
      NFRAG=10
      ICHARG(1)=-1, -1, -1, -1, -1, -1, -1, -1, -1, 0
      FRGNAM(1)=F1, F2, F3, F4, F5, F6, F7, F8, F9, F10
      indat(1)=0
               1   -33   0
               34   -67   0
               68   -97   0
               98   -127   0
               128   -160   0
               161   -193   0
               194   -227   0
               228   -257   0
               258   -288   0
               289   -319   0
 $END

 $FMOBND
   -34   33       6-31G*    MINI
   -68   67       6-31G*    MINI
   -98   97       6-31G*    MINI
   -128   127       6-31G*    MINI
   -161   160       6-31G*    MINI
   -194   193       6-31G*    MINI
   -228   227       6-31G*    MINI
   -258   257       6-31G*    MINI
   -289   288       6-31G*    MINI
 $END
 $FMOHYB
 6-31G*      15   5
   1 0  -0.065034   0.288264   0.000000   0.000000   0.604412
         0.290129   0.000000   0.000000   0.319045  -0.017106
        -0.017106   0.057934   0.000000   0.000000   0.000000
   0 1  -0.065040   0.288293   0.569832   0.000000  -0.201456
         0.290147   0.300783   0.000000  -0.106342   0.049598
        -0.017106  -0.008771   0.000000  -0.027223   0.000000
   0 1  -0.065039   0.288293  -0.284916  -0.493490  -0.201455
         0.290145  -0.150392  -0.260486  -0.106340  -0.000427
         0.032923  -0.008771   0.033353   0.013612   0.023576
   0 1  -0.065039   0.288293  -0.284916   0.493490  -0.201455
         0.290145  -0.150392   0.260486  -0.106340  -0.000427
         0.032923  -0.008771  -0.033353   0.013612  -0.023576
   0 1   1.010938  -0.011975   0.000000   0.000000   0.000000
        -0.054085   0.000000   0.000000  -0.000000  -0.003174
        -0.003174  -0.003174   0.000000   0.000000   0.000000
 MINI         5   5
   1 0  -0.104883   0.308874   0.000000   0.000000   0.521806
   0 1  -0.104883   0.308874   0.491961   0.000000  -0.173934
   0 1  -0.104883   0.308876  -0.245980  -0.426050  -0.173933
   0 1  -0.104883   0.308876  -0.245980   0.426050  -0.173933
   0 1   0.988209   0.063992   0.000000   0.000000   0.000000
 $END
 
 $DATA
 FMO calculation
 C1 
 H.1-1    1
      N31 6
   
 O.1-1    8
      N31 6
      d 1
      1 0.800 1.0
   
 C.1-1    6
      N31 6
      d 1
      1 0.800 1.0
   
 N.1-1    7
      N31 6
      d 1
      1 0.800 1.0
   
 P.1-1   15
      N31 6
      d 1
      1 0.550 1.0
   
 $END
 $FMOXYZ
    1    H    15.187    21.564    5.613
    2    O    14.879    21.317    6.506
    3    C    13.445    21.360    6.481
    4    H    13.070    20.630    5.728
    5    H    13.119    22.377    6.165
    6    C    12.811    21.036    7.838
    7    H    11.705    21.137    7.789
    8    O    13.097    19.650    8.210
    9    C    13.357    19.586    9.607
    10    H    12.647    18.825    10.010
    11    N    14.757    19.166    9.923
    12    C    15.744    19.253    8.966
    13    H    15.438    19.629    7.989
    14    C    17.000    18.863    9.218
    15    H    17.781    18.896    8.460
    16    C    15.081    18.701    11.196
    17    O    14.199    18.659    12.066
    18    N    16.339    18.287    11.466
    19    C    17.290    18.355    10.516
    20    N    18.517    17.916    10.798
    21    H    18.729    17.591    11.722
    22    H    19.247    17.921    10.112
    23    C    13.005    20.940    10.188
    24    H    13.617    21.184    11.077
    25    O    11.631    20.983    10.528
    26    H    11.470    21.877    10.851
    27    C    13.322    21.872    9.020
    28    H    14.426    21.972    8.896
    29    O    12.642    23.149    9.043
    30    P    13.334    24.375    9.750
    31    O    14.712    24.505    9.231
    32    O    12.463    25.562    9.605
    33    O    13.376    23.953    11.265
    34    C    12.142    23.957    12.028
    35    H    11.337    23.385    11.514
    36    H    11.757    24.995    12.161
    37    C    12.351    23.354    13.421
    38    H    11.385    23.269    13.965
    39    O    12.913    22.018    13.317
    40    C    13.841    21.817    14.369
    41    H    13.502    20.914    14.927
    42    N    15.198    21.576    13.860
    43    C    16.241    21.041    14.564
    44    N    17.564    19.836    17.531
    45    H    16.800    19.937    18.168
    46    H    18.456    19.539    17.881
    47    N    16.213    20.669    15.855
    48    C    17.390    20.215    16.277
    49    N    18.477    20.082    15.454
    50    H    19.328    19.713    15.852
    51    C    18.526    20.419    14.107
    52    O    19.555    20.260    13.445
    53    C    17.291    20.967    13.670
    54    N    16.925    21.485    12.435
    55    C    15.674    21.835    12.597
    56    H    15.048    22.302    11.835
    57    C    13.770    23.027    15.274
    58    H    14.750    23.262    15.740
    59    O    12.792    22.812    16.274
    60    H    12.597    23.671    16.671
    61    C    13.337    24.125    14.310
    62    H    14.184    24.427    13.653
    63    O    12.678    25.257    14.934
    64    P    13.557    26.481    15.414
    65    O    14.230    27.060    14.233
    66    O    12.681    27.392    16.185
    67    O    14.658    25.880    16.373
    68    C    14.346    25.462    17.723
    69    H    13.576    24.664    17.728
    70    H    13.941    26.318    18.311
    71    C    15.589    24.924    18.461
    72    H    15.328    24.622    19.498
    73    O    16.121    23.744    17.788
    74    C    17.542    23.762    17.831
    75    H    17.843    22.823    18.355
    76    N    18.134    23.800    16.453
    77    C    17.417    24.313    15.392
    78    H    16.427    24.689    15.642
    79    C    19.391    23.270    16.252
    80    O    20.061    22.775    17.152
    81    N    19.841    23.312    14.957
    82    H    20.742    22.889    14.779
    83    C    19.164    23.763    13.848
    84    O    19.695    23.697    12.741
    85    C    17.871    24.311    14.128
    86    H    17.290    24.710    13.297
    87    C    17.949    24.955    18.689
    88    H    18.888    25.422    18.329
    89    O    18.095    24.568    20.044
    90    H    18.252    25.375    20.558
    91    C    16.766    25.901    18.519
    92    H    16.809    26.395    17.523
    93    O    16.568    26.838    19.605
    94    P    17.367    28.200    19.563
    95    O    17.293    28.748    18.194
    96    O    16.876    29.070    20.656
    97    O    18.850    27.822    19.906
    98    C    19.931    28.739    19.590
    99    H    20.079    29.462    20.425
    100    H    19.716    29.341    18.673
    101    C    21.255    27.998    19.325
    102    H    21.762    27.729    20.275
    103    O    20.974    26.740    18.620
    104    C    21.900    26.556    17.571
    105    H    22.306    25.526    17.708
    106    N    21.265    26.668    16.230
    107    C    19.966    27.101    16.075
    108    H    19.441    27.379    16.993
    109    C    22.006    26.271    15.144
    110    O    23.145    25.838    15.252
    111    N    21.378    26.376    13.935
    112    H    21.901    26.073    13.127
    113    C    20.091    26.794    13.699
    114    O    19.649    26.803    12.553
    115    C    19.365    27.165    14.878
    116    H    18.331    27.483    14.772
    117    C    22.998    27.568    17.783
    118    H    23.523    27.871    16.852
    119    O    23.908    27.010    18.698
    120    H    24.612    27.637    18.890
    121    C    22.242    28.725    18.402
    122    H    21.635    29.234    17.619
    123    O    23.098    29.616    19.144
    124    P    23.074    31.170    18.941
    125    O    21.891    31.703    19.648
    126    O    24.388    31.697    19.363
    127    O    22.860    31.384    17.382
    128    C    23.773    30.831    16.398
    129    H    23.195    30.233    15.657
    130    H    24.527    30.140    16.849
    131    C    24.539    31.925    15.640
    132    H    23.842    32.647    15.162
    133    O    25.370    32.660    16.583
    134    C    26.655    32.883    16.037
    135    H    26.856    33.976    16.131
    136    N    27.686    32.141    16.778
    137    C    29.608    31.355    17.507
    138    N    28.631    30.812    18.334
    139    C    27.510    31.313    17.867
    140    H    26.511    31.112    18.265
    141    N    31.696    31.904    16.528
    142    C    31.002    32.649    15.664
    143    H    31.601    33.167    14.906
    144    N    29.688    32.886    15.605
    145    C    29.040    32.184    16.553
    146    C    31.015    31.226    17.485
    147    N    31.712    30.482    18.360
    148    H    31.271    30.012    19.128
    149    H    32.715    30.476    18.313
    150    C    26.594    32.501    14.579
    151    H    27.560    32.107    14.192
    152    O    26.188    33.610    13.798
    153    H    26.147    33.270    12.882
    154    C    25.536    31.402    14.587
    155    H    25.966    30.475    15.010
    156    O    24.867    31.142    13.337
    157    P    25.655    30.882    11.993
    158    O    24.707    30.333    11.002
    159    O    26.368    32.123    11.611
    160    O    26.699    29.764    12.363
    161    C    27.785    29.469    11.447
    162    H    28.385    30.389    11.247
    163    H    27.398    29.091    10.473
    164    C    28.755    28.417    12.018
    165    H    29.664    28.340    11.386
    166    O    29.194    28.843    13.343
    167    C    29.285    27.714    14.188
    168    H    30.325    27.712    14.590
    169    N    28.336    27.801    15.294
    170    C    27.431    27.778    17.290
    171    N    26.453    28.261    16.432
    172    C    27.039    28.245    15.261
    173    H    26.576    28.564    14.328
    174    N    28.576    27.050    19.223
    175    C    29.593    26.743    18.412
    176    H    30.470    26.312    18.910
    177    N    29.715    26.935    17.095
    178    C    28.588    27.466    16.595
    179    C    27.458    27.590    18.685
    180    N    26.465    27.977    19.507
    181    H    25.913    28.779    19.290
    182    H    26.534    27.708    20.472
    183    C    29.075    26.481    13.355
    184    H    28.561    25.668    13.912
    185    O    30.319    26.007    12.878
    186    H    30.100    25.149    12.480
    187    C    28.195    26.993    12.212
    188    H    27.143    27.115    12.548
    189    O    28.268    26.241    10.974
    190    P    27.804    24.728    10.923
    191    O    26.454    24.603    11.527
    192    O    27.948    24.269    9.524
    193    O    28.870    23.933    11.783
    194    C    28.479    22.761    12.541
    195    H    28.245    21.921    11.856
    196    H    27.547    22.943    13.113
    197    C    29.583    22.299    13.521
    198    H    30.501    22.034    12.956
    199    O    29.942    23.371    14.453
    200    C    30.118    22.837    15.766
    201    H    31.111    23.206    16.115
    202    N    29.081    23.267    16.737
    203    C    27.811    23.741    16.502
    204    N    25.378    24.606    14.219
    205    H    24.469    25.018    14.219
    206    H    25.864    24.484    13.347
    207    N    27.246    23.921    15.306
    208    C    26.031    24.391    15.352
    209    N    25.363    24.609    16.531
    210    H    24.458    25.042    16.492
    211    C    25.902    24.402    17.804
    212    O    25.262    24.580    18.842
    213    C    27.246    23.946    17.737
    214    N    28.143    23.621    18.748
    215    C    29.213    23.215    18.108
    216    H    30.129    22.866    18.590
    217    C    30.146    21.336    15.632
    218    H    29.755    20.832    16.537
    219    O    31.462    20.884    15.389
    220    H    31.400    19.981    15.037
    221    C    29.230    21.111    14.432
    222    H    28.171    21.274    14.737
    223    O    29.454    19.849    13.760
    224    P    28.358    18.722    13.708
    225    O    27.294    19.167    12.783
    226    O    29.017    17.434    13.392
    227    O    27.759    18.634    15.160
    228    C    28.569    18.308    16.315
    229    H    29.617    18.681    16.218
    230    H    28.637    17.202    16.424
    231    C    27.967    18.880    17.615
    232    H    28.702    18.846    18.445
    233    O    27.574    20.276    17.432
    234    C    26.337    20.526    18.081
    235    H    26.526    21.377    18.777
    236    N    25.254    20.913    17.117
    237    C    25.478    20.902    15.756
    238    H    26.464    20.561    15.445
    239    C    24.038    21.323    17.621
    240    O    23.792    21.347    18.821
    241    N    23.115    21.711    16.681
    242    H    22.222    21.997    17.044
    243    C    23.284    21.755    15.313
    244    O    22.373    22.161    14.596
    245    C    24.563    21.297    14.859
    246    H    24.773    21.288    13.792
    247    C    26.011    19.285    18.897
    248    H    24.921    19.102    18.975
    249    O    26.565    19.393    20.197
    250    H    26.459    18.527    20.613
    251    C    26.688    18.186    18.092
    252    H    26.094    17.985    17.170
    253    O    27.006    17.003    18.868
    254    P    26.451    15.594    18.446
    255    O    26.262    15.565    16.980
    256    O    27.298    14.534    19.041
    257    O    25.034    15.531    19.125
    258    C    24.870    15.646    20.557
    259    H    25.657    16.281    21.025
    260    H    24.934    14.634    21.020
    261    C    23.510    16.254    20.924
    262    H    23.394    16.307    22.029
    263    O    23.417    17.613    20.417
    264    C    22.094    17.849    19.954
    265    H    21.735    18.750    20.507
    266    N    22.038    18.118    18.487
    267    C    23.059    17.698    17.667
    268    H    23.891    17.205    18.162
    269    C    23.047    17.933    16.350
    270    H    23.866    17.636    15.698
    271    C    20.938    18.763    17.931
    272    O    20.007    19.111    18.674
    273    N    20.910    19.020    16.602
    274    C    21.923    18.618    15.813
    275    N    21.879    18.900    14.512
    276    H    21.064    19.351    14.139
    277    H    22.587    18.598    13.872
    278    C    21.253    16.653    20.360
    279    H    20.427    16.454    19.650
    280    O    20.727    16.847    21.659
    281    H    20.273    16.031    21.905
    282    C    22.287    15.535    20.341
    283    H    22.548    15.277    19.289
    284    O    21.965    14.382    21.152
    285    P    21.331    13.110    20.484
    286    O    22.001    12.849    19.191
    287    O    21.319    12.013    21.477
    288    O    19.857    13.567    20.167
    289    C    18.916    13.781    21.240
    290    H    19.311    14.507    21.983
    291    H    18.707    12.826    21.776
    292    C    17.581    14.307    20.703
    293    H    16.835    14.414    21.517
    294    O    17.762    15.625    20.112
    295    C    16.925    15.735    18.966
    296    H    16.281    16.631    19.120
    297    N    17.718    15.915    17.742
    298    C    17.261    16.410    16.552
    299    N    14.686    17.687    14.617
    300    H    13.902    17.648    15.236
    301    H    14.554    18.032    13.684
    302    N    16.002    16.805    16.294
    303    C    15.858    17.262    15.051
    304    N    16.890    17.315    14.150
    305    H    16.691    17.656    13.221
    306    C    18.196    16.900    14.384
    307    O    19.061    16.980    13.507
    308    C    18.355    16.408    15.707
    309    N    19.476    15.892    16.348
    310    C    19.045    15.606    17.553
    311    H    19.642    15.166    18.353
    312    C    16.058    14.489    18.900
    313    H    15.839    14.189    17.852
    314    O    14.847    14.705    19.607
    315    H    14.374    13.858    19.685
    316    C    16.955    13.466    19.585
    317    H    17.763    13.136    18.894
    318    O    16.257    12.336    20.137
    319    H    15.853    11.805    19.426
 $END
