!*** FMO 5.3 (Gamess) INPUT generated by Facio 22.1.1.32 ***
 $CONTRL RUNTYP=ENERGY NPRINT=-5 ISPHER=1 MAXIT=200 $END
 $SYSTEM MWORDS=63 MEMDDI=63 $END
 $GDDI NGROUP=1 $END
 $SCF DIRSCF=.TRUE. NPUNCH=0 $END
!*** NumCPU : 2  MemPerNode : 512MB
 $PCM SOLVNT=WATER IEF=-10 ICOMP=2 ICAV=1 IDISP=1 IFMO=-1 $END
 $PCMCAV RADII=SUAHF $END
 $TESCAV NTSALL=60 $END
 $FMOPRP
    NAODIR=200
    NGRFMO(1)=1, 1, 0, 0, 0,   0, 0, 0, 0, 0
    IPIEDA=1
    NPRINT=9
 $END
 $FMO
      SCFTYP(1)=RHF
      MODGRD=10
      MODMUL=0
      MAXCAO=5
      MAXBND=12
      NLAYER=1
      MPLEVL(1)=2
      NFRAG=10
      ICHARG(1)=-1, -1, -1, -1, -1, -1, -1, -1, -1, 0
      FRGNAM(1)=F1, F2, F3, F4, F5, F6, F7, F8, F9, F10
      indat(1)=0
               1   -33   0
               34   -67   0
               68   -97   0
               98   -127   0
               128   -160   0
               161   -193   0
               194   -227   0
               228   -257   0
               258   -288   0
               289   -319   0
 $END

 $FMOBND
   -34   33       6-31G*    MINI
   -68   67       6-31G*    MINI
   -98   97       6-31G*    MINI
   -128   127       6-31G*    MINI
   -161   160       6-31G*    MINI
   -194   193       6-31G*    MINI
   -228   227       6-31G*    MINI
   -258   257       6-31G*    MINI
   -289   288       6-31G*    MINI
 $END
 $FMOHYB
 6-31G*      15   5
   1 0  -0.065034   0.288264   0.000000   0.000000   0.604412
         0.290129   0.000000   0.000000   0.319045  -0.017106
        -0.017106   0.057934   0.000000   0.000000   0.000000
   0 1  -0.065040   0.288293   0.569832   0.000000  -0.201456
         0.290147   0.300783   0.000000  -0.106342   0.049598
        -0.017106  -0.008771   0.000000  -0.027223   0.000000
   0 1  -0.065039   0.288293  -0.284916  -0.493490  -0.201455
         0.290145  -0.150392  -0.260486  -0.106340  -0.000427
         0.032923  -0.008771   0.033353   0.013612   0.023576
   0 1  -0.065039   0.288293  -0.284916   0.493490  -0.201455
         0.290145  -0.150392   0.260486  -0.106340  -0.000427
         0.032923  -0.008771  -0.033353   0.013612  -0.023576
   0 1   1.010938  -0.011975   0.000000   0.000000   0.000000
        -0.054085   0.000000   0.000000  -0.000000  -0.003174
        -0.003174  -0.003174   0.000000   0.000000   0.000000
 MINI         5   5
   1 0  -0.104883   0.308874   0.000000   0.000000   0.521806
   0 1  -0.104883   0.308874   0.491961   0.000000  -0.173934
   0 1  -0.104883   0.308876  -0.245980  -0.426050  -0.173933
   0 1  -0.104883   0.308876  -0.245980   0.426050  -0.173933
   0 1   0.988209   0.063992   0.000000   0.000000   0.000000
 $END
 
 $DATA
 FMO calculation
 C1 
 H.1-1    1
      N31 6
   
 O.1-1    8
      N31 6
      d 1
      1 0.800 1.0
   
 C.1-1    6
      N31 6
      d 1
      1 0.800 1.0
   
 N.1-1    7
      N31 6
      d 1
      1 0.800 1.0
   
 P.1-1   15
      N31 6
      d 1
      1 0.550 1.0
   
 $END
 $FMOXYZ
    1    H    13.814    21.165    6.467
    2    O    13.728    20.934    7.411
    3    C    12.323    20.899    7.703
    4    H    11.819    20.171    7.028
    5    H    11.892    21.907    7.512
    6    C    12.010    20.510    9.154
    7    H    10.915    20.508    9.328
    8    O    12.489    19.162    9.434
    9    C    13.021    19.125    10.753
    10    H    12.474    18.307    11.278
    11    N    14.479    18.820    10.777
    12    C    15.242    18.978    9.641
    13    H    14.718    19.332    8.752
    14    C    16.544    18.672    9.623
    15    H    17.152    18.767    8.725
    16    C    15.083    18.384    11.953
    17    O    14.394    18.267    12.978
    18    N    16.396    18.062    11.953
    19    C    17.125    18.194    10.831
    20    N    18.408    17.836    10.853
    21    H    18.830    17.567    11.721
    22    H    18.982    17.879    10.033
    23    C    12.686    20.442    11.421
    24    H    13.445    20.745    12.168
    25    O    11.419    20.365    12.045
    26    H    11.244    21.255    12.370
    27    C    12.665    21.393    10.229
    28    H    13.705    21.593    9.879
    29    O    11.879    22.597    10.421
    30    P    12.616    23.905    10.900
    31    O    13.878    24.061    10.149
    32    O    11.657    25.032    10.844
    33    O    12.964    23.586    12.401
    34    C    11.894    23.506    13.373
    35    H    11.102    22.792    13.052
    36    H    11.408    24.500    13.495
    37    C    12.415    23.061    14.745
    38    H    11.585    22.976    15.479
    39    O    13.032    21.746    14.625
    40    C    14.176    21.684    15.466
    41    H    14.020    20.814    16.145
    42    N    15.409    21.473    14.696
    43    C    16.599    21.006    15.185
    44    N    18.551    19.909    17.835
    45    H    17.931    19.985    18.615
    46    H    19.492    19.596    17.991
    47    N    16.856    20.683    16.465
    48    C    18.104    20.250    16.638
    49    N    19.002    20.130    15.611
    50    H    19.926    19.786    15.824
    51    C    18.761    20.448    14.280
    52    O    19.638    20.305    13.424
    53    C    17.444    20.939    14.094
    54    N    16.809    21.389    12.944
    55    C    15.603    21.701    13.352
    56    H    14.804    22.098    12.727
    57    C    14.214    22.957    16.280
    58    H    15.247    23.286    16.520
    59    O    13.479    22.777    17.475
    60    H    13.341    23.654    17.858
    61    C    13.519    23.940    15.349
    62    H    14.191    24.215    14.503
    63    O    12.940    25.082    16.022
    64    P    13.767    26.421    16.056
    65    O    14.191    26.739    14.676
    66    O    12.979    27.454    16.760
    67    O    15.034    26.075    16.914
    68    C    14.958    25.848    18.338
    69    H    14.239    25.034    18.589
    70    H    14.605    26.772    18.858
    71    C    16.336    25.470    18.905
    72    H    16.283    25.344    20.008
    73    O    16.793    24.201    18.356
    74    C    18.201    24.248    18.168
    75    H    18.612    23.405    18.770
    76    N    18.568    24.092    16.730
    77    C    17.699    24.474    15.734
    78    H    16.742    24.858    16.078
    79    C    19.783    23.529    16.421
    80    O    20.563    23.138    17.280
    81    N    20.056    23.431    15.078
    82    H    20.943    23.016    14.823
    83    C    19.237    23.792    14.029
    84    O    19.609    23.628    12.869
    85    C    17.972    24.330    14.429
    86    H    17.252    24.594    13.660
    87    C    18.695    25.569    18.751
    88    H    19.557    25.987    18.185
    89    O    19.051    25.413    20.115
    90    H    19.258    26.300    20.453
    91    C    17.463    26.455    18.587
    92    H    17.346    26.763    17.524
    93    O    17.372    27.570    19.482
    94    P    18.272    28.840    19.334
    95    O    17.623    29.885    20.160
    96    O    19.657    28.458    19.683
    97    O    18.144    29.216    17.802
    98    C    19.286    29.400    16.930
    99    H    19.042    28.965    15.935
    100    H    20.194    28.864    17.297
    101    C    19.640    30.886    16.709
    102    H    18.783    31.429    16.251
    103    O    19.900    31.527    17.998
    104    C    21.002    32.415    17.888
    105    H    20.637    33.395    18.282
    106    N    22.174    31.966    18.701
    107    C    22.099    30.844    19.505
    108    H    21.169    30.271    19.449
    109    C    23.290    32.778    18.740
    110    O    23.365    33.838    18.129
    111    N    24.313    32.325    19.532
    112    H    25.130    32.921    19.568
    113    C    24.295    31.240    20.379
    114    O    25.265    31.005    21.097
    115    C    23.091    30.470    20.327
    116    H    22.998    29.604    20.979
    117    C    21.315    32.542    16.408
    118    H    22.390    32.726    16.196
    119    O    20.529    33.576    15.839
    120    H    20.579    33.477    14.876
    121    C    20.909    31.176    15.884
    122    H    21.650    30.408    16.186
    123    O    20.644    31.193    14.472
    124    P    21.307    30.252    13.411
    125    O    20.871    28.874    13.689
    126    O    20.980    30.778    12.069
    127    O    22.865    30.355    13.620
    128    C    23.609    31.508    13.159
    129    H    23.093    32.470    13.416
    130    H    23.723    31.470    12.053
    131    C    25.017    31.543    13.775
    132    H    25.596    32.418    13.401
    133    O    24.891    31.699    15.219
    134    C    25.876    30.912    15.869
    135    H    26.443    31.603    16.538
    136    N    25.258    29.861    16.676
    137    C    24.834    28.376    18.236
    138    N    23.703    28.431    17.440
    139    C    24.007    29.324    16.534
    140    H    23.358    29.631    15.718
    141    N    26.353    27.842    19.965
    142    C    27.205    28.672    19.361
    143    H    28.177    28.771    19.853
    144    N    27.031    29.433    18.274
    145    C    25.808    29.237    17.760
    146    C    25.123    27.671    19.421
    147    N    24.230    26.880    20.040
    148    H    23.406    26.583    19.563
    149    H    24.540    26.315    20.807
    150    C    26.799    30.356    14.811
    151    H    27.202    29.353    15.073
    152    O    27.866    31.261    14.590
    153    H    28.306    30.998    13.768
    154    C    25.872    30.270    13.605
    155    H    25.179    29.402    13.714
    156    O    26.560    30.287    12.336
    157    P    26.851    28.935    11.583
    158    O    25.552    28.292    11.286
    159    O    27.737    29.220    10.434
    160    O    27.623    28.051    12.633
    161    C    29.003    28.276    12.985
    162    H    29.136    29.269    13.465
    163    H    29.641    28.260    12.080
    164    C    29.523    27.198    13.951
    165    H    30.601    27.351    14.175
    166    O    28.804    27.295    15.217
    167    C    28.556    25.994    15.722
    168    H    28.975    25.964    16.755
    169    N    27.117    25.743    15.762
    170    C    25.093    25.218    16.416
    171    N    24.964    25.726    15.136
    172    C    26.188    26.031    14.792
    173    H    26.469    26.470    13.835
    174    N    24.601    24.268    18.521
    175    C    25.917    24.303    18.754
    176    H    26.228    23.922    19.732
    177    N    26.904    24.767    17.978
    178    C    26.415    25.210    16.809
    179    C    24.146    24.741    17.338
    180    N    22.833    24.739    17.079
    181    H    22.475    25.142    16.235
    182    H    22.197    24.270    17.693
    183    C    29.295    25.005    14.843
    184    H    28.781    24.022    14.764
    185    O    30.605    24.822    15.337
    186    H    31.102    24.352    14.655
    187    C    29.312    25.737    13.509
    188    H    28.297    25.704    13.051
    189    O    30.366    25.316    12.606
    190    P    29.985    24.408    11.373
    191    O    28.634    24.761    10.898
    192    O    31.084    24.453    10.384
    193    O    29.945    22.964    11.982
    194    C    31.171    22.366    12.423
    195    H    30.951    21.962    13.430
    196    H    32.001    23.101    12.564
    197    C    31.639    21.266    11.449
    198    H    31.556    21.542    10.375
    199    O    33.043    20.946    11.766
    200    C    33.111    19.655    12.398
    201    H    34.089    19.192    12.138
    202    N    32.978    19.783    13.885
    203    C    32.970    18.785    14.829
    204    N    33.417    15.472    15.722
    205    H    33.470    14.936    16.565
    206    H    33.602    15.031    14.847
    207    N    33.139    17.472    14.597
    208    C    33.178    16.768    15.734
    209    N    32.979    17.317    16.974
    210    H    33.023    16.716    17.780
    211    C    32.760    18.660    17.237
    212    O    32.594    19.083    18.387
    213    C    32.781    19.426    16.046
    214    N    32.705    20.795    15.880
    215    C    32.860    20.965    14.597
    216    H    32.902    21.940    14.111
    217    C    31.973    18.858    11.768
    218    H    31.659    17.992    12.391
    219    O    32.302    18.428    10.457
    220    H    31.560    17.912    10.093
    221    C    30.929    19.964    11.790
    222    H    30.804    20.158    12.831
    223    O    29.623    19.794    11.227
    224    P    28.552    18.942    12.043
    225    O    27.249    19.187    11.387
    226    O    29.019    17.538    12.011
    227    O    28.439    19.495    13.531
    228    C    29.436    19.356    14.570
    229    H    30.210    20.145    14.488
    230    H    29.916    18.350    14.550
    231    C    28.968    19.711    15.975
    232    H    29.839    19.734    16.669
    233    O    28.391    21.047    15.992
    234    C    27.291    21.064    16.877
    235    H    27.497    21.888    17.600
    236    N    26.004    21.332    16.168
    237    C    25.966    21.502    14.797
    238    H    26.910    21.337    14.271
    239    C    24.856    21.449    16.922
    240    O    24.837    21.301    18.137
    241    N    23.724    21.744    16.211
    242    H    22.901    21.885    16.766
    243    C    23.621    21.991    14.861
    244    O    22.536    22.307    14.378
    245    C    24.844    21.823    14.136
    246    H    24.836    21.961    13.057
    247    C    27.307    19.730    17.607
    248    H    26.295    19.384    17.880
    249    O    28.107    19.819    18.770
    250    H    28.273    18.912    19.057
    251    C    27.921    18.805    16.572
    252    H    27.199    18.597    15.748
    253    O    28.556    17.630    17.126
    254    P    27.928    16.219    16.857
    255    O    27.463    16.107    15.457
    256    O    28.834    15.152    17.344
    257    O    26.636    16.184    17.761
    258    C    26.724    16.235    19.203
    259    H    27.506    16.953    19.545
    260    H    26.991    15.227    19.595
    261    C    25.394    16.658    19.851
    262    H    25.487    16.682    20.958
    263    O    25.047    18.003    19.420
    264    C    23.639    18.097    19.234
    265    H    23.305    18.950    19.871
    266    N    23.248    18.367    17.819
    267    C    24.150    18.147    16.807
    268    H    25.126    17.773    17.110
    269    C    23.846    18.384    15.528
    270    H    24.560    18.228    14.722
    271    C    21.978    18.852    17.511
    272    O    21.173    19.071    18.431
    273    N    21.653    19.110    16.221
    274    C    22.542    18.874    15.239
    275    N    22.213    19.147    13.977
    276    H    21.302    19.514    13.771
    277    H    22.848    19.004    13.221
    278    C    23.038    16.813    19.764
    279    H    22.106    16.529    19.236
    280    O    22.783    16.940    21.152
    281    H    22.474    16.077    21.458
    282    C    24.161    15.821    19.488
    283    H    24.239    15.621    18.394
    284    O    24.122    14.619    20.292
    285    P    23.488    13.315    19.677
    286    O    23.963    13.159    18.288
    287    O    23.719    12.175    20.595
    288    O    21.950    13.647    19.655
    289    C    21.240    13.764    20.912
    290    H    21.713    14.512    21.587
    291    H    21.228    12.785    21.451
    292    C    19.788    14.192    20.680
    293    H    19.233    14.243    21.645
    294    O    19.749    15.515    20.077
    295    C    18.689    15.570    19.134
    296    H    18.030    16.415    19.435
    297    N    19.196    15.815    17.777
    298    C    18.470    16.288    16.719
    299    N    15.463    17.326    15.359
    300    H    14.841    17.268    16.140
    301    H    15.113    17.664    14.480
    302    N    17.161    16.599    16.734
    303    C    16.729    17.012    15.545
    304    N    17.550    17.158    14.458
    305    H    17.140    17.477    13.593
    306    C    18.905    16.857    14.416
    307    O    19.568    17.019    13.387
    308    C    19.361    16.361    15.665
    309    N    20.619    15.913    16.046
    310    C    20.473    15.597    17.309
    311    H    21.257    15.196    17.955
    312    C    17.923    14.265    19.223
    313    H    17.520    13.939    18.238
    314    O    16.862    14.388    20.155
    315    H    16.484    13.506    20.311
    316    C    19.006    13.307    19.705
    317    H    19.679    13.029    18.865
    318    O    18.507    12.138    20.374
    319    H    18.028    11.572    19.743
 $END
