!*** FMO 5.3 (Gamess) INPUT generated by Facio 22.1.1.32 ***
 $CONTRL RUNTYP=ENERGY NPRINT=-5 ISPHER=1 MAXIT=200 $END
 $SYSTEM MWORDS=63 MEMDDI=63 $END
 $GDDI NGROUP=1 $END
 $SCF DIRSCF=.TRUE. NPUNCH=0 $END
!*** NumCPU : 2  MemPerNode : 512MB
 $PCM SOLVNT=WATER IEF=-10 ICOMP=2 ICAV=1 IDISP=1 IFMO=-1 $END
 $PCMCAV RADII=SUAHF $END
 $TESCAV NTSALL=60 $END
 $FMOPRP
    NAODIR=200
    NGRFMO(1)=1, 1, 0, 0, 0,   0, 0, 0, 0, 0
    IPIEDA=1
    NPRINT=9
 $END
 $FMO
      SCFTYP(1)=RHF
      MODGRD=10
      MODMUL=0
      MAXCAO=5
      MAXBND=12
      NLAYER=1
      MPLEVL(1)=2
      NFRAG=10
      ICHARG(1)=-1, -1, -1, -1, -1, -1, -1, -1, -1, 0
      FRGNAM(1)=F1, F2, F3, F4, F5, F6, F7, F8, F9, F10
      indat(1)=0
               1   -33   0
               34   -67   0
               68   -97   0
               98   -127   0
               128   -160   0
               161   -193   0
               194   -227   0
               228   -257   0
               258   -288   0
               289   -319   0
 $END

 $FMOBND
   -34   33       6-31G*    MINI
   -68   67       6-31G*    MINI
   -98   97       6-31G*    MINI
   -128   127       6-31G*    MINI
   -161   160       6-31G*    MINI
   -194   193       6-31G*    MINI
   -228   227       6-31G*    MINI
   -258   257       6-31G*    MINI
   -289   288       6-31G*    MINI
 $END
 $FMOHYB
 6-31G*      15   5
   1 0  -0.065034   0.288264   0.000000   0.000000   0.604412
         0.290129   0.000000   0.000000   0.319045  -0.017106
        -0.017106   0.057934   0.000000   0.000000   0.000000
   0 1  -0.065040   0.288293   0.569832   0.000000  -0.201456
         0.290147   0.300783   0.000000  -0.106342   0.049598
        -0.017106  -0.008771   0.000000  -0.027223   0.000000
   0 1  -0.065039   0.288293  -0.284916  -0.493490  -0.201455
         0.290145  -0.150392  -0.260486  -0.106340  -0.000427
         0.032923  -0.008771   0.033353   0.013612   0.023576
   0 1  -0.065039   0.288293  -0.284916   0.493490  -0.201455
         0.290145  -0.150392   0.260486  -0.106340  -0.000427
         0.032923  -0.008771  -0.033353   0.013612  -0.023576
   0 1   1.010938  -0.011975   0.000000   0.000000   0.000000
        -0.054085   0.000000   0.000000  -0.000000  -0.003174
        -0.003174  -0.003174   0.000000   0.000000   0.000000
 MINI         5   5
   1 0  -0.104883   0.308874   0.000000   0.000000   0.521806
   0 1  -0.104883   0.308874   0.491961   0.000000  -0.173934
   0 1  -0.104883   0.308876  -0.245980  -0.426050  -0.173933
   0 1  -0.104883   0.308876  -0.245980   0.426050  -0.173933
   0 1   0.988209   0.063992   0.000000   0.000000   0.000000
 $END
 
 $DATA
 FMO calculation
 C1 
 H.1-1    1
      N31 6
   
 O.1-1    8
      N31 6
      d 1
      1 0.800 1.0
   
 C.1-1    6
      N31 6
      d 1
      1 0.800 1.0
   
 N.1-1    7
      N31 6
      d 1
      1 0.800 1.0
   
 P.1-1   15
      N31 6
      d 1
      1 0.550 1.0
   
 $END
 $FMOXYZ
    1    H    13.573    19.794    6.389
    2    O    13.457    19.652    7.348
    3    C    12.045    19.586    7.602
    4    H    11.617    18.718    7.054
    5    H    11.555    20.507    7.216
    6    C    11.707    19.431    9.088
    7    H    10.607    19.408    9.235
    8    O    12.230    18.170    9.595
    9    C    12.715    18.362    10.916
    10    H    12.186    17.619    11.552
    11    N    14.184    18.132    11.029
    12    C    14.979    18.146    9.903
    13    H    14.472    18.330    8.955
    14    C    16.295    17.912    9.973
    15    H    16.932    17.893    9.088
    16    C    14.764    17.905    12.275
    17    O    14.046    17.915    13.287
    18    N    16.089    17.650    12.364
    19    C    16.852    17.646    11.255
    20    N    18.149    17.363    11.363
    21    H    18.554    17.231    12.270
    22    H    18.748    17.338    10.562
    23    C    12.297    19.752    11.353
    24    H    13.011    20.201    12.068
    25    O    11.004    19.713    11.934
    26    H    10.806    20.622    12.189
    27    C    12.291    20.501    10.021
    28    H    13.338    20.683    9.678
    29    O    11.459    21.689    9.984
    30    P    12.130    23.082    10.289
    31    O    13.405    23.180    9.551
    32    O    11.146    24.162    10.057
    33    O    12.436    22.999    11.829
    34    C    11.338    23.030    12.776
    35    H    10.554    22.274    12.527
    36    H    10.847    24.031    12.762
    37    C    11.830    22.761    14.205
    38    H    10.984    22.715    14.923
    39    O    12.510    21.474    14.247
    40    C    13.614    21.550    15.136
    41    H    13.454    20.760    15.906
    42    N    14.890    21.297    14.454
    43    C    16.079    20.958    15.047
    44    N    17.979    20.401    17.892
    45    H    17.328    20.557    18.633
    46    H    18.939    20.209    18.116
    47    N    16.296    20.818    16.367
    48    C    17.567    20.537    16.646
    49    N    18.515    20.331    15.679
    50    H    19.453    20.107    15.975
    51    C    18.311    20.426    14.309
    52    O    19.229    20.226    13.508
    53    C    16.974    20.794    14.008
    54    N    16.367    21.050    12.787
    55    C    15.131    21.349    13.102
    56    H    14.346    21.627    12.398
    57    C    13.568    22.906    15.790
    58    H    14.577    23.299    16.013
    59    O    12.804    22.824    16.975
    60    H    12.616    23.730    17.257
    61    C    12.867    23.756    14.739
    62    H    13.551    23.973    13.887
    63    O    12.215    24.942    15.262
    64    P    13.018    26.300    15.285
    65    O    13.438    26.612    13.901
    66    O    12.212    27.326    15.980
    67    O    14.292    25.998    16.143
    68    C    14.257    25.880    17.581
    69    H    13.517    25.113    17.908
    70    H    13.935    26.843    18.043
    71    C    15.638    25.486    18.145
    72    H    15.590    25.370    19.248
    73    O    16.075    24.202    17.597
    74    C    17.479    24.232    17.357
    75    H    17.902    23.369    17.920
    76    N    17.823    24.103    15.905
    77    C    16.909    24.444    14.936
    78    H    15.957    24.805    15.309
    79    C    19.066    23.622    15.554
    80    O    19.916    23.299    16.378
    81    N    19.284    23.509    14.202
    82    H    20.174    23.116    13.921
    83    C    18.396    23.780    13.182
    84    O    18.717    23.581    12.012
    85    C    17.139    24.300    13.624
    86    H    16.384    24.541    12.878
    87    C    17.991    25.518    17.963
    88    H    18.869    25.918    17.420
    89    O    18.317    25.307    19.325
    90    H    18.551    26.170    19.686
    91    C    16.787    26.444    17.818
    92    H    16.648    26.751    16.758
    93    O    16.771    27.563    18.732
    94    P    17.509    28.892    18.312
    95    O    17.022    29.298    16.976
    96    O    17.366    29.871    19.411
    97    O    19.031    28.510    18.180
    98    C    19.849    28.275    19.348
    99    H    19.396    27.507    20.010
    100    H    19.948    29.213    19.945
    101    C    21.259    27.795    18.962
    102    H    21.854    27.537    19.867
    103    O    21.193    26.593    18.139
    104    C    22.234    26.620    17.169
    105    H    22.835    25.699    17.341
    106    N    21.695    26.603    15.780
    107    C    20.406    27.011    15.510
    108    H    19.853    27.388    16.369
    109    C    22.517    26.159    14.769
    110    O    23.670    25.789    14.961
    111    N    21.936    26.121    13.527
    112    H    22.541    25.841    12.778
    113    C    20.656    26.500    13.187
    114    O    20.280    26.433    12.019
    115    C    19.863    26.959    14.285
    116    H    18.846    27.296    14.080
    117    C    23.091    27.849    17.461
    118    H    23.505    28.308    16.536
    119    O    24.150    27.501    18.340
    120    H    24.894    27.155    17.807
    121    C    22.071    28.779    18.116
    122    H    21.370    29.177    17.349
    123    O    22.628    29.809    18.955
    124    P    22.807    31.275    18.425
    125    O    21.524    31.739    17.861
    126    O    23.391    32.088    19.521
    127    O    23.857    31.160    17.257
    128    C    24.106    32.305    16.403
    129    H    24.031    33.276    16.950
    130    H    23.358    32.326    15.580
    131    C    25.507    32.235    15.785
    132    H    25.655    33.049    15.047
    133    O    26.486    32.447    16.840
    134    C    27.587    31.575    16.646
    135    H    28.493    32.219    16.626
    136    N    27.720    30.626    17.751
    137    C    28.554    29.207    19.206
    138    N    27.270    29.501    19.645
    139    C    26.810    30.334    18.742
    140    H    25.818    30.793    18.753
    141    N    30.749    28.328    19.052
    142    C    30.865    29.028    17.919
    143    H    31.822    28.925    17.400
    144    N    29.981    29.839    17.330
    145    C    28.838    29.886    18.035
    146    C    29.580    28.398    19.741
    147    N    29.456    27.711    20.893
    148    H    28.574    27.640    21.361
    149    H    30.161    27.047    21.138
    150    C    27.425    30.903    15.299
    151    H    27.824    29.865    15.287
    152    O    28.056    31.678    14.291
    153    H    27.753    31.330    13.440
    154    C    25.913    30.901    15.133
    155    H    25.470    30.088    15.758
    156    O    25.481    30.867    13.753
    157    P    24.902    29.534    13.144
    158    O    23.873    29.005    14.059
    159    O    24.469    29.824    11.760
    160    O    26.139    28.563    13.124
    161    C    27.245    28.717    12.209
    162    H    27.677    29.744    12.259
    163    H    26.902    28.548    11.164
    164    C    28.366    27.703    12.507
    165    H    29.206    27.815    11.787
    166    O    28.905    27.950    13.837
    167    C    29.146    26.710    14.485
    168    H    30.213    26.738    14.804
    169    N    28.303    26.557    15.669
    170    C    27.619    26.057    17.692
    171    N    26.573    26.746    17.094
    172    C    27.022    27.010    15.891
    173    H    26.460    27.543    15.125
    174    N    28.953    24.881    19.257
    175    C    29.867    24.804    18.285
    176    H    30.791    24.284    18.554
    177    N    29.860    25.339    17.063
    178    C    28.686    25.932    16.821
    179    C    27.780    25.509    18.982
    180    N    26.833    25.613    19.934
    181    H    25.983    26.112    19.771
    182    H    26.956    25.147    20.810
    183    C    28.962    25.598    13.475
    184    H    28.564    24.663    13.931
    185    O    30.204    25.336    12.832
    186    H    30.712    24.682    13.356
    187    C    27.934    26.223    12.531
    188    H    26.927    26.195    13.010
    189    O    27.934    25.685    11.191
    190    P    26.951    24.511    10.824
    191    O    25.614    24.847    11.350
    192    O    27.039    24.256    9.366
    193    O    27.497    23.258    11.589
    194    C    28.783    22.678    11.287
    195    H    29.577    23.459    11.236
    196    H    28.764    22.152    10.305
    197    C    29.146    21.713    12.419
    198    H    28.970    22.260    13.367
    199    O    28.266    20.555    12.422
    200    C    29.039    19.384    12.255
    201    H    29.248    19.005    13.281
    202    N    28.297    18.395    11.478
    203    C    28.023    17.110    11.854
    204    N    28.280    14.536    14.147
    205    H    27.942    13.602    14.276
    206    H    28.833    14.958    14.862
    207    N    28.422    16.520    12.993
    208    C    27.962    15.275    13.102
    209    N    27.168    14.674    12.157
    210    H    26.854    13.734    12.326
    211    C    26.753    15.261    10.967
    212    O    26.045    14.654    10.154
    213    C    27.251    16.586    10.834
    214    N    27.063    17.522    9.822
    215    C    27.703    18.586    10.252
    216    H    27.765    19.544    9.731
    217    C    30.325    19.817    11.601
    218    H    30.179    20.025    10.516
    219    O    31.376    18.888    11.781
    220    H    31.616    18.923    12.724
    221    C    30.579    21.116    12.361
    222    H    31.234    21.777    11.746
    223    O    31.185    20.884    13.659
    224    P    31.386    22.037    14.715
    225    O    32.430    21.560    15.649
    226    O    31.649    23.303    13.991
    227    O    30.040    22.187    15.498
    228    C    29.197    21.097    15.910
    229    H    29.790    20.271    16.365
    230    H    28.645    20.680    15.040
    231    C    28.168    21.569    16.947
    232    H    28.691    21.957    17.846
    233    O    27.356    22.667    16.445
    234    C    26.096    22.655    17.103
    235    H    26.048    23.603    17.686
    236    N    24.958    22.598    16.132
    237    C    25.181    22.445    14.777
    238    H    26.225    22.330    14.471
    239    C    23.682    22.814    16.611
    240    O    23.439    23.027    17.793
    241    N    22.689    22.768    15.668
    242    H    21.761    22.946    16.017
    243    C    22.836    22.595    14.309
    244    O    21.842    22.596    13.584
    245    C    24.188    22.410    13.876
    246    H    24.387    22.268    12.817
    247    C    26.111    21.467    18.067
    248    H    25.117    20.983    18.129
    249    O    26.533    21.845    19.367
    250    H    26.682    21.021    19.852
    251    C    27.125    20.546    17.402
    252    H    26.678    20.130    16.467
    253    O    27.710    19.554    18.287
    254    P    27.592    18.020    17.920
    255    O    27.258    17.855    16.488
    256    O    28.802    17.327    18.411
    257    O    26.347    17.518    18.745
    258    C    26.262    17.589    20.183
    259    H    26.989    18.318    20.613
    260    H    26.489    16.587    20.612
    261    C    24.863    18.014    20.664
    262    H    24.872    18.201    21.760
    263    O    24.470    19.257    20.015
    264    C    23.073    19.227    19.746
    265    H    22.654    20.137    20.238
    266    N    22.754    19.271    18.290
    267    C    23.715    18.953    17.361
    268    H    24.700    18.716    17.756
    269    C    23.467    19.005    16.049
    270    H    24.235    18.804    15.307
    271    C    21.473    19.610    17.863
    272    O    20.606    19.876    18.711
    273    N    21.201    19.670    16.539
    274    C    22.156    19.376    15.640
    275    N    21.873    19.467    14.343
    276    H    20.945    19.709    14.050
    277    H    22.538    19.218    13.641
    278    C    22.513    17.993    20.416
    279    H    21.644    17.572    19.874
    280    O    22.136    18.297    21.746
    281    H    21.836    17.470    22.144
    282    C    23.710    17.048    20.363
    283    H    23.876    16.686    19.320
    284    O    23.681    15.989    21.346
    285    P    23.133    14.575    20.933
    286    O    23.632    14.250    19.581
    287    O    23.435    13.612    22.013
    288    O    21.576    14.790    20.851
    289    C    20.819    15.094    22.046
    290    H    21.247    15.960    22.603
    291    H    20.822    14.219    22.738
    292    C    19.363    15.410    21.692
    293    H    18.757    15.606    22.606
    294    O    19.303    16.613    20.874
    295    C    18.269    16.471    19.909
    296    H    17.570    17.327    20.057
    297    N    18.808    16.515    18.542
    298    C    18.096    16.767    17.401
    299    N    15.093    17.476    15.828
    300    H    14.447    17.478    16.592
    301    H    14.754    17.638    14.897
    302    N    16.775    17.000    17.332
    303    C    16.364    17.228    16.086
    304    N    17.209    17.221    15.007
    305    H    16.814    17.384    14.093
    306    C    18.576    16.968    15.046
    307    O    19.260    16.976    14.018
    308    C    19.018    16.715    16.372
    309    N    20.284    16.407    16.854
    310    C    20.109    16.291    18.148
    311    H    20.883    16.041    18.875
    312    C    17.547    15.167    20.195
    313    H    17.188    14.676    19.263
    314    O    16.452    15.389    21.073
    315    H    16.118    14.528    21.373
    316    C    18.657    14.345    20.843
    317    H    19.369    13.981    20.071
    318    O    18.192    13.262    21.665
    319    H    17.735    12.599    21.113
 $END
