!*** FMO 5.3 (Gamess) INPUT generated by Facio 22.1.1.32 ***
 $CONTRL RUNTYP=ENERGY NPRINT=-5 ISPHER=1 MAXIT=200 $END
 $SYSTEM MWORDS=63 MEMDDI=63 $END
 $GDDI NGROUP=1 $END
 $SCF DIRSCF=.TRUE. NPUNCH=0 $END
!*** NumCPU : 2  MemPerNode : 512MB
 $PCM SOLVNT=WATER IEF=-10 ICOMP=2 ICAV=1 IDISP=1 IFMO=-1 $END
 $PCMCAV RADII=SUAHF $END
 $TESCAV NTSALL=60 $END
 $FMOPRP
    NAODIR=200
    NGRFMO(1)=1, 1, 0, 0, 0,   0, 0, 0, 0, 0
    IPIEDA=1
    NPRINT=9
 $END
 $FMO
      SCFTYP(1)=RHF
      MODGRD=10
      MODMUL=0
      MAXCAO=5
      MAXBND=23
      NLAYER=1
      MPLEVL(1)=2
      NFRAG=21
      ICHARG(1)=-1, -1, -1, -1, -1, -1, -1, 0, -1, -1, -1, -1, -1, 0, -1,
-1, -1, -1, -1, -1, 0
      FRGNAM(1)=F1, F2, F3, F4, F5, F6, F7, F8, F9, F10, F11, F12, F13,
F14, F15, F16, F17, F18, F19, F20, F21
      indat(1)=0
               1   -36   0
               37   -70   0
               71   -104   0
               105   -137   0
               138   -170   0
               171   -203   0
               204   -234   0
               235   -263   0
               264   -296   0
               297   -326   0
               327   -359   0
               360   -389   0
               390   -423   0
               424   -456   0
               457   -487   0
               488   -518   0
               519   -548   0
               549   -581   0
               582   -614   0
               615   -648   0
               649   -675   0
 $END

 $FMOBND
   -37   36       6-31G*    MINI
   -71   70       6-31G*    MINI
   -105   104       6-31G*    MINI
   -138   137       6-31G*    MINI
   -171   170       6-31G*    MINI
   -204   203       6-31G*    MINI
   -235   234       6-31G*    MINI
   -264   263       6-31G*    MINI
   -297   296       6-31G*    MINI
   -327   326       6-31G*    MINI
   -360   359       6-31G*    MINI
   -390   389       6-31G*    MINI
   -424   423       6-31G*    MINI
   -457   456       6-31G*    MINI
   -488   487       6-31G*    MINI
   -519   518       6-31G*    MINI
   -549   548       6-31G*    MINI
   -582   581       6-31G*    MINI
   -615   614       6-31G*    MINI
   -649   648       6-31G*    MINI
 $END
 $FMOHYB
 6-31G*      15   5
   1 0  -0.065034   0.288264   0.000000   0.000000   0.604412
         0.290129   0.000000   0.000000   0.319045  -0.017106
        -0.017106   0.057934   0.000000   0.000000   0.000000
   0 1  -0.065040   0.288293   0.569832   0.000000  -0.201456
         0.290147   0.300783   0.000000  -0.106342   0.049598
        -0.017106  -0.008771   0.000000  -0.027223   0.000000
   0 1  -0.065039   0.288293  -0.284916  -0.493490  -0.201455
         0.290145  -0.150392  -0.260486  -0.106340  -0.000427
         0.032923  -0.008771   0.033353   0.013612   0.023576
   0 1  -0.065039   0.288293  -0.284916   0.493490  -0.201455
         0.290145  -0.150392   0.260486  -0.106340  -0.000427
         0.032923  -0.008771  -0.033353   0.013612  -0.023576
   0 1   1.010938  -0.011975   0.000000   0.000000   0.000000
        -0.054085   0.000000   0.000000  -0.000000  -0.003174
        -0.003174  -0.003174   0.000000   0.000000   0.000000
 MINI         5   5
   1 0  -0.104883   0.308874   0.000000   0.000000   0.521806
   0 1  -0.104883   0.308874   0.491961   0.000000  -0.173934
   0 1  -0.104883   0.308876  -0.245980  -0.426050  -0.173933
   0 1  -0.104883   0.308876  -0.245980   0.426050  -0.173933
   0 1   0.988209   0.063992   0.000000   0.000000   0.000000
 $END
 
 $DATA
 FMO calculation
 C1 
 H.1-1    1
      N31 6
   
 O.1-1    8
      N31 6
      d 1
      1 0.800 1.0
   
 C.1-1    6
      N31 6
      d 1
      1 0.800 1.0
   
 N.1-1    7
      N31 6
      d 1
      1 0.800 1.0
   
 P.1-1   15
      N31 6
      d 1
      1 0.550 1.0
   
 $END
 $FMOXYZ
    1    H    -16.019    -6.748    -8.920
    2    O    -15.147    -6.413    -8.652
    3    C    -14.744    -5.455    -9.642
    4    H    -15.457    -4.599    -9.627
    5    H    -14.786    -5.922    -10.651
    6    C    -13.332    -4.909    -9.404
    7    H    -13.050    -4.174    -10.186
    8    O    -13.297    -4.213    -8.126
    9    C    -12.076    -4.501    -7.462
    10    H    -11.605    -3.521    -7.221
    11    N    -12.303    -5.238    -6.205
    12    C    -11.376    -5.486    -5.224
    13    N    -8.142    -5.245    -4.002
    14    H    -7.624    -5.530    -3.200
    15    H    -7.669    -4.763    -4.743
    16    N    -10.082    -5.115    -5.248
    17    C    -9.426    -5.505    -4.156
    18    N    -10.018    -6.174    -3.120
    19    H    -9.444    -6.418    -2.331
    20    C    -11.353    -6.552    -3.059
    21    O    -11.790    -7.154    -2.072
    22    C    -12.063    -6.153    -4.225
    23    N    -13.396    -6.336    -4.573
    24    C    -13.489    -5.791    -5.766
    25    H    -14.399    -5.741    -6.372
    26    C    -11.195    -5.259    -8.430
    27    H    -10.526    -5.986    -7.922
    28    O    -10.419    -4.349    -9.184
    29    H    -10.044    -4.849    -9.923
    30    C    -12.221    -5.968    -9.304
    31    H    -12.655    -6.841    -8.760
    32    O    -11.740    -6.305    -10.625
    33    P    -11.160    -7.743    -10.893
    34    O    -12.226    -8.722    -10.583
    35    O    -10.595    -7.793    -12.260
    36    O    -9.990    -7.882    -9.842
    37    C    -8.714    -7.246    -10.117
    38    H    -8.820    -6.139    -10.186
    39    H    -8.293    -7.606    -11.085
    40    C    -7.678    -7.552    -9.028
    41    H    -6.707    -7.066    -9.269
    42    O    -8.110    -7.006    -7.752
    43    C    -7.730    -7.903    -6.713
    44    H    -7.123    -7.318    -5.983
    45    N    -8.902    -8.454    -6.024
    46    C    -8.898    -9.078    -4.811
    47    N    -7.192    -10.208    -2.040
    48    H    -7.376    -10.671    -1.169
    49    H    -6.240    -10.105    -2.339
    50    N    -7.820    -9.280    -4.037
    51    C    -8.122    -9.918    -2.916
    52    N    -9.390    -10.276    -2.567
    53    H    -9.504    -10.798    -1.714
    54    C    -10.524    -10.061    -3.332
    55    O    -11.630    -10.420    -2.919
    56    C    -10.214    -9.404    -4.553
    57    N    -11.036    -8.995    -5.595
    58    C    -10.210    -8.435    -6.445
    59    H    -10.485    -7.983    -7.399
    60    C    -6.867    -8.990    -7.329
    61    H    -6.990    -9.974    -6.823
    62    O    -5.501    -8.599    -7.302
    63    H    -5.010    -9.238    -7.841
    64    C    -7.415    -9.036    -8.749
    65    H    -8.408    -9.542    -8.763
    66    O    -6.501    -9.559    -9.729
    67    P    -6.675    -11.009    -10.309
    68    O    -8.052    -11.170    -10.827
    69    O    -5.575    -11.245    -11.271
    70    O    -6.474    -11.926    -9.062
    71    C    -6.833    -13.327    -9.095
    72    H    -6.090    -13.898    -9.691
    73    H    -7.840    -13.465    -9.553
    74    C    -6.886    -13.964    -7.695
    75    H    -5.855    -14.181    -7.337
    76    O    -7.469    -13.034    -6.734
    77    C    -8.223    -13.735    -5.763
    78    H    -7.762    -13.502    -4.774
    79    N    -9.610    -13.281    -5.730
    80    C    -10.485    -13.444    -4.690
    81    N    -11.247    -14.771    -1.602
    82    H    -12.073    -15.105    -1.130
    83    H    -10.362    -15.161    -1.338
    84    N    -10.212    -14.032    -3.512
    85    C    -11.302    -14.175    -2.767
    86    N    -12.522    -13.637    -3.091
    87    H    -13.283    -13.747    -2.445
    88    C    -12.799    -12.933    -4.258
    89    O    -13.921    -12.462    -4.480
    90    C    -11.667    -12.869    -5.114
    91    N    -11.527    -12.325    -6.390
    92    C    -10.279    -12.577    -6.706
    93    H    -9.788    -12.306    -7.644
    94    C    -8.097    -15.216    -6.058
    95    H    -9.002    -15.811    -5.816
    96    O    -7.010    -15.695    -5.322
    97    H    -6.241    -15.343    -5.763
    98    C    -7.771    -15.222    -7.559
    99    H    -8.699    -15.017    -8.138
    100    O    -7.052    -16.388    -8.038
    101    P    -7.845    -17.549    -8.765
    102    O    -8.517    -16.961    -9.947
    103    O    -6.929    -18.681    -9.029
    104    O    -8.964    -18.038    -7.767
    105    C    -10.069    -18.831    -8.286
    106    H    -9.830    -19.338    -9.251
    107    H    -10.938    -18.163    -8.474
    108    C    -10.528    -19.913    -7.308
    109    H    -11.460    -20.402    -7.667
    110    O    -9.510    -20.948    -7.258
    111    C    -9.364    -21.392    -5.928
    112    H    -9.467    -22.502    -5.946
    113    N    -8.038    -21.044    -5.403
    114    C    -6.232    -20.945    -4.159
    115    N    -5.949    -20.224    -5.301
    116    C    -7.053    -20.291    -6.001
    117    H    -7.211    -19.810    -6.969
    118    N    -6.081    -21.963    -2.042
    119    C    -7.339    -22.353    -2.215
    120    H    -7.765    -22.930    -1.386
    121    N    -8.135    -22.189    -3.271
    122    C    -7.517    -21.454    -4.209
    123    C    -5.471    -21.242    -3.015
    124    N    -4.180    -20.879    -2.878
    125    H    -3.732    -20.253    -3.517
    126    H    -3.647    -21.183    -2.093
    127    C    -10.497    -20.795    -5.117
    128    H    -10.203    -20.618    -4.063
    129    O    -11.651    -21.622    -5.157
    130    H    -12.352    -21.123    -4.715
    131    C    -10.733    -19.484    -5.844
    132    H    -9.921    -18.759    -5.595
    133    O    -12.062    -18.957    -5.650
    134    P    -12.325    -17.541    -5.020
    135    O    -11.223    -16.645    -5.390
    136    O    -13.683    -17.107    -5.416
    137    O    -12.321    -17.806    -3.462
    138    C    -13.318    -18.615    -2.796
    139    H    -13.779    -19.360    -3.487
    140    H    -14.139    -17.962    -2.416
    141    C    -12.729    -19.390    -1.603
    142    H    -13.468    -20.120    -1.210
    143    O    -11.564    -20.155    -2.036
    144    C    -10.561    -20.090    -1.033
    145    H    -10.268    -21.142    -0.810
    146    N    -9.378    -19.360    -1.497
    147    C    -7.336    -18.585    -1.694
    148    N    -8.038    -18.112    -2.784
    149    C    -9.242    -18.577    -2.619
    150    H    -10.072    -18.390    -3.298
    151    N    -5.630    -19.000    -0.121
    152    C    -6.508    -19.754    0.533
    153    H    -6.125    -20.213    1.449
    154    N    -7.812    -19.956    0.267
    155    C    -8.151    -19.354    -0.888
    156    C    -6.007    -18.404    -1.271
    157    N    -5.106    -17.669    -1.929
    158    H    -5.256    -17.334    -2.866
    159    H    -4.217    -17.493    -1.500
    160    C    -11.179    -19.472    0.194
    161    H    -10.436    -18.912    0.794
    162    O    -11.772    -20.471    1.000
    163    H    -12.248    -20.011    1.709
    164    C    -12.225    -18.549    -0.415
    165    H    -11.729    -17.652    -0.857
    166    O    -13.302    -18.231    0.495
    167    P    -13.739    -16.755    0.817
    168    O    -13.364    -15.861    -0.302
    169    O    -15.169    -16.751    1.199
    170    O    -12.888    -16.326    2.074
    171    C    -13.046    -16.919    3.382
    172    H    -13.646    -17.862    3.351
    173    H    -13.586    -16.203    4.046
    174    C    -11.697    -17.247    4.043
    175    H    -11.855    -17.888    4.939
    176    O    -10.863    -18.000    3.106
    177    C    -9.512    -17.572    3.223
    178    H    -8.881    -18.485    3.364
    179    N    -9.065    -16.855    2.014
    180    C    -7.858    -15.879    0.448
    181    N    -9.166    -15.867    0.001
    182    C    -9.836    -16.436    0.965
    183    H    -10.909    -16.601    0.960
    184    N    -5.516    -15.618    0.584
    185    C    -5.611    -16.224    1.776
    186    H    -4.669    -16.403    2.298
    187    N    -6.681    -16.688    2.418
    188    C    -7.783    -16.483    1.694
    189    C    -6.654    -15.428    -0.138
    190    N    -6.618    -14.877    -1.379
    191    H    -7.417    -14.952    -1.978
    192    H    -5.727    -14.732    -1.812
    193    C    -9.447    -16.698    4.448
    194    H    -8.643    -15.950    4.359
    195    O    -9.205    -17.486    5.599
    196    H    -9.332    -16.918    6.375
    197    C    -10.825    -16.056    4.472
    198    H    -10.926    -15.288    3.673
    199    O    -11.210    -15.572    5.774
    200    P    -11.403    -14.049    6.118
    201    O    -12.574    -13.556    5.362
    202    O    -11.463    -13.903    7.590
    203    O    -10.104    -13.326    5.584
    204    C    -8.795    -13.619    6.135
    205    H    -8.675    -14.705    6.355
    206    H    -8.654    -13.070    7.094
    207    C    -7.654    -13.225    5.171
    208    H    -6.676    -13.558    5.570
    209    O    -7.849    -13.867    3.880
    210    C    -7.506    -12.979    2.830
    211    H    -6.756    -13.517    2.203
    212    N    -8.677    -12.615    1.977
    213    C    -9.950    -12.945    2.375
    214    H    -10.031    -13.451    3.334
    215    C    -11.019    -12.662    1.623
    216    H    -12.027    -12.931    1.924
    217    C    -8.493    -12.000    0.741
    218    O    -7.345    -11.758    0.352
    219    N    -9.564    -11.673    -0.020
    220    C    -10.801    -11.999    0.385
    221    N    -11.840    -11.692    -0.387
    222    H    -11.692    -11.249    -1.273
    223    H    -12.772    -11.938    -0.123
    224    C    -6.840    -11.787    3.483
    225    H    -6.978    -10.849    2.905
    226    O    -5.462    -12.043    3.673
    227    H    -5.132    -11.337    4.236
    228    C    -7.546    -11.733    4.831
    229    H    -8.592    -11.381    4.709
    230    O    -6.812    -11.029    5.867
    231    P    -7.118    -9.502    6.112
    232    O    -8.576    -9.321    6.272
    233    O    -6.260    -9.012    7.215
    234    O    -6.691    -8.790    4.785
    235    C    -5.320    -8.647    4.367
    236    H    -4.839    -9.634    4.218
    237    H    -4.725    -8.087    5.126
    238    C    -5.238    -7.906    3.022
    239    H    -4.181    -7.789    2.710
    240    O    -5.916    -8.662    1.971
    241    C    -6.625    -7.779    1.108
    242    H    -6.251    -7.991    0.079
    243    N    -8.107    -8.013    1.154
    244    C    -8.682    -8.614    2.250
    245    H    -7.984    -8.948    3.009
    246    C    -8.890    -7.625    0.085
    247    O    -8.429    -7.065    -0.905
    248    N    -10.233    -7.909    0.207
    249    H    -10.830    -7.642    -0.562
    250    C    -10.865    -8.518    1.275
    251    O    -12.078    -8.723    1.254
    252    C    -9.992    -8.868    2.349
    253    H    -10.418    -9.357    3.223
    254    C    -6.231    -6.359    1.506
    255    H    -7.077    -5.650    1.381
    256    O    -5.118    -5.912    0.743
    257    H    -4.368    -6.510    0.898
    258    C    -5.894    -6.527    2.990
    259    H    -6.826    -6.578    3.593
    260    O    -4.984    -5.546    3.521
    261    H    -5.378    -4.659    3.443
    262    H    6.207    -28.293    8.497
    263    O    6.486    -28.595    7.614
    264    C    7.891    -28.876    7.691
    265    H    8.065    -29.615    8.505
    266    H    8.439    -27.943    7.953
    267    C    8.468    -29.445    6.388
    268    H    9.561    -29.636    6.486
    269    O    7.833    -30.727    6.090
    270    C    7.638    -30.838    4.690
    271    H    8.142    -31.778    4.365
    272    N    6.212    -30.917    4.347
    273    C    4.311    -31.284    3.300
    274    N    3.975    -30.783    4.552
    275    C    5.134    -30.576    5.132
    276    H    5.273    -30.179    6.141
    277    N    4.183    -32.095    1.077
    278    C    5.521    -32.096    1.084
    279    H    5.996    -32.443    0.159
    280    N    6.359    -31.788    2.081
    281    C    5.685    -31.365    3.161
    282    C    3.528    -31.693    2.198
    283    N    2.182    -31.711    2.214
    284    H    1.666    -31.469    3.040
    285    H    1.660    -32.021    1.414
    286    C    8.323    -29.657    4.043
    287    H    7.813    -29.331    3.118
    288    O    9.668    -29.980    3.758
    289    H    10.093    -29.154    3.491
    290    C    8.230    -28.591    5.131
    291    H    7.192    -28.191    5.202
    292    O    9.227    -27.545    5.043
    293    P    8.930    -26.233    4.217
    294    O    7.665    -25.645    4.704
    295    O    10.124    -25.363    4.247
    296    O    8.682    -26.746    2.756
    297    C    9.732    -27.165    1.861
    298    H    10.366    -27.956    2.322
    299    H    10.394    -26.305    1.613
    300    C    9.150    -27.720    0.545
    301    H    9.959    -28.118    -0.103
    302    O    8.220    -28.816    0.806
    303    C    7.125    -28.749    -0.098
    304    H    7.098    -29.731    -0.630
    305    N    5.817    -28.516    0.599
    306    C    5.765    -28.036    1.888
    307    H    6.732    -27.836    2.342
    308    C    4.653    -28.786    -0.087
    309    O    4.642    -29.165    -1.253
    310    N    3.493    -28.593    0.625
    311    H    2.632    -28.866    0.177
    312    C    3.374    -28.225    1.942
    313    O    2.267    -28.198    2.475
    314    C    4.620    -27.903    2.575
    315    H    4.616    -27.614    3.623
    316    C    7.454    -27.657    -1.092
    317    H    6.545    -27.126    -1.426
    318    O    8.147    -28.200    -2.201
    319    H    8.456    -27.447    -2.720
    320    C    8.339    -26.719    -0.280
    321    H    7.731    -26.133    0.445
    322    O    9.226    -25.891    -1.067
    323    P    8.762    -24.462    -1.538
    324    O    8.403    -23.663    -0.348
    325    O    9.811    -23.901    -2.420
    326    O    7.445    -24.713    -2.360
    327    C    7.470    -25.253    -3.697
    328    H    8.059    -26.193    -3.749
    329    H    7.947    -24.532    -4.390
    330    C    6.055    -25.545    -4.213
    331    H    6.082    -26.057    -5.199
    332    O    5.351    -26.422    -3.286
    333    C    4.015    -26.001    -3.158
    334    H    3.388    -26.897    -3.363
    335    N    3.718    -25.530    -1.796
    336    C    2.662    -24.976    0.054
    337    N    4.016    -24.828    0.321
    338    C    4.599    -25.167    -0.802
    339    H    5.677    -25.182    -0.961
    340    N    0.304    -25.012    0.257
    341    C    0.274    -25.376    -1.027
    342    H    -0.725    -25.530    -1.451
    343    N    1.298    -25.674    -1.838
    344    C    2.468    -25.412    -1.243
    345    C    1.509    -24.779    0.842
    346    N    1.564    -24.354    2.118
    347    H    2.430    -24.176    2.593
    348    H    0.714    -24.273    2.636
    349    C    3.774    -24.960    -4.231
    350    H    3.001    -24.219    -3.948
    351    O    3.428    -25.610    -5.445
    352    H    2.761    -26.289    -5.289
    353    C    5.153    -24.313    -4.338
    354    H    5.355    -23.684    -3.441
    355    O    5.428    -23.638    -5.590
    356    P    5.328    -22.079    -5.688
    357    O    5.823    -21.499    -4.420
    358    O    6.017    -21.639    -6.921
    359    O    3.799    -21.777    -5.821
    360    C    2.957    -22.408    -6.808
    361    H    3.211    -23.485    -6.951
    362    H    3.080    -21.904    -7.793
    363    C    1.472    -22.334    -6.417
    364    H    0.851    -22.813    -7.204
    365    O    1.235    -23.076    -5.186
    366    C    0.327    -22.360    -4.360
    367    H    -0.479    -23.081    -4.085
    368    N    0.972    -21.840    -3.109
    369    C    2.338    -21.750    -2.995
    370    H    2.894    -22.126    -3.845
    371    C    0.167    -21.417    -2.074
    372    O    -1.055    -21.419    -2.141
    373    N    0.823    -20.985    -0.950
    374    H    0.223    -20.619    -0.224
    375    C    2.183    -20.921    -0.752
    376    O    2.634    -20.553    0.332
    377    C    2.959    -21.334    -1.882
    378    H    4.044    -21.316    -1.814
    379    C    -0.264    -21.262    -5.226
    380    H    -0.614    -20.396    -4.639
    381    O    -1.339    -21.784    -5.968
    382    H    -0.966    -22.222    -6.743
    383    C    0.900    -20.929    -6.155
    384    H    1.680    -20.365    -5.592
    385    O    0.522    -20.309    -7.415
    386    P    0.905    -18.810    -7.713
    387    O    2.179    -18.487    -7.037
    388    O    0.867    -18.579    -9.173
    389    O    -0.226    -17.950    -7.046
    390    C    -1.576    -17.919    -7.567
    391    H    -1.872    -18.887    -8.038
    392    H    -1.660    -17.118    -8.339
    393    C    -2.574    -17.629    -6.437
    394    H    -3.625    -17.722    -6.779
    395    O    -2.391    -18.576    -5.348
    396    C    -2.564    -17.891    -4.118
    397    H    -3.333    -18.459    -3.555
    398    N    -1.343    -17.847    -3.326
    399    C    -1.236    -17.439    -2.030
    400    N    -2.667    -16.220    0.872
    401    H    -2.390    -16.085    1.827
    402    H    -3.608    -16.004    0.587
    403    N    -2.236    -16.976    -1.261
    404    C    -1.838    -16.713    -0.022
    405    N    -0.552    -16.899    0.405
    406    H    -0.344    -16.699    1.369
    407    C    0.505    -17.348    -0.375
    408    O    1.644    -17.476    0.085
    409    C    0.095    -17.608    -1.704
    410    N    0.824    -18.062    -2.795
    411    C    -0.077    -18.174    -3.737
    412    H    0.111    -18.489    -4.764
    413    C    -3.067    -16.513    -4.428
    414    H    -2.783    -15.751    -3.675
    415    O    -4.466    -16.574    -4.521
    416    H    -4.815    -15.718    -4.778
    417    C    -2.429    -16.255    -5.782
    418    H    -1.335    -16.070    -5.680
    419    O    -3.101    -15.267    -6.587
    420    P    -2.628    -13.779    -6.512
    421    O    -1.153    -13.721    -6.555
    422    O    -3.353    -13.024    -7.539
    423    O    -3.100    -13.285    -5.098
    424    C    -4.502    -13.084    -4.822
    425    H    -5.082    -14.014    -4.999
    426    H    -4.935    -12.287    -5.476
    427    C    -4.701    -12.675    -3.361
    428    H    -5.777    -12.522    -3.128
    429    O    -4.195    -13.717    -2.480
    430    C    -3.568    -13.122    -1.348
    431    H    -4.099    -13.511    -0.446
    432    N    -2.148    -13.473    -1.267
    433    C    -1.352    -13.354    -0.162
    434    N    -0.935    -12.474    3.158
    435    H    -1.859    -12.202    3.407
    436    H    -0.232    -12.544    3.870
    437    N    -1.731    -12.887    1.036
    438    C    -0.746    -12.908    1.928
    439    N    0.521    -13.326    1.629
    440    H    1.197    -13.338    2.375
    441    C    0.952    -13.795    0.395
    442    O    2.123    -14.147    0.210
    443    C    -0.103    -13.791    -0.557
    444    N    -0.109    -14.161    -1.897
    445    C    -1.344    -13.941    -2.281
    446    H    -1.739    -14.103    -3.285
    447    C    -3.749    -11.624    -1.452
    448    H    -2.857    -11.063    -1.100
    449    O    -4.854    -11.196    -0.690
    450    H    -5.602    -11.812    -0.771
    451    C    -3.919    -11.430    -2.949
    452    H    -2.922    -11.466    -3.434
    453    O    -4.622    -10.240    -3.332
    454    H    -4.118    -9.458    -3.054
    455    H    6.880    -13.981    8.875
    456    O    5.936    -13.914    8.639
    457    C    5.316    -13.084    9.631
    458    H    5.873    -12.124    9.713
    459    H    5.366    -13.594    10.620
    460    C    3.847    -12.773    9.323
    461    H    3.367    -12.248    10.176
    462    O    3.757    -11.891    8.163
    463    C    2.652    -12.294    7.362
    464    H    2.022    -11.384    7.242
    465    N    3.053    -12.788    6.013
    466    C    4.340    -13.221    5.785
    467    H    5.026    -13.165    6.631
    468    C    4.730    -13.652    4.579
    469    H    5.749    -13.972    4.376
    470    C    2.119    -12.830    4.980
    471    O    0.956    -12.455    5.200
    472    N    2.498    -13.260    3.753
    473    C    3.769    -13.643    3.530
    474    N    4.131    -14.020    2.304
    475    H    3.439    -14.075    1.579
    476    H    5.059    -14.328    2.096
    477    C    1.874    -13.326    8.153
    478    H    1.351    -14.055    7.501
    479    O    0.937    -12.691    9.000
    480    H    0.460    -13.397    9.452
    481    C    2.986    -13.990    8.957
    482    H    3.597    -14.637    8.289
    483    O    2.570    -14.669    10.166
    484    P    2.151    -16.185    10.070
    485    O    3.210    -16.922    9.352
    486    O    1.803    -16.680    11.418
    487    O    0.865    -16.167    9.170
    488    C    -0.408    -15.745    9.700
    489    H    -0.371    -14.695    10.071
    490    H    -0.720    -16.393    10.555
    491    C    -1.495    -15.834    8.625
    492    H    -2.475    -15.485    9.027
    493    O    -1.166    -14.967    7.496
    494    C    -1.611    -15.591    6.296
    495    H    -2.317    -14.872    5.838
    496    N    -0.517    -15.873    5.324
    497    C    0.766    -16.052    5.784
    498    H    0.901    -15.940    6.859
    499    C    1.782    -16.303    4.948
    500    H    2.810    -16.405    5.296
    501    C    -0.787    -15.989    3.958
    502    O    -1.946    -15.824    3.542
    503    N    0.228    -16.262    3.105
    504    C    1.481    -16.416    3.560
    505    N    2.452    -16.687    2.690
    506    H    2.213    -16.829    1.725
    507    H    3.401    -16.833    2.973
    508    C    -2.356    -16.844    6.703
    509    H    -2.252    -17.644    5.950
    510    O    -3.719    -16.545    6.930
    511    H    -4.125    -17.355    7.259
    512    C    -1.682    -17.228    8.005
    513    H    -0.673    -17.658    7.824
    514    O    -2.482    -18.056    8.875
    515    P    -2.514    -19.623    8.751
    516    O    -1.190    -20.140    9.157
    517    O    -3.684    -20.122    9.501
    518    O    -2.722    -19.934    7.221
    519    C    -4.048    -19.911    6.632
    520    H    -4.551    -18.940    6.820
    521    H    -4.698    -20.692    7.085
    522    C    -4.017    -20.145    5.106
    523    H    -5.029    -20.008    4.667
    524    O    -3.152    -19.179    4.454
    525    C    -2.498    -19.774    3.350
    526    H    -2.800    -19.183    2.447
    527    N    -1.012    -19.766    3.525
    528    C    -0.447    -19.646    4.776
    529    H    -1.153    -19.516    5.595
    530    C    -0.218    -19.931    2.414
    531    O    -0.680    -20.086    1.289
    532    N    1.135    -19.925    2.654
    533    H    1.732    -20.047    1.848
    534    C    1.768    -19.764    3.869
    535    O    2.996    -19.728    3.932
    536    C    0.878    -19.627    4.982
    537    H    1.303    -19.481    5.971
    538    C    -3.039    -21.187    3.225
    539    H    -2.251    -21.898    2.904
    540    O    -4.107    -21.257    2.311
    541    H    -4.309    -22.199    2.220
    542    C    -3.507    -21.508    4.651
    543    H    -2.646    -21.758    5.307
    544    O    -4.580    -22.471    4.784
    545    P    -4.364    -24.007    4.533
    546    O    -3.671    -24.592    5.705
    547    O    -5.697    -24.581    4.258
    548    O    -3.429    -24.111    3.273
    549    C    -3.391    -25.249    2.389
    550    H    -3.183    -26.192    2.940
    551    H    -2.545    -25.104    1.675
    552    C    -4.674    -25.410    1.565
    553    H    -5.586    -25.418    2.184
    554    O    -4.802    -24.305    0.649
    555    C    -5.399    -24.766    -0.544
    556    H    -6.318    -24.159    -0.665
    557    N    -4.534    -24.572    -1.713
    558    C    -3.800    -24.331    -3.765
    559    N    -2.712    -24.064    -2.939
    560    C    -3.211    -24.184    -1.733
    561    H    -2.662    -24.007    -0.804
    562    N    -5.183    -24.527    -5.687
    563    C    -6.175    -24.829    -4.851
    564    H    -7.132    -25.045    -5.334
    565    N    -6.148    -24.957    -3.520
    566    C    -4.925    -24.649    -3.029
    567    C    -3.957    -24.293    -5.163
    568    N    -2.946    -24.043    -5.990
    569    H    -2.223    -23.444    -5.626
    570    H    -3.156    -23.927    -6.960
    571    C    -5.781    -26.203    -0.338
    572    H    -5.664    -26.783    -1.258
    573    O    -7.119    -26.307    0.124
    574    H    -7.237    -27.211    0.452
    575    C    -4.765    -26.661    0.688
    576    H    -3.758    -26.794    0.226
    577    O    -5.208    -27.804    1.455
    578    P    -4.685    -29.240    1.080
    579    O    -3.242    -29.277    1.360
    580    O    -5.510    -30.251    1.775
    581    O    -4.900    -29.373    -0.479
    582    C    -6.210    -29.657    -1.032
    583    H    -6.986    -28.984    -0.598
    584    H    -6.514    -30.702    -0.803
    585    C    -6.266    -29.495    -2.565
    586    H    -7.314    -29.571    -2.923
    587    O    -5.789    -28.184    -2.955
    588    C    -4.998    -28.266    -4.117
    589    H    -5.422    -27.526    -4.833
    590    N    -3.597    -27.914    -3.851
    591    C    -1.515    -27.290    -4.157
    592    N    -1.672    -27.435    -2.786
    593    C    -2.921    -27.816    -2.655
    594    H    -3.415    -28.034    -1.708
    595    N    -0.592    -26.906    -6.305
    596    C    -1.796    -27.214    -6.788
    597    H    -1.873    -27.175    -7.879
    598    N    -2.904    -27.582    -6.143
    599    C    -2.693    -27.586    -4.818
    600    C    -0.419    -26.924    -4.964
    601    N    0.766    -26.517    -4.504
    602    H    0.839    -26.364    -3.506
    603    H    1.175    -25.808    -5.071
    604    C    -5.157    -29.660    -4.664
    605    H    -4.251    -30.017    -5.191
    606    O    -6.270    -29.699    -5.542
    607    H    -6.519    -30.628    -5.665
    608    C    -5.404    -30.456    -3.387