!*** FMO 5.3 (Gamess) INPUT generated by Facio 22.1.1.32 ***
 $CONTRL RUNTYP=ENERGY NPRINT=-5 ISPHER=1 MAXIT=200 $END
 $SYSTEM MWORDS=63 MEMDDI=63 $END
 $GDDI NGROUP=1 $END
 $SCF DIRSCF=.TRUE. NPUNCH=0 $END
!*** NumCPU : 2  MemPerNode : 512MB
 $PCM SOLVNT=WATER IEF=-10 ICOMP=2 ICAV=1 IDISP=1 IFMO=-1 $END
 $PCMCAV RADII=SUAHF $END
 $TESCAV NTSALL=60 $END
 $FMOPRP
    NAODIR=200
    NGRFMO(1)=1, 1, 0, 0, 0,   0, 0, 0, 0, 0
    IPIEDA=1
    NPRINT=9
 $END
 $FMO
      SCFTYP(1)=RHF
      MODGRD=10
      MODMUL=0
      MAXCAO=5
      MAXBND=18
      NLAYER=1
      MPLEVL(1)=2
      NFRAG=16
      ICHARG(1)=-1, -1, -1, -1, -1, -1, -1, 0, -1, -1, -1, -1, -1, -1,
-1, 0
      FRGNAM(1)=F1, F2, F3, F4, F5, F6, F7, F8, F9, F10, F11, F12, F13,
F14, F15, F16
      indat(1)=0
               1   -32   0
               33   -66   0
               67   -99   0
               100   -132   0
               133   -166   0
               167   -197   0
               198   -228   0
               229   -258   0
               259   -292   0
               293   -326   0
               327   -359   0
               360   -393   0
               394   -427   0
               428   -460   0
               461   -491   0
               492   -521   0
 $END

 $FMOBND
   -33   32       6-31G*    MINI
   -67   66       6-31G*    MINI
   -100   99       6-31G*    MINI
   -133   132       6-31G*    MINI
   -167   166       6-31G*    MINI
   -198   197       6-31G*    MINI
   -229   228       6-31G*    MINI
   -259   258       6-31G*    MINI
   -293   292       6-31G*    MINI
   -327   326       6-31G*    MINI
   -360   359       6-31G*    MINI
   -394   393       6-31G*    MINI
   -428   427       6-31G*    MINI
   -461   460       6-31G*    MINI
   -492   491       6-31G*    MINI
 $END
 $FMOHYB
 6-31G*      15   5
   1 0  -0.065034   0.288264   0.000000   0.000000   0.604412
         0.290129   0.000000   0.000000   0.319045  -0.017106
        -0.017106   0.057934   0.000000   0.000000   0.000000
   0 1  -0.065040   0.288293   0.569832   0.000000  -0.201456
         0.290147   0.300783   0.000000  -0.106342   0.049598
        -0.017106  -0.008771   0.000000  -0.027223   0.000000
   0 1  -0.065039   0.288293  -0.284916  -0.493490  -0.201455
         0.290145  -0.150392  -0.260486  -0.106340  -0.000427
         0.032923  -0.008771   0.033353   0.013612   0.023576
   0 1  -0.065039   0.288293  -0.284916   0.493490  -0.201455
         0.290145  -0.150392   0.260486  -0.106340  -0.000427
         0.032923  -0.008771  -0.033353   0.013612  -0.023576
   0 1   1.010938  -0.011975   0.000000   0.000000   0.000000
        -0.054085   0.000000   0.000000  -0.000000  -0.003174
        -0.003174  -0.003174   0.000000   0.000000   0.000000
 MINI         5   5
   1 0  -0.104883   0.308874   0.000000   0.000000   0.521806
   0 1  -0.104883   0.308874   0.491961   0.000000  -0.173934
   0 1  -0.104883   0.308876  -0.245980  -0.426050  -0.173933
   0 1  -0.104883   0.308876  -0.245980   0.426050  -0.173933
   0 1   0.988209   0.063992   0.000000   0.000000   0.000000
 $END
 
 $DATA
 FMO calculation
 C1 
 H.1-1    1
      N31 6
   
 O.1-1    8
      N31 6
      d 1
      1 0.800 1.0
   
 C.1-1    6
      N31 6
      d 1
      1 0.800 1.0
   
 N.1-1    7
      N31 6
      d 1
      1 0.800 1.0
   
 P.1-1   15
      N31 6
      d 1
      1 0.550 1.0
   
 $END
 $FMOXYZ
    1    H    6.435    -4.032    -11.973
    2    O    6.356    -3.074    -11.803
    3    C    7.618    -2.489    -12.157
    4    H    7.861    -2.759    -13.211
    5    H    8.410    -2.920    -11.501
    6    C    7.652    -0.957    -12.030
    7    H    8.665    -0.568    -12.274
    8    O    6.709    -0.353    -12.969
    9    C    6.072    0.758    -12.354
    10    H    6.253    1.627    -13.032
    11    N    4.603    0.538    -12.182
    12    C    4.057    -0.724    -12.271
    13    H    4.759    -1.531    -12.481
    14    C    3.800    1.639    -11.947
    15    O    4.241    2.768    -11.854
    16    N    2.456    1.358    -11.845
    17    H    1.863    2.155    -11.649
    18    C    1.842    0.133    -11.967
    19    O    0.615    0.050    -11.916
    20    C    2.740    -0.960    -12.186
    21    H    2.328    -1.953    -12.346
    22    C    6.789    1.005    -11.038
    23    H    6.118    1.439    -10.271
    24    O    7.896    1.864    -11.240
    25    H    8.348    1.943    -10.391
    26    C    7.235    -0.404    -10.662
    27    H    6.356    -1.007    -10.338
    28    O    8.350    -0.475    -9.738
    29    P    8.024    -0.601    -8.198
    30    O    6.960    -1.604    -8.003
    31    O    9.295    -0.834    -7.478
    32    O    7.468    0.815    -7.827
    33    C    8.349    1.960    -7.822
    34    H    8.850    2.095    -8.807
    35    H    9.152    1.845    -7.053
    36    C    7.554    3.234    -7.516
    37    H    8.219    4.123    -7.504
    38    O    6.552    3.455    -8.552
    39    C    5.369    3.966    -7.951
    40    H    5.130    4.919    -8.478
    41    N    4.232    3.044    -8.103
    42    C    2.907    3.369    -7.985
    43    N    0.427    5.693    -7.293
    44    H    0.946    6.513    -7.055
    45    H    -0.574    5.715    -7.213
    46    N    2.414    4.587    -7.688
    47    C    1.087    4.594    -7.622
    48    N    0.319    3.489    -7.876
    49    H    -0.683    3.578    -7.800
    50    C    0.796    2.231    -8.222
    51    O    0.024    1.296    -8.447
    52    C    2.215    2.201    -8.239
    53    N    3.090    1.147    -8.477
    54    C    4.277    1.694    -8.379
    55    H    5.225    1.174    -8.502
    56    C    5.686    4.258    -6.500
    57    H    4.806    4.128    -5.838
    58    O    6.194    5.575    -6.376
    59    H    6.494    5.686    -5.459
    60    C    6.758    3.215    -6.202
    61    H    6.300    2.206    -6.099
    62    O    7.631    3.531    -5.101
    63    P    7.199    3.201    -3.624
    64    O    6.816    1.772    -3.560
    65    O    8.306    3.637    -2.745
    66    O    5.952    4.125    -3.340
    67    C    5.026    3.798    -2.275
    68    H    5.359    4.269    -1.324
    69    H    4.964    2.694    -2.096
    70    C    3.601    4.283    -2.580
    71    H    3.525    5.388    -2.501
    72    O    3.246    3.922    -3.947
    73    C    1.920    3.469    -3.992
    74    H    1.414    4.075    -4.776
    75    N    1.871    2.057    -4.381
    76    C    1.205    0.107    -5.139
    77    N    2.558    -0.033    -4.855
    78    C    2.910    1.155    -4.429
    79    H    3.921    1.434    -4.120
    80    N    -1.006    -0.311    -5.834
    81    C    -1.281    0.943    -5.480
    82    H    -2.316    1.241    -5.652
    83    N    -0.461    1.891    -5.001
    84    C    0.774    1.391    -4.848
    85    C    0.249    -0.778    -5.673
    86    N    0.520    -2.041    -6.041
    87    H    1.418    -2.466    -5.915
    88    H    -0.223    -2.594    -6.416
    89    C    1.300    3.759    -2.636
    90    H    0.488    3.062    -2.370
    91    O    0.812    5.085    -2.606
    92    H    0.309    5.285    -3.399
    93    C    2.507    3.629    -1.716
    94    H    2.804    2.558    -1.606
    95    O    2.383    4.318    -0.441
    96    P    1.758    3.528    0.773
    97    O    1.373    2.181    0.289
    98    O    2.725    3.581    1.894
    99    O    0.443    4.285    1.186
    100    C    0.435    5.639    1.688
    101    H    0.984    6.325    1.001
    102    H    0.937    5.685    2.677
    103    C    -1.000    6.177    1.869
    104    H    -0.982    7.234    2.219
    105    O    -1.682    6.174    0.581
    106    C    -3.014    5.708    0.741
    107    H    -3.678    6.461    0.259
    108    N    -3.205    4.402    0.085
    109    C    -4.082    2.590    -0.816
    110    N    -2.712    2.483    -0.978
    111    C    -2.236    3.576    -0.436
    112    H    -1.181    3.851    -0.406
    113    N    -6.400    2.183    -0.910
    114    C    -6.557    3.339    -0.265
    115    H    -7.600    3.613    -0.062
    116    N    -5.633    4.206    0.156
    117    C    -4.402    3.769    -0.160
    118    C    -5.147    1.755    -1.214
    119    N    -4.972    0.598    -1.893
    120    H    -4.056    0.247    -2.092
    121    H    -5.761    0.029    -2.114
    122    C    -3.297    5.653    2.228
    123    H    -4.020    4.851    2.496
    124    O    -3.789    6.899    2.680
    125    H    -3.954    6.794    3.626
    126    C    -1.918    5.359    2.801
    127    H    -1.650    4.297    2.621
    128    O    -1.738    5.764    4.180
    129    P    -2.021    4.746    5.350
    130    O    -1.543    3.417    4.927
    131    O    -1.426    5.300    6.584
    132    O    -3.586    4.689    5.494
    133    C    -4.357    5.844    5.886
    134    H    -4.046    6.762    5.330
    135    H    -4.210    6.057    6.969
    136    C    -5.856    5.595    5.658
    137    H    -6.451    6.501    5.892
    138    O    -6.102    5.264    4.260
    139    C    -7.123    4.273    4.189
    140    H    -7.924    4.690    3.536
    141    N    -6.640    3.029    3.597
    142    C    -7.413    2.050    3.032
    143    N    -10.522    0.762    2.192
    144    H    -10.902    -0.074    1.801
    145    H    -11.139    1.457    2.558
    146    N    -8.757    2.056    2.934
    147    C    -9.225    0.945    2.363
    148    N    -8.416    -0.051    1.888
    149    H    -8.843    -0.851    1.456
    150    C    -7.029    -0.059    1.953
    151    O    -6.379    -0.999    1.491
    152    C    -6.524    1.096    2.594
    153    N    -5.217    1.464    2.891
    154    C    -5.336    2.613    3.494
    155    H    -4.510    3.205    3.892
    156    C    -7.665    4.066    5.582
    157    H    -7.992    3.021    5.760
    158    O    -8.743    4.954    5.811
    159    H    -8.922    4.953    6.762
    160    C    -6.461    4.416    6.443
    161    H    -5.710    3.592    6.429
    162    O    -6.808    4.838    7.773
    163    P    -6.754    3.858    8.998
    164    O    -5.369    3.359    9.147
    165    O    -7.338    4.544    10.173
    166    O    -7.646    2.635    8.591
    167    C    -9.083    2.654    8.588
    168    H    -9.468    3.469    7.935
    169    H    -9.467    2.819    9.618
    170    C    -9.673    1.331    8.062
    171    H    -10.780    1.347    8.108
    172    O    -9.311    1.157    6.663
    173    C    -9.040    -0.214    6.406
    174    H    -9.720    -0.503    5.571
    175    N    -7.634    -0.455    5.990
    176    C    -6.665    0.457    6.332
    177    H    -6.997    1.329    6.887
    178    C    -5.393    0.291    5.958
    179    H    -4.604    1.004    6.201
    180    C    -7.291    -1.615    5.300
    181    O    -8.179    -2.440    5.030
    182    N    -6.003    -1.812    4.926
    183    C    -5.088    -0.859    5.188
    184    N    -3.842    -0.968    4.760
    185    H    -3.522    -1.848    4.395
    186    H    -3.157    -0.280    4.983
    187    C    -9.412    -0.991    7.647
    188    H    -8.779    -1.890    7.801
    189    O    -10.774    -1.367    7.576
    190    H    -11.051    -1.609    8.472
    191    C    -9.181    0.043    8.743
    192    H    -8.091    0.174    8.933
    193    O    -9.939    -0.201    9.943
    194    P    -9.289    -0.931    11.174
    195    O    -8.126    -0.130    11.617
    196    O    -10.351    -1.185    12.169
    197    O    -8.759    -2.293    10.599
    198    C    -9.661    -3.373    10.283
    199    H    -10.380    -3.073    9.487
    200    H    -10.253    -3.664    11.179
    201    C    -8.898    -4.611    9.788
    202    H    -9.605    -5.443    9.565
    203    O    -8.212    -4.307    8.540
    204    C    -6.955    -4.977    8.518
    205    H    -6.944    -5.595    7.590
    206    N    -5.805    -4.033    8.468
    207    C    -5.974    -2.713    8.823
    208    H    -6.976    -2.426    9.143
    209    C    -4.966    -1.837    8.747
    210    H    -5.094    -0.787    8.995
    211    C    -4.549    -4.484    8.070
    212    O    -4.396    -5.680    7.775
    213    N    -3.517    -3.617    8.004
    214    C    -3.704    -2.320    8.297
    215    N    -2.680    -1.482    8.178
    216    H    -1.799    -1.830    7.848
    217    H    -2.748    -0.517    8.425
    218    C    -6.910    -5.896    9.727
    219    H    -5.884    -6.025    10.124
    220    O    -7.447    -7.166    9.394
    221    H    -7.576    -7.650    10.222
    222    C    -7.793    -5.139    10.710
    223    H    -7.248    -4.240    11.091
    224    O    -8.371    -5.958    11.748
    225    P    -7.863    -5.837    13.229
    226    O    -7.507    -4.436    13.528
    227    O    -8.832    -6.495    14.133
    228    O    -6.534    -6.679    13.205
    229    C    -6.597    -8.114    13.048
    230    H    -7.164    -8.398    12.133
    231    H    -7.111    -8.575    13.922
    232    C    -5.192    -8.719    12.941
    233    H    -5.235    -9.829    12.908
    234    O    -4.572    -8.271    11.699
    235    C    -3.193    -8.011    11.933
    236    H    -2.645    -8.646    11.198
    237    N    -2.822    -6.587    11.691
    238    C    -3.790    -5.610    11.690
    239    H    -4.810    -5.948    11.869
    240    C    -3.489    -4.325    11.455
    241    H    -4.248    -3.545    11.431
    242    C    -1.489    -6.236    11.499
    243    O    -0.615    -7.115    11.556
    244    N    -1.165    -4.947    11.246
    245    C    -2.122    -4.003    11.221
    246    N    -1.768    -2.742    10.988
    247    H    -0.805    -2.516    10.823
    248    H    -2.426    -1.991    11.036
    249    C    -2.861    -8.486    13.340
    250    H    -2.078    -7.860    13.818
    251    O    -2.447    -9.845    13.310
    252    H    -2.417    -10.183    14.222
    253    C    -4.202    -8.303    14.043
    254    H    -4.365    -7.227    14.281
    255    O    -4.360    -9.113    15.223
    256    H    -3.792    -8.770    15.937
    257    H    8.689    -0.114    8.582
    258    O    8.235    -0.977    8.646
    259    C    9.229    -1.952    8.994
    260    H    9.776    -1.610    9.901
    261    H    9.958    -2.042    8.160
    262    C    8.632    -3.334    9.275
    263    H    9.435    -4.074    9.487
    264    O    7.800    -3.271    10.469
    265    C    6.675    -4.117    10.294
    266    H    6.656    -4.819    11.160
    267    N    5.423    -3.356    10.276
    268    C    4.169    -3.862    10.479
    269    N    2.075    -6.553    11.072
    270    H    2.714    -7.316    11.135
    271    H    1.097    -6.724    11.213
    272    N    3.868    -5.149    10.731
    273    C    2.560    -5.342    10.870
    274    N    1.641    -4.324    10.832
    275    H    0.677    -4.552    11.011
    276    C    1.926    -2.980    10.619
    277    O    1.038    -2.120    10.619
    278    C    3.317    -2.775    10.410
    279    N    4.025    -1.606    10.154
    280    C    5.275    -2.001    10.082
    281    H    6.135    -1.349    9.899
    282    C    6.887    -4.889    9.016
    283    H    5.935    -5.147    8.507
    284    O    7.628    -6.063    9.290
    285    H    7.871    -6.438    8.434
    286    C    7.705    -3.903    8.190
    287    H    7.066    -3.056    7.839
    288    O    8.488    -4.508    7.128
    289    P    7.831    -4.642    5.700
    290    O    7.274    -3.332    5.305
    291    O    8.825    -5.254    4.789
    292    O    6.646    -5.650    5.931
    293    C    6.901    -7.062    6.136
    294    H    7.582    -7.229    7.000
    295    H    7.381    -7.507    5.234
    296    C    5.598    -7.828    6.411
    297    H    5.802    -8.891    6.665
    298    O    4.890    -7.246    7.542
    299    C    3.491    -7.315    7.309
    300    H    3.051    -7.886    8.159
    301    N    2.878    -5.982    7.270
    302    C    1.545    -5.699    7.409
    303    N    -1.734    -6.745    7.841
    304    H    -1.648    -7.739    7.875
    305    H    -2.648    -6.334    7.827
    306    N    0.558    -6.596    7.593
    307    C    -0.638    -6.022    7.685
    308    N    -0.822    -4.665    7.631
    309    H    -1.762    -4.308    7.696
    310    C    0.178    -3.716    7.469
    311    O    -0.079    -2.509    7.442
    312    C    1.452    -4.323    7.336
    313    N    2.701    -3.751    7.141
    314    C    3.518    -4.775    7.099
    315    H    4.600    -4.727    6.953
    316    C    3.284    -8.082    6.021
    317    H    2.408    -7.721    5.444
    318    O    3.145    -9.462    6.304
    319    H    3.129    -9.919    5.454
    320    C    4.580    -7.793    5.271
    321    H    4.587    -6.744    4.897
    322    O    4.934    -8.764    4.254
    323    P    4.442    -8.487    2.776
    324    O    4.741    -7.082    2.417
    325    O    5.000    -9.532    1.890
    326    O    2.885    -8.651    2.853
    327    C    2.242    -9.933    3.003
    328    H    2.639    -10.480    3.888
    329    H    2.416    -10.566    2.104
    330    C    0.724    -9.766    3.183
    331    H    0.232    -10.741    3.383
    332    O    0.457    -8.902    4.327
    333    C    -0.647    -8.067    4.037
    334    H    -1.393    -8.223    4.853
    335    N    -0.257    -6.663    3.992
    336    C    -0.319    -4.476    4.048
    337    N    1.002    -4.814    3.815
    338    C    0.988    -6.120    3.780
    339    H    1.865    -6.745    3.621
    340    N    -2.295    -3.262    4.427
    341    C    -2.930    -4.427    4.482
    342    H    -4.002    -4.341    4.678
    343    N    -2.430    -5.660    4.393
    344    C    -1.107    -5.609    4.149
    345    C    -0.960    -3.241    4.221
    346    N    -0.315    -2.065    4.242
    347    H    0.676    -1.994    4.112
    348    H    -0.804    -1.229    4.487
    349    C    -1.231    -8.520    2.722
    350    H    -1.673    -7.686    2.139
    351    O    -2.205    -9.519    2.958
    352    H    -2.377    -9.952    2.111
    353    C    -0.009    -9.086    2.014
    354    H    0.654    -8.261    1.661
    355    O    -0.317    -10.048    0.979
    356    P    -0.415    -9.565    -0.518
    357    O    0.836    -8.861    -0.881
    358    O    -0.789    -10.709    -1.378
    359    O    -1.582    -8.517    -0.526
    360    C    -2.963    -8.898    -0.363
    361    H    -3.115    -9.472    0.577
    362    H    -3.305    -9.550    -1.197
    363    C    -3.860    -7.655    -0.312
    364    H    -4.919    -7.943    -0.135
    365    O    -3.465    -6.810    0.800
    366    C    -3.636    -5.453    0.439
    367    H    -4.318    -5.013    1.204
    368    N    -2.367    -4.731    0.462
    369    C    -2.215    -3.404    0.732
    370    N    -3.560    -0.323    1.444
    371    H    -3.280    0.528    1.875
    372    H    -4.532    -0.560    1.507
    373    N    -3.208    -2.541    0.991
    374    C    -2.747    -1.323    1.225
    375    N    -1.418    -1.009    1.324
    376    H    -1.165    -0.069    1.574
    377    C    -0.378    -1.894    1.099
    378    O    0.795    -1.529    1.209
    379    C    -0.853    -3.179    0.724
    380    N    -0.162    -4.339    0.383
    381    C    -1.109    -5.233    0.228
    382    H    -0.962    -6.279    -0.043
    383    C    -4.306    -5.419    -0.913
    384    H    -4.003    -4.540    -1.523
    385    O    -5.709    -5.438    -0.731
    386    H    -6.110    -5.596    -1.593
    387    C    -3.820    -6.723    -1.534
    388    H    -2.747    -6.634    -1.832
    389    O    -4.672    -7.244    -2.586
    390    P    -4.282    -7.006    -4.091
    391    O    -2.830    -7.227    -4.278
    392    O    -5.168    -7.815    -4.951
    393    O    -4.578    -5.487    -4.343
    394    C    -5.846    -4.840    -4.109
    395    H    -6.261    -5.136    -3.125
    396    H    -6.595    -5.157    -4.870
    397    C    -5.757    -3.292    -4.103
    398    H    -6.706    -2.873    -3.697
    399    O    -4.652    -2.820    -3.278
    400    C    -3.639    -2.268    -4.107
    401    H    -3.727    -1.161    -4.018
    402    N    -2.309    -2.716    -3.673
    403    C    -1.385    -1.986    -2.962
    404    N    -0.377    0.969    -1.489
    405    H    0.341    1.314    -0.867
    406    H    -1.225    1.504    -1.570
    407    N    -1.524    -0.710    -2.544
    408    C    -0.429    -0.259    -1.942
    409    N    0.703    -1.003    -1.770
    410    H    1.446    -0.615    -1.214
    411    C    0.853    -2.332    -2.135
    412    O    1.911    -2.926    -1.903
    413    C    -0.300    -2.829    -2.800
    414    N    -0.544    -4.074    -3.374
    415    C    -1.749    -3.959    -3.876
    416    H    -2.282    -4.757    -4.393
    417    C    -3.973    -2.691    -5.522
    418    H    -3.640    -3.730    -5.707
    419    O    -3.447    -1.862    -6.529
    420    H    -3.947    -1.036    -6.509
    421    C    -5.496    -2.673    -5.483
    422    H    -5.896    -3.413    -6.216
    423    O    -6.120    -1.360    -5.622
    424    P    -6.683    -0.967    -7.045
    425    O    -5.539    -0.727    -7.957
    426    O    -7.676    -1.968    -7.466
    427    O    -7.394    0.425    -6.841
    428    C    -8.755    0.507    -6.364
    429    H    -9.017    -0.335    -5.679
    430    H    -9.452    0.478    -7.231
    431    C    -8.988    1.814    -5.599
    432    H    -10.046    1.900    -5.271
    433    O    -8.176    1.801    -4.390
    434    C    -7.662    3.098    -4.151
    435    H    -7.943    3.376    -3.108
    436    N    -6.211    3.119    -4.275
    437    C    -4.106    3.702    -4.171
    438    N    -4.128    2.461    -4.781
    439    C    -5.395    2.149    -4.811
    440    H    -5.800    1.215    -5.202
    441    N    -3.361    5.745    -3.244
    442    C    -4.644    6.032    -3.023
    443    H    -4.820    7.006    -2.553
    444    N    -5.727    5.284    -3.265
    445    C    -5.382    4.124    -3.855
    446    C    -3.056    4.564    -3.829
    447    N    -1.769    4.306    -4.049
    448    H    -1.441    3.415    -4.393
    449    H    -1.158    5.070    -3.897
    450    C    -8.324    4.036    -5.127
    451    H    -7.668    4.879    -5.417
    452    O    -9.518    4.539    -4.565
    453    H    -10.022    4.955    -5.281
    454    C    -8.596    3.119    -6.313
    455    H    -7.650    2.910    -6.862
    456    O    -9.666    3.571    -7.170
    457    P    -9.410    4.067    -8.640
    458    O    -8.840    2.966    -9.453
    459    O    -10.650    4.687    -9.143
    460    O    -8.304    5.176    -8.492
    461    C    -8.548    6.434    -7.825
    462    H    -9.079    6.292    -6.855
    463    H    -9.196    7.084    -8.455
    464    C    -7.243    7.206    -7.544
    465    H    -7.468    8.195    -7.085
    466    O    -6.416    6.466    -6.602
    467    C    -5.049    6.557    -6.978
    468    H    -4.517    6.935    -6.073
    469    N    -4.459    5.237    -7.371
    470    C    -5.278    4.203    -7.763
    471    H    -6.344    4.408    -7.737
    472    C    -4.787    3.009    -8.119
    473    H    -5.429    2.180    -8.413
    474    C    -3.079    5.054    -7.385
    475    O    -2.345    6.006    -7.079
    476    N    -2.559    3.850    -7.729
    477    C    -3.373    2.842    -8.092
    478    N    -2.845    1.669    -8.446
    479    H    -1.850    1.538    -8.396
    480    H    -3.420    0.882    -8.662
    481    C    -4.964    7.600    -8.077
    482    H    -4.140    7.401    -8.789
    483    O    -4.811    8.890    -7.512
    484    H    -4.889    9.526    -8.233
    485    C    -6.326    7.437    -8.751
    486    H    -6.335    6.490    -9.336
    487    O    -6.792    8.580    -9.507
    488    P    -6.567    8.603    -11.068
    489    O    -6.918    7.286    -11.639
    490    O    -7.257    9.783    -11.636
    491    O    -5.006    8.794    -11.195
    492    C    -4.407    10.053    -10.806
    493    H    -4.635    10.298    -9.745
    494    H    -4.795    10.885    -11.439
    495    C    -2.881    10.019    -10.945
    496    H    -2.436    11.005    -10.691
    497    O    -2.319    9.044    -10.018
    498    C    -1.231    8.380    -10.642
    499    H    -0.348    8.521    -9.975
    500    N    -1.507    6.946    -10.796
    501    C    -1.281    4.775    -11.055
    502    N    -2.647    5.011    -10.943
    503    C    -2.728    6.311    -10.800
    504    H    -3.656    6.872    -10.680
    505    N    0.819    3.721    -11.372
    506    C    1.359    4.942    -11.295
    507    H    2.448    4.984    -11.405
    508    N    0.758    6.119    -11.086
    509    C    -0.572    5.962    -10.976
    510    C    -0.528    3.596    -11.250
    511    N    -1.069    2.366    -11.308
    512    H    -2.063    2.229    -11.319
    513    H    -0.487    1.559    -11.428
    514    C    -0.973    9.061    -11.977
    515    H    -0.618    8.346    -12.750
    516    O    -0.027    10.105    -11.816
    517    H    -0.018    10.642    -12.626
    518    C    -2.362    9.589    -12.321
    519    H    -3.011    8.769    -12.693
    520    O    -2.367    10.702    -13.234
    521    H    -2.074    10.410    -14.117
 $END
