!*** FMO 5.3 (Gamess) INPUT generated by Facio 22.1.1.32 ***
 $CONTRL RUNTYP=ENERGY NPRINT=-5 ISPHER=1 MAXIT=200 $END
 $SYSTEM MWORDS=63 MEMDDI=63 $END
 $GDDI NGROUP=1 $END
 $SCF DIRSCF=.TRUE. NPUNCH=0 $END
!*** NumCPU : 2  MemPerNode : 512MB
 $PCM SOLVNT=WATER IEF=-10 ICOMP=2 ICAV=1 IDISP=1 IFMO=-1 $END
 $PCMCAV RADII=SUAHF $END
 $TESCAV NTSALL=60 $END
 $FMOPRP
    NAODIR=200
    NGRFMO(1)=1, 1, 0, 0, 0,   0, 0, 0, 0, 0
    IPIEDA=1
    NPRINT=9
 $END
 $FMO
      SCFTYP(1)=RHF
      MODGRD=10
      MODMUL=0
      MAXCAO=5
      MAXBND=10
      NLAYER=1
      MPLEVL(1)=2
      NFRAG=8
      ICHARG(1)=-1, -1, -1, -1, -1, -1, -1, 0
      FRGNAM(1)=F1, F2, F3, F4, F5, F6, F7, F8
      indat(1)=0
               1   -35   0
               36   -66   0
               67   -96   0
               97   -126   0
               127   -157   0
               158   -191   0
               192   -225   0
               226   -252   0
 $END

 $FMOBND
   -36   35       6-31G*    MINI
   -67   66       6-31G*    MINI
   -97   96       6-31G*    MINI
   -127   126       6-31G*    MINI
   -158   157       6-31G*    MINI
   -192   191       6-31G*    MINI
   -226   225       6-31G*    MINI
 $END
 $FMOHYB
 6-31G*      15   5
   1 0  -0.065034   0.288264   0.000000   0.000000   0.604412
         0.290129   0.000000   0.000000   0.319045  -0.017106
        -0.017106   0.057934   0.000000   0.000000   0.000000
   0 1  -0.065040   0.288293   0.569832   0.000000  -0.201456
         0.290147   0.300783   0.000000  -0.106342   0.049598
        -0.017106  -0.008771   0.000000  -0.027223   0.000000
   0 1  -0.065039   0.288293  -0.284916  -0.493490  -0.201455
         0.290145  -0.150392  -0.260486  -0.106340  -0.000427
         0.032923  -0.008771   0.033353   0.013612   0.023576
   0 1  -0.065039   0.288293  -0.284916   0.493490  -0.201455
         0.290145  -0.150392   0.260486  -0.106340  -0.000427
         0.032923  -0.008771  -0.033353   0.013612  -0.023576
   0 1   1.010938  -0.011975   0.000000   0.000000   0.000000
        -0.054085   0.000000   0.000000  -0.000000  -0.003174
        -0.003174  -0.003174   0.000000   0.000000   0.000000
 MINI         5   5
   1 0  -0.104883   0.308874   0.000000   0.000000   0.521806
   0 1  -0.104883   0.308874   0.491961   0.000000  -0.173934
   0 1  -0.104883   0.308876  -0.245980  -0.426050  -0.173933
   0 1  -0.104883   0.308876  -0.245980   0.426050  -0.173933
   0 1   0.988209   0.063992   0.000000   0.000000   0.000000
 $END
 
 $DATA
 FMO calculation
 C1 
 H.1-1    1
      N31 6
   
 O.1-1    8
      N31 6
      d 1
      1 0.800 1.0
   
 C.1-1    6
      N31 6
      d 1
      1 0.800 1.0
   
 N.1-1    7
      N31 6
      d 1
      1 0.800 1.0
   
 P.1-1   15
      N31 6
      d 1
      1 0.550 1.0
   
 $END
 $FMOXYZ
    1    H    -1.969    -7.420    -6.409
    2    O    -1.555    -6.536    -6.401
    3    C    -1.874    -5.914    -7.654
    4    H    -2.979    -5.923    -7.797
    5    H    -1.414    -6.505    -8.476
    6    C    -1.374    -4.468    -7.746
    7    H    -1.605    -4.029    -8.739
    8    O    -2.043    -3.648    -6.742
    9    C    -1.124    -2.701    -6.223
    10    H    -1.574    -1.694    -6.383
    11    N    -0.906    -2.904    -4.786
    12    C    -0.421    -2.601    -2.661
    13    N    -0.929    -3.888    -2.763
    14    C    -1.206    -4.021    -4.039
    15    H    -1.655    -4.909    -4.496
    16    N    0.491    -0.592    -1.804
    17    C    0.494    -0.147    -3.065
    18    H    0.875    0.872    -3.206
    19    N    0.057    -0.752    -4.176
    20    C    -0.390    -1.988    -3.902
    21    C    0.029    -1.843    -1.558
    22    N    0.019    -2.297    -0.290
    23    H    -0.322    -3.214    -0.057
    24    H    0.409    -1.740    0.446
    25    C    0.150    -2.815    -7.029
    26    H    1.056    -2.593    -6.430
    27    O    0.081    -1.951    -8.145
    28    H    0.875    -2.114    -8.669
    29    C    0.121    -4.280    -7.461
    30    H    0.365    -4.937    -6.594
    31    O    0.896    -4.593    -8.647
    32    P    2.400    -5.039    -8.453
    33    O    2.447    -6.141    -7.470
    34    O    3.008    -5.307    -9.774
    35    O    3.082    -3.770    -7.825
    36    C    3.330    -2.599    -8.642
    37    H    2.399    -2.220    -9.118
    38    H    4.045    -2.831    -9.462
    39    C    3.938    -1.470    -7.805
    40    H    4.063    -0.550    -8.417
    41    O    3.062    -1.133    -6.696
    42    C    3.853    -0.741    -5.586
    43    H    3.553    0.311    -5.364
    44    N    3.622    -1.572    -4.376
    45    C    3.116    -2.845    -4.504
    46    H    2.918    -3.181    -5.523
    47    C    2.862    -3.603    -3.429
    48    H    2.425    -4.596    -3.507
    49    C    3.939    -1.074    -3.112
    50    O    4.411    0.069    -3.009
    51    N    3.712    -1.837    -2.019
    52    C    3.165    -3.056    -2.147
    53    N    2.897    -3.755    -1.050
    54    H    3.126    -3.351    -0.161
    55    H    2.476    -4.663    -1.083
    56    C    5.297    -0.756    -6.035
    57    H    5.985    -1.056    -5.220
    58    O    5.650    0.517    -6.542
    59    H    6.495    0.398    -6.989
    60    C    5.284    -1.798    -7.145
    61    H    5.215    -2.833    -6.729
    62    O    6.348    -1.653    -8.112
    63    P    7.727    -2.368    -7.868
    64    O    7.470    -3.823    -7.792
    65    O    8.667    -1.928    -8.919
    66    O    8.230    -1.857    -6.467
    67    C    8.797    -0.534    -6.308
    68    H    8.110    0.253    -6.683
    69    H    9.749    -0.436    -6.882
    70    C    9.095    -0.222    -4.833
    71    H    9.442    0.828    -4.724
    72    O    7.910    -0.372    -4.010
    73    C    8.287    -0.778    -2.708
    74    H    7.970    0.052    -2.033
    75    N    7.627    -2.050    -2.312
    76    C    7.244    -2.975    -3.253
    77    H    7.461    -2.701    -4.288
    78    C    7.366    -2.257    -0.978
    79    O    7.648    -1.435    -0.117
    80    N    6.744    -3.442    -0.678
    81    H    6.587    -3.627    0.298
    82    C    6.309    -4.403    -1.567
    83    O    5.699    -5.394    -1.172
    84    C    6.601    -4.110    -2.939
    85    H    6.260    -4.806    -3.699
    86    C    9.802    -0.881    -2.700
    87    H    10.174    -1.704    -2.054
    88    O    10.369    0.346    -2.297
    89    H    11.304    0.271    -2.508
    90    C    10.122    -1.135    -4.168
    91    H    9.863    -2.177    -4.464
    92    O    11.452    -0.747    -4.579
    93    P    12.652    -1.732    -4.348
    94    O    12.217    -3.119    -4.630
    95    O    13.814    -1.205    -5.089
    96    O    12.939    -1.584    -2.804
    97    C    14.177    -2.105    -2.261
    98    H    14.982    -2.213    -3.028
    99    H    13.985    -3.118    -1.850
    100    C    14.748    -1.230    -1.131
    101    H    15.632    -1.743    -0.693
    102    O    15.208    0.046    -1.659
    103    C    14.496    1.102    -1.051
    104    H    15.144    1.453    -0.212
    105    N    14.223    2.169    -2.050
    106    C    13.523    1.865    -3.193
    107    H    13.280    0.811    -3.315
    108    C    14.692    3.443    -1.825
    109    O    15.300    3.755    -0.805
    110    N    14.417    4.344    -2.824
    111    H    14.757    5.282    -2.670
    112    C    13.739    4.110    -4.004
    113    O    13.603    5.011    -4.832
    114    C    13.249    2.770    -4.145
    115    H    12.730    2.499    -5.062
    116    C    13.241    0.495    -0.462
    117    H    12.480    0.359    -1.249
    118    O    12.720    1.270    0.596
    119    H    11.894    0.862    0.889
    120    C    13.736    -0.880    -0.012
    121    H    12.885    -1.600    -0.060
    122    O    14.338    -0.857    1.299
    123    P    14.527    -2.167    2.140
    124    O    15.270    -3.158    1.326
    125    O    15.131    -1.808    3.438
    126    O    13.078    -2.717    2.385
    127    C    12.281    -2.189    3.472
    128    H    11.927    -1.162    3.216
    129    H    12.866    -2.130    4.423
    130    C    11.039    -3.050    3.759
    131    H    10.433    -2.560    4.547
    132    O    10.217    -3.198    2.567
    133    C    10.147    -4.566    2.208
    134    H    9.183    -4.916    2.642
    135    N    10.171    -4.757    0.739
    136    C    11.139    -4.116    0.009
    137    H    11.807    -3.471    0.580
    138    C    11.192    -4.231    -1.325
    139    H    11.927    -3.709    -1.932
    140    C    9.247    -5.586    0.105
    141    O    8.391    -6.172    0.787
    142    N    9.289    -5.714    -1.246
    143    C    10.203    -5.034    -1.962
    144    N    10.172    -5.106    -3.294
    145    H    10.861    -4.640    -3.856
    146    H    9.553    -5.761    -3.730
    147    C    11.274    -5.278    2.926
    148    H    12.242    -5.163    2.381
    149    O    10.978    -6.641    3.157
    150    H    10.246    -6.658    3.795
    151    C    11.324    -4.484    4.231
    152    H    12.364    -4.505    4.627
    153    O    10.346    -4.918    5.204
    154    P    10.736    -5.299    6.680
    155    O    9.682    -6.207    7.186
    156    O    12.129    -5.798    6.735
    157    O    10.679    -3.968    7.509
    158    C    9.456    -3.246    7.761
    159    H    8.920    -3.684    8.632
    160    H    8.772    -3.289    6.882
    161    C    9.737    -1.765    8.063
    162    H    10.206    -1.655    9.064
    163    O    10.685    -1.232    7.095
    164    C    10.424    0.137    6.893
    165    H    11.345    0.684    7.196
    166    N    10.130    0.401    5.483
    167    C    10.624    1.440    4.748
    168    N    12.541    4.316    4.509
    169    H    12.788    4.983    3.808
    170    H    12.866    4.441    5.447
    171    N    11.446    2.406    5.200
    172    C    11.772    3.276    4.242
    173    N    11.326    3.175    2.952
    174    H    11.631    3.858    2.281
    175    C    10.482    2.186    2.467
    176    O    10.138    2.188    1.283
    177    C    10.115    1.265    3.478
    178    N    9.297    0.145    3.419
    179    C    9.325    -0.329    4.637
    180    H    8.808    -1.236    4.962
    181    C    9.282    0.526    7.801
    182    H    8.641    1.301    7.339
    183    O    9.771    1.006    9.041
    184    H    9.005    1.142    9.621
    185    C    8.538    -0.801    7.962
    186    H    7.984    -1.061    7.033
    187    O    7.696    -0.909    9.129
    188    P    6.308    -0.150    9.202
    189    O    5.364    -0.830    8.283
    190    O    5.897    -0.071    10.623
    191    O    6.558    1.333    8.720
    192    C    5.535    2.083    8.016
    193    H    5.178    2.921    8.655
    194    H    4.639    1.469    7.765
    195    C    6.057    2.671    6.693
    196    H    6.781    3.495    6.890
    197    O    6.763    1.651    5.937
    198    C    6.466    1.778    4.561
    199    H    7.435    1.856    4.023
    200    N    5.745    0.599    4.069
    201    C    5.394    0.343    2.771
    202    N    5.374    1.238    -0.573
    203    H    5.080    0.831    -1.440
    204    H    5.881    2.099    -0.570
    205    N    5.621    1.146    1.718
    206    C    5.234    0.595    0.572
    207    N    4.600    -0.616    0.496
    208    H    4.339    -0.963    -0.414
    209    C    4.337    -1.460    1.566
    210    O    3.778    -2.549    1.403
    211    C    4.771    -0.890    2.794
    212    N    4.707    -1.390    4.089
    213    C    5.305    -0.476    4.815
    214    H    5.462    -0.520    5.898
    215    C    5.681    3.058    4.382
    216    H    4.947    2.999    3.552
    217    O    6.560    4.147    4.157
    218    H    6.026    4.948    4.210
    219    C    4.974    3.164    5.724
    220    H    4.159    2.403    5.771
    221    O    4.549    4.500    6.078
    222    P    3.020    4.869    5.978
    223    O    2.217    3.709    6.418
    224    O    2.787    6.159    6.666
    225    O    2.815    5.064    4.427
    226    C    3.493    6.142    3.737
    227    H    4.598    6.091    3.885
    228    H    3.142    7.127    4.123
    229    C    3.215    6.118    2.226
    230    H    3.658    7.007    1.728
    231    O    3.826    4.937    1.631
    232    C    2.960    4.406    0.631
    233    H    3.562    4.358    -0.308
    234    N    2.470    3.045    0.987
    235    C    2.492    2.597    2.291
    236    H    2.944    3.278    3.009
    237    C    1.971    2.249    -0.020
    238    O    1.902    2.620    -1.187
    239    N    1.550    1.007    0.378
    240    H    1.186    0.420    -0.365
    241    C    1.545    0.492    1.658
    242    O    1.124    -0.645    1.863
    243    C    2.062    1.380    2.654
    244    H    2.116    1.039    3.686
    245    C    1.818    5.396    0.446
    246    H    0.865    4.886    0.186
    247    O    2.155    6.338    -0.560
    248    H    1.520    7.072    -0.525
    249    C    1.736    6.030    1.830
    250    H    1.228    5.337    2.535
    251    O    1.112    7.330    1.850
    252    H    0.166    7.256    1.613
 $END
