!*** FMO 5.3 (Gamess) INPUT generated by Facio 22.1.1.32 ***
 $CONTRL RUNTYP=ENERGY NPRINT=-5 ISPHER=1 MAXIT=200 $END
 $SYSTEM MWORDS=63 MEMDDI=63 $END
 $GDDI NGROUP=1 $END
 $SCF DIRSCF=.TRUE. NPUNCH=0 $END
!*** NumCPU : 2  MemPerNode : 512MB
 $PCM SOLVNT=WATER IEF=-10 ICOMP=2 ICAV=1 IDISP=1 IFMO=-1 $END
 $PCMCAV RADII=SUAHF $END
 $TESCAV NTSALL=60 $END
 $FMOPRP
    NAODIR=200
    NGRFMO(1)=1, 1, 0, 0, 0,   0, 0, 0, 0, 0
    IPIEDA=1
    NPRINT=9
 $END
 $FMO
      SCFTYP(1)=RHF
      MODGRD=10
      MODMUL=0
      MAXCAO=5
      MAXBND=10
      NLAYER=1
      MPLEVL(1)=2
      NFRAG=8
      ICHARG(1)=-1, -1, -1, -1, -1, -1, -1, 0
      FRGNAM(1)=F1, F2, F3, F4, F5, F6, F7, F8
      indat(1)=0
               1   -35   0
               36   -66   0
               67   -96   0
               97   -126   0
               127   -157   0
               158   -191   0
               192   -225   0
               226   -252   0
 $END

 $FMOBND
   -36   35       6-31G*    MINI
   -67   66       6-31G*    MINI
   -97   96       6-31G*    MINI
   -127   126       6-31G*    MINI
   -158   157       6-31G*    MINI
   -192   191       6-31G*    MINI
   -226   225       6-31G*    MINI
 $END
 $FMOHYB
 6-31G*      15   5
   1 0  -0.065034   0.288264   0.000000   0.000000   0.604412
         0.290129   0.000000   0.000000   0.319045  -0.017106
        -0.017106   0.057934   0.000000   0.000000   0.000000
   0 1  -0.065040   0.288293   0.569832   0.000000  -0.201456
         0.290147   0.300783   0.000000  -0.106342   0.049598
        -0.017106  -0.008771   0.000000  -0.027223   0.000000
   0 1  -0.065039   0.288293  -0.284916  -0.493490  -0.201455
         0.290145  -0.150392  -0.260486  -0.106340  -0.000427
         0.032923  -0.008771   0.033353   0.013612   0.023576
   0 1  -0.065039   0.288293  -0.284916   0.493490  -0.201455
         0.290145  -0.150392   0.260486  -0.106340  -0.000427
         0.032923  -0.008771  -0.033353   0.013612  -0.023576
   0 1   1.010938  -0.011975   0.000000   0.000000   0.000000
        -0.054085   0.000000   0.000000  -0.000000  -0.003174
        -0.003174  -0.003174   0.000000   0.000000   0.000000
 MINI         5   5
   1 0  -0.104883   0.308874   0.000000   0.000000   0.521806
   0 1  -0.104883   0.308874   0.491961   0.000000  -0.173934
   0 1  -0.104883   0.308876  -0.245980  -0.426050  -0.173933
   0 1  -0.104883   0.308876  -0.245980   0.426050  -0.173933
   0 1   0.988209   0.063992   0.000000   0.000000   0.000000
 $END
 
 $DATA
 FMO calculation
 C1 
 H.1-1    1
      N31 6
   
 O.1-1    8
      N31 6
      d 1
      1 0.800 1.0
   
 C.1-1    6
      N31 6
      d 1
      1 0.800 1.0
   
 N.1-1    7
      N31 6
      d 1
      1 0.800 1.0
   
 P.1-1   15
      N31 6
      d 1
      1 0.550 1.0
   
 $END
 $FMOXYZ
    1    H    0.027    -8.417    -5.306
    2    O    -0.030    -7.450    -5.190
    3    C    -0.706    -6.935    -6.345
    4    H    -1.742    -7.342    -6.375
    5    H    -0.175    -7.277    -7.260
    6    C    -0.773    -5.405    -6.368
    7    H    -1.290    -5.050    -7.285
    8    O    -1.536    -4.916    -5.225
    9    C    -0.934    -3.726    -4.741
    10    H    -1.728    -2.945    -4.741
    11    N    -0.436    -3.901    -3.373
    12    C    0.244    -3.534    -1.312
    13    N    0.203    -4.914    -1.467
    14    C    -0.210    -5.081    -2.702
    15    H    -0.371    -6.047    -3.188
    16    N    0.513    -1.365    -0.398
    17    C    0.150    -0.900    -1.600
    18    H    0.125    0.191    -1.688
    19    N    -0.208    -1.576    -2.697
    20    C    -0.142    -2.900    -2.482
    21    C    0.577    -2.710    -0.215
    22    N    0.946    -3.189    0.990
    23    H    0.970    -4.173    1.184
    24    H    1.199    -2.564    1.733
    25    C    0.159    -3.335    -5.716
    26    H    1.008    -2.812    -5.228
    27    O    -0.392    -2.516    -6.732
    28    H    0.307    -2.362    -7.381
    29    C    0.583    -4.696    -6.261
    30    H    1.178    -5.250    -5.496
    31    O    1.217    -4.672    -7.559
    32    P    2.789    -4.630    -7.654
    33    O    3.359    -5.677    -6.786
    34    O    3.182    -4.675    -9.078
    35    O    3.152    -3.216    -7.066
    36    C    2.822    -2.040    -7.843
    37    H    1.742    -2.011    -8.111
    38    H    3.401    -2.027    -8.794
    39    C    3.150    -0.758    -7.078
    40    H    2.841    0.136    -7.665
    41    O    2.411    -0.704    -5.823
    42    C    3.232    -0.093    -4.835
    43    H    2.644    0.784    -4.480
    44    N    3.517    -0.985    -3.677
    45    C    3.431    -2.350    -3.816
    46    H    3.154    -2.711    -4.808
    47    C    3.651    -3.170    -2.779
    48    H    3.556    -4.251    -2.862
    49    C    3.871    -0.434    -2.446
    50    O    3.930    0.800    -2.330
    51    N    4.117    -1.249    -1.395
    52    C    4.007    -2.581    -1.531
    53    N    4.218    -3.358    -0.470
    54    H    4.434    -2.928    0.410
    55    H    4.135    -4.354    -0.506
    56    C    4.496    0.403    -5.525
    57    H    5.393    0.353    -4.870
    58    O    4.294    1.727    -5.989
    59    H    5.041    1.964    -6.560
    60    C    4.617    -0.574    -6.686
    61    H    4.970    -1.566    -6.319
    62    O    5.370    -0.069    -7.811
    63    P    6.700    -0.770    -8.265
    64    O    6.527    -2.238    -8.280
    65    O    7.166    -0.141    -9.517
    66    O    7.715    -0.387    -7.129
    67    C    9.030    -1.003    -7.132
    68    H    9.677    -0.522    -7.899
    69    H    8.976    -2.094    -7.364
    70    C    9.694    -0.838    -5.755
    71    H    9.935    0.237    -5.609
    72    O    8.789    -1.275    -4.699
    73    C    9.247    -2.489    -4.137
    74    H    9.640    -2.198    -3.136
    75    N    8.135    -3.467    -4.038
    76    C    7.294    -3.681    -5.107
    77    H    7.509    -3.088    -6.000
    78    C    7.939    -4.118    -2.843
    79    O    8.659    -3.942    -1.868
    80    N    6.868    -4.969    -2.811
    81    H    6.736    -5.460    -1.939
    82    C    5.987    -5.240    -3.832
    83    O    5.067    -6.035    -3.649
    84    C    6.243    -4.516    -5.042
    85    H    5.559    -4.652    -5.875
    86    C    10.408    -2.986    -4.984
    87    H    10.055    -3.631    -5.818
    88    O    11.371    -3.669    -4.206
    89    H    11.719    -2.994    -3.612
    90    C    10.969    -1.671    -5.530
    91    H    11.434    -1.876    -6.525
    92    O    11.887    -1.012    -4.618
    93    P    13.153    -0.261    -5.177
    94    O    14.234    -1.247    -5.403
    95    O    12.761    0.564    -6.336
    96    O    13.589    0.700    -3.999
    97    C    12.792    1.827    -3.577
    98    H    11.831    1.903    -4.143
    99    H    13.352    2.766    -3.781
    100    C    12.481    1.786    -2.069
    101    H    13.338    2.187    -1.486
    102    O    11.289    2.591    -1.820
    103    C    10.199    1.736    -1.534
    104    H    10.067    1.810    -0.433
    105    N    8.969    2.171    -2.251
    106    C    8.636    1.663    -3.486
    107    H    9.274    0.890    -3.890
    108    C    8.214    3.172    -1.681
    109    O    8.511    3.693    -0.610
    110    N    7.113    3.553    -2.402
    111    H    6.591    4.327    -2.032
    112    C    6.746    3.118    -3.656
    113    O    5.791    3.638    -4.226
    114    C    7.573    2.078    -4.187
    115    H    7.346    1.671    -5.171
    116    C    10.631    0.314    -1.826
    117    H    10.517    0.046    -2.891
    118    O    9.945    -0.627    -1.028
    119    H    10.299    -0.589    -0.127
    120    C    12.123    0.385    -1.527
    121    H    12.629    -0.368    -2.167
    122    O    12.458    0.233    -0.132
    123    P    12.975    -1.170    0.372
    124    O    13.317    -2.049    -0.765
    125    O    14.063    -0.933    1.343
    126    O    11.714    -1.747    1.111
    127    C    11.759    -2.076    2.516
    128    H    11.494    -1.178    3.119
    129    H    12.774    -2.405    2.834
    130    C    10.770    -3.202    2.869
    131    H    9.740    -2.812    2.870
    132    O    10.783    -4.272    1.892
    133    C    11.396    -5.416    2.437
    134    H    10.549    -6.112    2.648
    135    N    12.354    -6.024    1.484
    136    C    13.164    -5.205    0.733
    137    H    13.027    -4.129    0.878
    138    C    14.024    -5.712    -0.162
    139    H    14.666    -5.080    -0.773
    140    C    12.436    -7.408    1.343
    141    O    11.705    -8.136    2.033
    142    N    13.308    -7.937    0.452
    143    C    14.071    -7.130    -0.305
    144    N    14.882    -7.686    -1.206
    145    H    14.880    -8.682    -1.299
    146    H    15.470    -7.141    -1.808
    147    C    12.022    -5.020    3.755
    148    H    13.048    -4.617    3.597
    149    O    12.060    -6.108    4.655
    150    H    11.145    -6.339    4.876
    151    C    11.087    -3.885    4.208
    152    H    11.658    -3.155    4.827
    153    O    9.866    -4.287    4.868
    154    P    9.789    -4.478    6.427
    155    O    9.184    -5.804    6.676
    156    O    11.126    -4.254    7.026
    157    O    8.749    -3.395    6.937
    158    C    8.946    -2.782    8.244
    159    H    9.704    -3.330    8.868
    160    H    7.991    -2.834    8.815
    161    C    9.377    -1.292    8.167
    162    H    9.987    -1.022    9.057
    163    O    10.206    -1.059    6.985
    164    C    9.898    0.192    6.403
    165    H    10.857    0.752    6.317
    166    N    9.312    0.036    5.055
    167    C    9.279    0.981    4.058
    168    N    10.006    4.163    2.906
    169    H    9.935    4.691    2.059
    170    H    10.431    4.580    3.711
    171    N    9.762    2.232    4.137
    172    C    9.597    2.911    3.001
    173    N    9.004    2.379    1.884
    174    H    8.910    2.951    1.061
    175    C    8.487    1.095    1.782
    176    O    7.942    0.684    0.754
    177    C    8.661    0.368    2.985
    178    N    8.299    -0.928    3.299
    179    C    8.700    -1.083    4.537
    180    H    8.584    -1.996    5.119
    181    C    8.979    0.908    7.361
    182    H    8.274    1.541    6.813
    183    O    9.721    1.694    8.276
    184    H    9.112    1.995    8.969
    185    C    8.253    -0.246    8.043
    186    H    7.509    -0.692    7.346
    187    O    7.699    0.099    9.337
    188    P    6.137    0.229    9.533
    189    O    5.521    -1.070    9.186
    190    O    5.880    0.745    10.896
    191    O    5.674    1.304    8.479
    192    C    5.952    2.710    8.659
    193    H    6.993    2.870    9.020
    194    H    5.250    3.150    9.402
    195    C    5.800    3.513    7.357
    196    H    6.106    4.569    7.509
    197    O    6.662    2.964    6.327
    198    C    5.986    2.930    5.091
    199    H    6.664    3.408    4.347
    200    N    5.691    1.556    4.656
    201    C    5.333    1.189    3.391
    202    N    4.642    2.023    0.101
    203    H    4.713    3.019    0.104
    204    H    4.440    1.544    -0.758
    205    N    5.182    2.024    2.345
    206    C    4.864    1.371    1.228
    207    N    4.685    0.014    1.176
    208    H    4.471    -0.405    0.285
    209    C    4.846    -0.869    2.237
    210    O    4.686    -2.083    2.077
    211    C    5.164    -0.182    3.436
    212    N    5.386    -0.668    4.717
    213    C    5.702    0.400    5.405
    214    H    5.973    0.406    6.456
    215    C    4.738    3.754    5.260
    216    H    3.920    3.430    4.587
    217    O    5.043    5.112    5.015
    218    H    4.265    5.625    5.264
    219    C    4.407    3.508    6.728
    220    H    4.007    2.478    6.871
    221    O    3.594    4.530    7.345
    222    P    2.047    4.300    7.494
    223    O    1.802    2.892    7.873
    224    O    1.485    5.339    8.387
    225    O    1.509    4.515    6.028
    226    C    1.653    5.781    5.346
    227    H    2.704    6.147    5.357
    228    H    1.037    6.557    5.847
    229    C    1.181    5.699    3.886
    230    H    1.188    6.702    3.410
    231    O    2.079    4.846    3.111
    232    C    1.313    4.078    2.188
    233    H    1.739    4.296    1.181
    234    N    1.403    2.616    2.472
    235    C    1.786    2.154    3.711
    236    H    1.996    2.924    4.451
    237    C    1.097    1.735    1.459
    238    O    0.737    2.103    0.346
    239    N    1.223    0.411    1.785
    240    H    0.999    -0.239    1.040
    241    C    1.610    -0.122    2.995
    242    O    1.677    -1.341    3.134
    243    C    1.914    0.852    3.998
    244    H    2.240    0.516    4.979
    245    C    -0.117    4.596    2.244
    246    H    -0.858    3.790    2.053
    247    O    -0.293    5.649    1.306
    248    H    -1.159    6.074    1.456
    249    C    -0.206    5.079    3.685
    250    H    -0.308    4.213    4.374
    251    O    -1.240    6.049    3.928
    252    H    -2.116    5.628    3.847
 $END
