!*** FMO 5.3 (Gamess) INPUT generated by Facio 22.1.1.32 ***
 $CONTRL RUNTYP=ENERGY NPRINT=-5 ISPHER=1 MAXIT=200 $END
 $SYSTEM MWORDS=63 MEMDDI=63 $END
 $GDDI NGROUP=1 $END
 $SCF DIRSCF=.TRUE. NPUNCH=0 $END
!*** NumCPU : 2  MemPerNode : 512MB
 $PCM SOLVNT=WATER IEF=-10 ICOMP=2 ICAV=1 IDISP=1 IFMO=-1 $END
 $PCMCAV RADII=SUAHF $END
 $TESCAV NTSALL=60 $END
 $FMOPRP
    NAODIR=200
    NGRFMO(1)=1, 1, 0, 0, 0,   0, 0, 0, 0, 0
    IPIEDA=1
    NPRINT=9
 $END
 $FMO
      SCFTYP(1)=RHF
      MODGRD=10
      MODMUL=0
      MAXCAO=5
      MAXBND=10
      NLAYER=1
      MPLEVL(1)=2
      NFRAG=8
      ICHARG(1)=-1, -1, -1, -1, -1, -1, -1, 0
      FRGNAM(1)=F1, F2, F3, F4, F5, F6, F7, F8
      indat(1)=0
               1   -35   0
               36   -66   0
               67   -96   0
               97   -126   0
               127   -157   0
               158   -191   0
               192   -225   0
               226   -252   0
 $END

 $FMOBND
   -36   35       6-31G*    MINI
   -67   66       6-31G*    MINI
   -97   96       6-31G*    MINI
   -127   126       6-31G*    MINI
   -158   157       6-31G*    MINI
   -192   191       6-31G*    MINI
   -226   225       6-31G*    MINI
 $END
 $FMOHYB
 6-31G*      15   5
   1 0  -0.065034   0.288264   0.000000   0.000000   0.604412
         0.290129   0.000000   0.000000   0.319045  -0.017106
        -0.017106   0.057934   0.000000   0.000000   0.000000
   0 1  -0.065040   0.288293   0.569832   0.000000  -0.201456
         0.290147   0.300783   0.000000  -0.106342   0.049598
        -0.017106  -0.008771   0.000000  -0.027223   0.000000
   0 1  -0.065039   0.288293  -0.284916  -0.493490  -0.201455
         0.290145  -0.150392  -0.260486  -0.106340  -0.000427
         0.032923  -0.008771   0.033353   0.013612   0.023576
   0 1  -0.065039   0.288293  -0.284916   0.493490  -0.201455
         0.290145  -0.150392   0.260486  -0.106340  -0.000427
         0.032923  -0.008771  -0.033353   0.013612  -0.023576
   0 1   1.010938  -0.011975   0.000000   0.000000   0.000000
        -0.054085   0.000000   0.000000  -0.000000  -0.003174
        -0.003174  -0.003174   0.000000   0.000000   0.000000
 MINI         5   5
   1 0  -0.104883   0.308874   0.000000   0.000000   0.521806
   0 1  -0.104883   0.308874   0.491961   0.000000  -0.173934
   0 1  -0.104883   0.308876  -0.245980  -0.426050  -0.173933
   0 1  -0.104883   0.308876  -0.245980   0.426050  -0.173933
   0 1   0.988209   0.063992   0.000000   0.000000   0.000000
 $END
 
 $DATA
 FMO calculation
 C1 
 H.1-1    1
      N31 6
   
 O.1-1    8
      N31 6
      d 1
      1 0.800 1.0
   
 C.1-1    6
      N31 6
      d 1
      1 0.800 1.0
   
 N.1-1    7
      N31 6
      d 1
      1 0.800 1.0
   
 P.1-1   15
      N31 6
      d 1
      1 0.550 1.0
   
 $END
 $FMOXYZ
    1    H    -4.878    -4.294    -5.834
    2    O    -4.253    -3.549    -5.765
    3    C    -4.296    -2.860    -7.022
    4    H    -5.338    -2.520    -7.217
    5    H    -4.001    -3.567    -7.826
    6    C    -3.360    -1.650    -7.066
    7    H    -3.385    -1.161    -8.063
    8    O    -3.776    -0.663    -6.079
    9    C    -2.628    -0.065    -5.504
    10    H    -2.723    1.032    -5.676
    11    N    -2.567    -0.312    -4.062
    12    C    -2.123    -0.171    -1.914
    13    N    -2.994    -1.242    -2.059
    14    C    -3.238    -1.280    -3.347
    15    H    -3.894    -1.998    -3.845
    16    N    -0.658    1.437    -0.985
    17    C    -0.454    1.860    -2.237
    18    H    0.224    2.715    -2.334
    19    N    -1.027    1.451    -3.376
    20    C    -1.845    0.407    -3.142
    21    C    -1.508    0.399    -0.781
    22    N    -1.740    -0.022    0.477
    23    H    -2.327    -0.813    0.665
    24    H    -1.222    0.368    1.242
    25    C    -1.415    -0.588    -6.246
    26    H    -0.516    -0.666    -5.601
    27    O    -1.135    0.252    -7.346
    28    H    -0.412    -0.161    -7.837
    29    C    -1.900    -1.958    -6.709
    30    H    -1.921    -2.664    -5.845
    31    O    -1.224    -2.503    -7.868
    32    P    0.045    -3.414    -7.634
    33    O    -0.294    -4.450    -6.633
    34    O    0.512    -3.901    -8.949
    35    O    1.110    -2.438    -7.016
    36    C    1.804    -1.496    -7.865
    37    H    1.090    -0.822    -8.394
    38    H    2.407    -2.029    -8.641
    39    C    2.772    -0.626    -7.052
    40    H    3.226    0.160    -7.697
    41    O    2.064    0.048    -5.969
    42    C    2.914    0.126    -4.828
    43    H    3.004    1.218    -4.611
    44    N    2.352    -0.561    -3.631
    45    C    1.394    -1.539    -3.775
    46    H    1.089    -1.758    -4.800
    47    C    0.854    -2.147    -2.710
    48    H    0.073    -2.900    -2.802
    49    C    2.807    -0.220    -2.358
    50    O    3.673    0.662    -2.241
    51    N    2.288    -0.840    -1.275
    52    C    1.327    -1.767    -1.420
    53    N    0.807    -2.325    -0.330
    54    H    1.142    -2.029    0.568
    55    H    0.110    -3.042    -0.371
    56    C    4.276    -0.416    -5.229
    57    H    4.793    -0.938    -4.395
    58    O    5.093    0.635    -5.714
    59    H    5.842    0.228    -6.177
    60    C    3.897    -1.387    -6.339
    61    H    3.419    -2.286    -5.882
    62    O    4.978    -1.684    -7.254
    63    P    5.383    -3.178    -7.555
    64    O    4.484    -4.111    -6.847
    65    O    5.479    -3.357    -9.026
    66    O    6.829    -3.289    -6.941
    67    C    8.002    -2.834    -7.658
    68    H    8.307    -1.824    -7.294
    69    H    7.826    -2.741    -8.758
    70    C    9.157    -3.819    -7.430
    71    H    8.865    -4.859    -7.697
    72    O    10.270    -3.451    -8.290
    73    C    11.501    -3.652    -7.601
    74    H    12.082    -4.377    -8.218
    75    N    12.251    -2.373    -7.456
    76    C    11.579    -1.169    -7.418
    77    H    10.492    -1.232    -7.478
    78    C    13.628    -2.415    -7.378
    79    O    14.259    -3.464    -7.410
    80    N    14.235    -1.187    -7.264
    81    H    15.244    -1.199    -7.216
    82    C    13.628    0.052    -7.248
    83    O    14.308    1.076    -7.175
    84    C    12.202    0.013    -7.332
    85    H    11.647    0.948    -7.323
    86    C    11.176    -4.293    -6.260
    87    H    11.854    -3.944    -5.448
    88    O    11.242    -5.705    -6.357
    89    H    10.874    -6.074    -5.539
    90    C    9.748    -3.809    -6.022
    91    H    9.751    -2.743    -5.701
    92    O    8.959    -4.652    -5.160
    93    P    9.075    -4.454    -3.615
    94    O    8.705    -5.730    -2.965
    95    O    10.414    -3.916    -3.302
    96    O    7.967    -3.382    -3.297
    97    C    8.187    -1.957    -3.360
    98    H    7.332    -1.503    -3.911
    99    H    9.110    -1.696    -3.927
    100    C    8.273    -1.270    -1.976
    101    H    8.564    -0.204    -2.109
    102    O    6.970    -1.281    -1.325
    103    C    7.045    -2.050    -0.135
    104    H    7.245    -1.321    0.685
    105    N    5.816    -2.842    0.067
    106    C    5.345    -3.604    -0.969
    107    H    5.955    -3.568    -1.876
    108    C    5.155    -2.784    1.264
    109    O    5.529    -2.086    2.194
    110    N    4.031    -3.561    1.346
    111    H    3.545    -3.554    2.228
    112    C    3.498    -4.355    0.357
    113    O    2.467    -4.992    0.569
    114    C    4.231    -4.344    -0.873
    115    H    3.871    -4.945    -1.703
    116    C    8.253    -2.923    -0.291
    117    H    8.026    -3.748    -0.993
    118    O    8.656    -3.517    0.919
    119    H    9.631    -3.541    0.983
    120    C    9.221    -1.931    -0.949
    121    H    9.997    -2.482    -1.518
    122    O    9.826    -0.933    -0.094
    123    P    10.997    -1.336    0.863
    124    O    11.582    -2.575    0.322
    125    O    11.938    -0.203    1.014
    126    O    10.251    -1.575    2.227
    127    C    10.817    -2.262    3.354
    128    H    10.433    -1.784    4.284
    129    H    11.924    -2.172    3.381
    130    C    10.407    -3.742    3.404
    131    H    9.299    -3.835    3.442
    132    O    10.870    -4.440    2.213
    133    C    11.424    -5.682    2.549
    134    H    10.878    -6.410    1.907
    135    N    12.877    -5.751    2.241
    136    C    13.660    -4.630    2.391
    137    H    13.146    -3.727    2.722
    138    C    14.968    -4.647    2.107
    139    H    15.602    -3.769    2.217
    140    C    13.448    -6.936    1.779
    141    O    12.728    -7.939    1.640
    142    N    14.768    -6.970    1.474
    143    C    15.523    -5.865    1.622
    144    N    16.815    -5.919    1.304
    145    H    17.197    -6.781    0.966
    146    H    17.413    -5.119    1.362
    147    C    11.080    -5.950    4.002
    148    H    11.851    -6.557    4.522
    149    O    9.820    -6.596    4.073
    150    H    9.158    -6.009    3.674
    151    C    11.019    -4.523    4.563
    152    H    12.051    -4.121    4.684
    153    O    10.204    -4.340    5.740
    154    P    10.859    -4.448    7.163
    155    O    10.115    -5.429    7.985
    156    O    12.316    -4.684    7.036
    157    O    10.673    -3.024    7.798
    158    C    9.395    -2.438    8.121
    159    H    8.873    -3.034    8.905
    160    H    8.750    -2.420    7.213
    161    C    9.540    -0.978    8.618
    162    H    9.972    -0.950    9.637
    163    O    10.479    -0.264    7.750
    164    C    10.027    1.050    7.507
    165    H    10.854    1.713    7.841
    166    N    9.769    1.291    6.066
    167    C    8.969    0.576    5.201
    168    N    6.620    -1.910    4.750
    169    H    6.006    -2.222    4.028
    170    H    6.556    -2.284    5.672
    171    N    8.248    -0.508    5.505
    172    C    7.468    -0.914    4.536
    173    N    7.451    -0.328    3.301
    174    H    6.856    -0.727    2.599
    175    C    8.243    0.751    2.915
    176    O    8.194    1.238    1.783
    177    C    9.049    1.222    3.990
    178    N    9.913    2.310    4.065
    179    C    10.321    2.307    5.316
    180    H    11.019    3.030    5.747
    181    C    8.807    1.294    8.378
    182    H    8.059    1.938    7.874
    183    O    9.194    1.887    9.605
    184    H    8.426    1.831    10.196
    185    C    8.254    -0.114    8.588
    186    H    7.682    -0.441    7.706
    187    O    7.454    -0.282    9.774
    188    P    5.894    0.005    9.696
    189    O    5.339    -0.578    8.456
    190    O    5.307    -0.500    10.962
    191    O    5.789    1.587    9.693
    192    C    4.802    2.289    8.896
    193    H    4.400    3.144    9.486
    194    H    3.928    1.647    8.632
    195    C    5.407    2.861    7.608
    196    H    6.295    3.492    7.837
    197    O    5.847    1.771    6.768
    198    C    5.533    2.040    5.422
    199    H    6.472    1.901    4.843
    200    N    4.506    1.115    4.923
    201    C    4.173    0.912    3.612
    202    N    4.625    1.608    0.256
    203    H    4.316    1.218    -0.614
    204    H    5.379    2.261    0.268
    205    N    4.723    1.532    2.556
    206    C    4.217    1.107    1.402
    207    N    3.242    0.150    1.315
    208    H    2.942    -0.140    0.396
    209    C    2.661    -0.512    2.387
    210    O    1.792    -1.373    2.217
    211    C    3.183    -0.052    3.625
    212    N    2.887    -0.441    4.924
    213    C    3.704    0.271    5.667
    214    H    3.790    0.215    6.758
    215    C    5.100    3.481    5.347
    216    H    4.382    3.668    4.522
    217    O    6.236    4.312    5.184
    218    H    5.921    5.220    5.250
    219    C    4.453    3.665    6.714
    220    H    3.477    3.127    6.751
    221    O    4.375    5.036    7.171
    222    P    3.010    5.804    7.006
    223    O    1.894    4.891    7.342
    224    O    3.052    7.078    7.757
    225    O    2.942    6.112    5.467
    226    C    3.945    6.942    4.839
    227    H    4.976    6.576    5.043
    228    H    3.883    7.985    5.231
    229    C    3.745    6.990    3.318
    230    H    4.472    7.690    2.853
    231    O    3.990    5.676    2.731
    232    C    3.066    5.447    1.673
    233    H    3.681    5.224    0.770
    234    N    2.160    4.298    1.971
    235    C    1.974    3.860    3.263
    236    H    2.542    4.392    4.023
    237    C    1.516    3.681    0.919
    238    O    1.645    4.045    -0.241
    239    N    0.717    2.623    1.275
    240    H    0.247    2.162    0.504
    241    C    0.500    2.120    2.540
    242    O    -0.229    1.142    2.696
    243    C    1.195    2.817    3.578
    244    H    1.103    2.465    4.603
    245    C    2.303    6.748    1.451
    246    H    1.255    6.560    1.135
    247    O    2.962    7.546    0.476
    248    H    2.562    8.432    0.475
    249    C    2.340    7.370    2.845
    250    H    1.600    6.871    3.510
    251    O    2.168    8.798    2.867
    252    H    1.266    9.020    2.585
 $END
