!*** FMO 5.3 (Gamess) INPUT generated by Facio 22.1.1.32 ***
 $CONTRL RUNTYP=ENERGY NPRINT=-5 ISPHER=1 MAXIT=200 $END
 $SYSTEM MWORDS=63 MEMDDI=63 $END
 $GDDI NGROUP=1 $END
 $SCF DIRSCF=.TRUE. NPUNCH=0 $END
!*** NumCPU : 2  MemPerNode : 512MB
 $PCM SOLVNT=WATER IEF=-10 ICOMP=2 ICAV=1 IDISP=1 IFMO=-1 $END
 $PCMCAV RADII=SUAHF $END
 $TESCAV NTSALL=60 $END
 $FMOPRP
    NAODIR=200
    NGRFMO(1)=1, 1, 0, 0, 0,   0, 0, 0, 0, 0
    IPIEDA=1
    NPRINT=9
 $END
 $FMO
      SCFTYP(1)=RHF
      MODGRD=10
      MODMUL=0
      MAXCAO=5
      MAXBND=10
      NLAYER=1
      MPLEVL(1)=2
      NFRAG=8
      ICHARG(1)=-1, -1, -1, -1, -1, -1, -1, 0
      FRGNAM(1)=F1, F2, F3, F4, F5, F6, F7, F8
      indat(1)=0
               1   -35   0
               36   -66   0
               67   -96   0
               97   -126   0
               127   -157   0
               158   -191   0
               192   -225   0
               226   -252   0
 $END

 $FMOBND
   -36   35       6-31G*    MINI
   -67   66       6-31G*    MINI
   -97   96       6-31G*    MINI
   -127   126       6-31G*    MINI
   -158   157       6-31G*    MINI
   -192   191       6-31G*    MINI
   -226   225       6-31G*    MINI
 $END
 $FMOHYB
 6-31G*      15   5
   1 0  -0.065034   0.288264   0.000000   0.000000   0.604412
         0.290129   0.000000   0.000000   0.319045  -0.017106
        -0.017106   0.057934   0.000000   0.000000   0.000000
   0 1  -0.065040   0.288293   0.569832   0.000000  -0.201456
         0.290147   0.300783   0.000000  -0.106342   0.049598
        -0.017106  -0.008771   0.000000  -0.027223   0.000000
   0 1  -0.065039   0.288293  -0.284916  -0.493490  -0.201455
         0.290145  -0.150392  -0.260486  -0.106340  -0.000427
         0.032923  -0.008771   0.033353   0.013612   0.023576
   0 1  -0.065039   0.288293  -0.284916   0.493490  -0.201455
         0.290145  -0.150392   0.260486  -0.106340  -0.000427
         0.032923  -0.008771  -0.033353   0.013612  -0.023576
   0 1   1.010938  -0.011975   0.000000   0.000000   0.000000
        -0.054085   0.000000   0.000000  -0.000000  -0.003174
        -0.003174  -0.003174   0.000000   0.000000   0.000000
 MINI         5   5
   1 0  -0.104883   0.308874   0.000000   0.000000   0.521806
   0 1  -0.104883   0.308874   0.491961   0.000000  -0.173934
   0 1  -0.104883   0.308876  -0.245980  -0.426050  -0.173933
   0 1  -0.104883   0.308876  -0.245980   0.426050  -0.173933
   0 1   0.988209   0.063992   0.000000   0.000000   0.000000
 $END
 
 $DATA
 FMO calculation
 C1 
 H.1-1    1
      N31 6
   
 O.1-1    8
      N31 6
      d 1
      1 0.800 1.0
   
 C.1-1    6
      N31 6
      d 1
      1 0.800 1.0
   
 N.1-1    7
      N31 6
      d 1
      1 0.800 1.0
   
 P.1-1   15
      N31 6
      d 1
      1 0.550 1.0
   
 $END
 $FMOXYZ
    1    H    -1.849    -6.970    -6.730
    2    O    -1.465    -6.074    -6.665
    3    C    -1.737    -5.411    -7.909
    4    H    -2.839    -5.406    -8.084
    5    H    -1.255    -5.979    -8.734
    6    C    -1.232    -3.965    -7.947
    7    H    -1.434    -3.500    -8.935
    8    O    -1.929    -3.169    -6.944
    9    C    -1.025    -2.239    -6.375
    10    H    -1.469    -1.227    -6.517
    11    N    -0.843    -2.486    -4.940
    12    C    -0.403    -2.246    -2.797
    13    N    -0.905    -3.532    -2.948
    14    C    -1.157    -3.624    -4.234
    15    H    -1.584    -4.500    -4.731
    16    N    0.482    -0.257    -1.864
    17    C    0.503    0.224    -3.112
    18    H    0.878    1.249    -3.219
    19    N    0.099    -0.353    -4.249
    20    C    -0.349    -1.596    -4.019
    21    C    0.024    -1.519    -1.664
    22    N    -0.005    -2.011    -0.410
    23    H    -0.375    -2.923    -0.203
    24    H    0.340    -1.463    0.355
    25    C    0.271    -2.333    -7.149
    26    H    1.158    -2.123    -6.520
    27    O    0.234    -1.442    -8.246
    28    H    1.075    -1.541    -8.706
    29    C    0.256    -3.786    -7.615
    30    H    0.476    -4.466    -6.759
    31    O    1.062    -4.070    -8.786
    32    P    2.555    -4.540    -8.585
    33    O    2.578    -5.634    -7.591
    34    O    3.164    -4.823    -9.904
    35    O    3.256    -3.276    -7.965
    36    C    3.494    -2.094    -8.770
    37    H    2.561    -1.735    -9.257
    38    H    4.220    -2.309    -9.584
    39    C    4.059    -0.947    -7.918
    40    H    4.159    -0.022    -8.526
    41    O    3.152    -0.644    -6.824
    42    C    3.908    -0.273    -5.681
    43    H    3.566    0.756    -5.428
    44    N    3.670    -1.158    -4.510
    45    C    3.173    -2.429    -4.686
    46    H    2.980    -2.729    -5.716
    47    C    2.925    -3.231    -3.641
    48    H    2.500    -4.226    -3.758
    49    C    3.979    -0.707    -3.230
    50    O    4.452    0.431    -3.083
    51    N    3.752    -1.508    -2.166
    52    C    3.223    -2.731    -2.340
    53    N    2.973    -3.482    -1.273
    54    H    3.148    -3.101    -0.362
    55    H    2.552    -4.388    -1.349
    56    C    5.370    -0.222    -6.089
    57    H    6.052    -0.527    -5.266
    58    O    5.708    1.078    -6.538
    59    H    6.604    1.028    -6.908
    60    C    5.411    -1.223    -7.238
    61    H    5.371    -2.268    -6.854
    62    O    6.488    -1.017    -8.179
    63    P    7.922    -1.603    -7.873
    64    O    7.773    -3.059    -7.652
    65    O    8.841    -1.185    -8.956
    66    O    8.376    -0.907    -6.530
    67    C    9.384    -1.525    -5.694
    68    H    10.391    -1.421    -6.151
    69    H    9.191    -2.617    -5.559
    70    C    9.441    -0.890    -4.294
    71    H    9.776    0.166    -4.347
    72    O    8.112    -0.897    -3.700
    73    C    8.193    -1.220    -2.327
    74    H    7.681    -0.386    -1.796
    75    N    7.492    -2.506    -2.028
    76    C    7.148    -3.385    -3.035
    77    H    7.456    -3.097    -4.043
    78    C    7.121    -2.756    -0.726
    79    O    7.359    -1.979    0.190
    80    N    6.447    -3.931    -0.524
    81    H    6.167    -4.133    0.426
    82    C    6.068    -4.851    -1.479
    83    O    5.432    -5.853    -1.157
    84    C    6.460    -4.515    -2.814
    85    H    6.177    -5.184    -3.622
    86    C    9.673    -1.234    -1.950
    87    H    9.895    -1.977    -1.158
    88    O    10.081    0.057    -1.521
    89    H    9.587    0.293    -0.714
    90    C    10.324    -1.637    -3.275
    91    H    10.151    -2.726    -3.432
    92    O    11.717    -1.247    -3.401
    93    P    12.759    -2.196    -4.101
    94    O    12.027    -3.183    -4.926
    95    O    13.775    -1.382    -4.797
    96    O    13.459    -2.954    -2.916
    97    C    14.302    -2.294    -1.950
    98    H    13.757    -1.453    -1.461
    99    H    15.205    -1.875    -2.452
    100    C    14.744    -3.281    -0.853
    101    H    13.853    -3.640    -0.297
    102    O    15.427    -4.432    -1.425
    103    C    16.806    -4.387    -1.112
    104    H    16.949    -5.154    -0.314
    105    N    17.628    -4.671    -2.314
    106    C    17.307    -4.072    -3.510
    107    H    16.425    -3.426    -3.488
    108    C    18.692    -5.540    -2.218
    109    O    18.997    -6.102    -1.171
    110    N    19.374    -5.750    -3.392
    111    H    20.157    -6.387    -3.343
    112    C    19.085    -5.222    -4.633
    113    O    19.754    -5.546    -5.615
    114    C    17.978    -4.314    -4.646
    115    H    17.682    -3.863    -5.590
    116    C    17.091    -3.014    -0.530
    117    H    17.306    -2.276    -1.335
    118    O    18.153    -3.045    0.403
    119    H    17.843    -3.563    1.164
    120    C    15.756    -2.687    0.138
    121    H    15.632    -1.576    0.156
    122    O    15.618    -3.282    1.442
    123    P    15.015    -2.493    2.655
    124    O    15.301    -3.269    3.879
    125    O    15.490    -1.094    2.613
    126    O    13.468    -2.513    2.376
    127    C    12.549    -1.949    3.350
    128    H    12.009    -1.088    2.893
    129    H    13.056    -1.547    4.261
    130    C    11.499    -2.961    3.835
    131    H    10.924    -2.496    4.662
    132    O    10.559    -3.277    2.772
    133    C    10.616    -4.661    2.489
    134    H    9.801    -5.117    3.096
    135    N    10.420    -4.904    1.042
    136    C    11.216    -4.225    0.158
    137    H    11.946    -3.541    0.604
    138    C    11.058    -4.376    -1.163
    139    H    11.655    -3.833    -1.883
    140    C    9.435    -5.771    0.574
    141    O    8.735    -6.389    1.392
    142    N    9.254    -5.921    -0.761
    143    C    10.030    -5.243    -1.623
    144    N    9.824    -5.396    -2.932
    145    H    10.451    -5.024    -3.618
    146    H    9.149    -6.068    -3.231
    147    C    11.943    -5.156    3.026
    148    H    12.769    -4.892    2.330
    149    O    11.956    -6.546    3.288
    150    H    11.375    -6.690    4.052
    151    C    12.054    -4.320    4.307
    152    H    13.135    -4.198    4.552
    153    O    11.294    -4.854    5.422
    154    P    11.817    -4.658    6.903
    155    O    10.975    -5.476    7.807
    156    O    13.267    -4.943    6.942
    157    O    11.590    -3.135    7.234
    158    C    10.277    -2.540    7.363
    159    H    9.642    -3.090    8.090
    160    H    9.750    -2.561    6.385
    161    C    10.369    -1.071    7.823
    162    H    10.800    -0.997    8.840
    163    O    11.267    -0.352    6.920
    164    C    10.756    0.940    6.659
    165    H    11.561    1.646    6.971
    166    N    10.462    1.141    5.221
    167    C    9.671    0.383    4.378
    168    N    7.572    -2.322    3.913
    169    H    7.000    -2.741    3.217
    170    H    7.558    -2.691    4.840
    171    N    8.989    -0.721    4.705
    172    C    8.317    -1.247    3.708
    173    N    8.310    -0.706    2.453
    174    H    7.829    -1.193    1.715
    175    C    9.010    0.429    2.063
    176    O    8.968    0.854    0.901
    177    C    9.734    1.001    3.149
    178    N    10.547    2.128    3.202
    179    C    10.960    2.169    4.450
    180    H    11.624    2.931    4.866
    181    C    9.543    1.152    7.545
    182    H    8.766    1.761    7.043
    183    O    9.921    1.772    8.760
    184    H    9.141    1.746    9.336
    185    C    9.040    -0.273    7.784
    186    H    8.469    -0.649    6.921
    187    O    8.256    -0.456    8.982
    188    P    6.718    -0.051    8.950
    189    O    6.047    -0.793    7.859
    190    O    6.189    -0.245    10.320
    191    O    6.692    1.497    8.633
    192    C    5.564    2.110    7.953
    193    H    5.079    2.847    8.633
    194    H    4.772    1.371    7.679
    195    C    5.977    2.836    6.663
    196    H    6.650    3.692    6.891
    197    O    6.709    1.926    5.797
    198    C    6.303    2.104    4.456
    199    H    7.231    2.252    3.858
    200    N    5.583    0.927    3.954
    201    C    5.298    0.657    2.644
    202    N    5.550    1.447    -0.718
    203    H    6.033    2.321    -0.715
    204    H    5.205    1.076    -1.585
    205    N    5.630    1.423    1.591
    206    C    5.277    0.866    0.433
    207    N    4.620    -0.332    0.345
    208    H    4.381    -0.681    -0.570
    209    C    4.259    -1.140    1.412
    210    O    3.680    -2.216    1.237
    211    C    4.637    -0.558    2.650
    212    N    4.491    -1.034    3.945
    213    C    5.078    -0.125    4.689
    214    H    5.192    -0.164    5.776
    215    C    5.456    3.351    4.411
    216    H    4.701    3.325    3.600
    217    O    6.286    4.484    4.246
    218    H    5.719    5.257    4.343
    219    C    4.808    3.324    5.791
    220    H    4.032    2.524    5.832
    221    O    4.334    4.604    6.265
    222    P    2.810    4.978    6.129
    223    O    1.990    3.794    6.465
    224    O    2.546    6.213    6.904
    225    O    2.652    5.260    4.588
    226    C    3.333    6.352    3.937
    227    H    4.430    6.321    4.116
    228    H    2.959    7.325    4.320
    229    C    3.086    6.346    2.421
    230    H    3.534    7.247    1.947
    231    O    3.711    5.177    1.819
    232    C    2.879    4.681    0.778
    233    H    3.511    4.659    -0.140
    234    N    2.377    3.309    1.081
    235    C    2.352    2.827    2.371
    236    H    2.733    3.506    3.130
    237    C    1.923    2.540    0.035
    238    O    1.898    2.945    -1.122
    239    N    1.496    1.282    0.383
    240    H    1.152    0.716    -0.385
    241    C    1.443    0.735    1.649
    242    O    1.007    -0.402    1.813
    243    C    1.925    1.597    2.685
    244    H    1.935    1.231    3.710
    245    C    1.748    5.684    0.584
    246    H    0.805    5.188    0.268
    247    O    2.131    6.664    -0.372
    248    H    1.476    7.382    -0.374
    249    C    1.616    6.257    1.991
    250    H    1.100    5.530    2.655
    251    O    0.978    7.547    2.048
    252    H    0.043    7.477    1.769
 $END
