!*** FMO 5.3 (Gamess) INPUT generated by Facio 22.1.1.32 ***
 $CONTRL RUNTYP=ENERGY NPRINT=-5 ISPHER=1 MAXIT=200 $END
 $SYSTEM MWORDS=63 MEMDDI=63 $END
 $GDDI NGROUP=1 $END
 $SCF DIRSCF=.TRUE. NPUNCH=0 $END
!*** NumCPU : 2  MemPerNode : 512MB
 $PCM SOLVNT=WATER IEF=-10 ICOMP=2 ICAV=1 IDISP=1 IFMO=-1 $END
 $PCMCAV RADII=SUAHF $END
 $TESCAV NTSALL=60 $END
 $FMOPRP
    NAODIR=200
    NGRFMO(1)=1, 1, 0, 0, 0,   0, 0, 0, 0, 0
    IPIEDA=1
    NPRINT=9
 $END
 $FMO
      SCFTYP(1)=RHF
      MODGRD=10
      MODMUL=0
      MAXCAO=5
      MAXBND=15
      NLAYER=1
      MPLEVL(1)=2
      NFRAG=13
      ICHARG(1)=-1, -1, -1, -1, -1, 0, -1, -1, -1, -1, -1, -1, 0
      FRGNAM(1)=F1, F2, F3, F4, F5, F6, F7, F8, F9, F10, F11, F12, F13
      indat(1)=0
               1   -33   0
               34   -67   0
               68   -101   0
               102   -135   0
               136   -169   0
               170   -202   0
               203   -233   0
               234   -264   0
               265   -294   0
               295   -327   0
               328   -357   0
               358   -388   0
               389   -419   0
 $END

 $FMOBND
   -34   33       6-31G*    MINI
   -68   67       6-31G*    MINI
   -102   101       6-31G*    MINI
   -136   135       6-31G*    MINI
   -170   169       6-31G*    MINI
   -203   202       6-31G*    MINI
   -234   233       6-31G*    MINI
   -265   264       6-31G*    MINI
   -295   294       6-31G*    MINI
   -328   327       6-31G*    MINI
   -358   357       6-31G*    MINI
   -389   388       6-31G*    MINI
 $END
 $FMOHYB
 6-31G*      15   5
   1 0  -0.065034   0.288264   0.000000   0.000000   0.604412
         0.290129   0.000000   0.000000   0.319045  -0.017106
        -0.017106   0.057934   0.000000   0.000000   0.000000
   0 1  -0.065040   0.288293   0.569832   0.000000  -0.201456
         0.290147   0.300783   0.000000  -0.106342   0.049598
        -0.017106  -0.008771   0.000000  -0.027223   0.000000
   0 1  -0.065039   0.288293  -0.284916  -0.493490  -0.201455
         0.290145  -0.150392  -0.260486  -0.106340  -0.000427
         0.032923  -0.008771   0.033353   0.013612   0.023576
   0 1  -0.065039   0.288293  -0.284916   0.493490  -0.201455
         0.290145  -0.150392   0.260486  -0.106340  -0.000427
         0.032923  -0.008771  -0.033353   0.013612  -0.023576
   0 1   1.010938  -0.011975   0.000000   0.000000   0.000000
        -0.054085   0.000000   0.000000  -0.000000  -0.003174
        -0.003174  -0.003174   0.000000   0.000000   0.000000
 MINI         5   5
   1 0  -0.104883   0.308874   0.000000   0.000000   0.521806
   0 1  -0.104883   0.308874   0.491961   0.000000  -0.173934
   0 1  -0.104883   0.308876  -0.245980  -0.426050  -0.173933
   0 1  -0.104883   0.308876  -0.245980   0.426050  -0.173933
   0 1   0.988209   0.063992   0.000000   0.000000   0.000000
 $END
 
 $DATA
 FMO calculation
 C1 
 H.1-1    1
      N31 6
   
 O.1-1    8
      N31 6
      d 1
      1 0.800 1.0
   
 C.1-1    6
      N31 6
      d 1
      1 0.800 1.0
   
 N.1-1    7
      N31 6
      d 1
      1 0.800 1.0
   
 P.1-1   15
      N31 6
      d 1
      1 0.550 1.0
   
 $END
 $FMOXYZ
    1    H    9.995    11.193    -9.702
    2    O    9.120    11.626    -9.779
    3    C    9.336    13.039    -9.658
    4    H    10.096    13.366    -10.404
    5    H    9.746    13.256    -8.647
    6    C    8.057    13.862    -9.847
    7    H    8.261    14.943    -9.684
    8    O    7.571    13.720    -11.216
    9    C    6.152    13.647    -11.198
    10    H    5.802    14.450    -11.887
    11    N    5.632    12.337    -11.683
    12    C    6.454    11.231    -11.721
    13    H    7.482    11.379    -11.389
    14    C    6.017    10.052    -12.179
    15    H    6.666    9.181    -12.245
    16    C    4.305    12.222    -12.090
    17    O    3.565    13.215    -12.026
    18    N    3.849    11.041    -12.567
    19    C    4.665    9.973    -12.622
    20    N    4.198    8.829    -13.124
    21    H    3.235    8.765    -13.395
    22    H    4.760    8.000    -13.145
    23    C    5.699    13.976    -9.791
    24    H    4.748    13.477    -9.522
    25    O    5.556    15.377    -9.658
    26    H    5.303    15.546    -8.743
    27    C    6.868    13.451    -8.964
    28    H    6.852    12.337    -8.938
    29    O    7.012    14.038    -7.650
    30    P    6.298    13.375    -6.411
    31    O    6.550    11.918    -6.420
    32    O    6.700    14.105    -5.192
    33    O    4.772    13.639    -6.674
    34    C    4.236    14.986    -6.589
    35    H    4.801    15.697    -7.231
    36    H    4.308    15.374    -5.546
    37    C    2.753    15.029    -6.997
    38    H    2.352    16.063    -6.949
    39    O    2.599    14.571    -8.372
    40    C    1.422    13.772    -8.463
    41    H    0.803    14.222    -9.271
    42    N    1.729    12.380    -8.824
    43    C    0.847    11.475    -9.349
    44    N    -2.349    10.659    -10.407
    45    H    -2.856    11.499    -10.228
    46    H    -2.835    9.866    -10.787
    47    N    -0.455    11.696    -9.605
    48    C    -1.062    10.628    -10.113
    49    N    -0.410    9.455    -10.376
    50    H    -0.933    8.707    -10.803
    51    C    0.935    9.200    -10.139
    52    O    1.439    8.109    -10.417
    53    C    1.580    10.323    -9.560
    54    N    2.893    10.487    -9.141
    55    C    2.935    11.723    -8.705
    56    H    3.813    12.217    -8.291
    57    C    0.681    13.878    -7.147
    58    H    0.120    12.951    -6.893
    59    O    -0.206    14.985    -7.160
    60    H    -0.559    15.070    -6.260
    61    C    1.830    14.105    -6.180
    62    H    2.386    13.156    -6.025
    63    O    1.472    14.732    -4.934
    64    P    0.808    13.888    -3.784
    65    O    1.557    12.618    -3.640
    66    O    0.731    14.748    -2.580
    67    O    -0.647    13.580    -4.307
    68    C    -1.426    12.524    -3.686
    69    H    -1.744    12.829    -2.664
    70    H    -0.828    11.584    -3.600
    71    C    -2.680    12.186    -4.514
    72    H    -3.373    13.055    -4.559
    73    O    -2.263    11.885    -5.879
    74    C    -3.026    10.815    -6.399
    75    H    -3.477    11.174    -7.353
    76    N    -2.171    9.641    -6.675
    77    C    -2.532    8.516    -7.370
    78    N    -4.910    6.692    -9.115
    79    H    -4.999    5.813    -9.577
    80    H    -5.707    7.302    -9.085
    81    N    -3.741    8.276    -7.905
    82    C    -3.795    7.112    -8.546
    83    N    -2.720    6.276    -8.669
    84    H    -2.846    5.408    -9.162
    85    C    -1.452    6.507    -8.153
    86    O    -0.550    5.685    -8.341
    87    C    -1.396    7.731    -7.427
    88    N    -0.341    8.336    -6.751
    89    C    -0.848    9.467    -6.316
    90    H    -0.312    10.221    -5.732
    91    C    -4.125    10.516    -5.401
    92    H    -4.402    9.445    -5.398
    93    O    -5.275    11.290    -5.679
    94    H    -5.889    11.139    -4.945
    95    C    -3.477    10.933    -4.086
    96    H    -2.715    10.168    -3.805
    97    O    -4.436    11.236    -3.034
    98    P    -4.400    10.429    -1.673
    99    O    -3.057    9.833    -1.505
    100    O    -4.889    11.289    -0.574
    101    O    -5.435    9.245    -1.841
    102    C    -6.839    9.484    -2.110
    103    H    -7.037    10.514    -2.499
    104    H    -7.418    9.377    -1.165
    105    C    -7.407    8.489    -3.139
    106    H    -8.442    8.779    -3.428
    107    O    -6.588    8.530    -4.341
    108    C    -6.426    7.215    -4.850
    109    H    -6.729    7.246    -5.922
    110    N    -5.027    6.770    -4.766
    111    C    -4.483    5.685    -5.393
    112    N    -4.827    2.858    -7.347
    113    H    -4.243    2.221    -7.834
    114    H    -5.794    2.922    -7.602
    115    N    -5.135    4.819    -6.188
    116    C    -4.346    3.835    -6.603
    117    N    -3.003    3.784    -6.339
    118    H    -2.476    2.988    -6.668
    119    C    -2.301    4.664    -5.533
    120    O    -1.092    4.522    -5.337
    121    C    -3.143    5.693    -5.045
    122    N    -2.853    6.758    -4.210
    123    C    -4.003    7.359    -4.060
    124    H    -4.167    8.256    -3.467
    125    C    -7.361    6.315    -4.083
    126    H    -6.980    5.275    -3.996
    127    O    -8.628    6.303    -4.713
    128    H    -9.229    5.838    -4.117
    129    C    -7.420    7.006    -2.724
    130    H    -6.481    6.828    -2.149
    131    O    -8.610    6.717    -1.956
    132    P    -8.667    5.433    -1.052
    133    O    -7.559    5.502    -0.075
    134    O    -10.037    5.311    -0.505
    135    O    -8.393    4.235    -2.036
    136    C    -9.476    3.665    -2.807
    137    H    -9.840    4.376    -3.581
    138    H    -10.344    3.409    -2.152
    139    C    -9.039    2.377    -3.507
    140    H    -9.869    1.961    -4.118
    141    O    -7.927    2.627    -4.414
    142    C    -7.053    1.504    -4.390
    143    H    -6.973    1.147    -5.440
    144    N    -5.710    1.866    -3.909
    145    C    -4.553    1.148    -4.082
    146    N    -2.905    -1.681    -5.211
    147    H    -3.638    -2.189    -5.659
    148    H    -1.964    -2.010    -5.308
    149    N    -4.442    -0.036    -4.714
    150    C    -3.197    -0.508    -4.678
    151    N    -2.148    0.171    -4.115
    152    H    -1.226    -0.225    -4.202
    153    C    -2.223    1.411    -3.493
    154    O    -1.215    1.945    -3.019
    155    C    -3.560    1.900    -3.479
    156    N    -4.087    3.064    -2.932
    157    C    -5.367    2.995    -3.203
    158    H    -6.118    3.739    -2.929
    159    C    -7.702    0.437    -3.535
    160    H    -6.962    -0.188    -2.995
    161    O    -8.515    -0.390    -4.344
    162    H    -8.958    -1.008    -3.750
    163    C    -8.534    1.278    -2.573
    164    H    -7.879    1.776    -1.822
    165    O    -9.661    0.603    -1.977
    166    P    -9.503    -0.080    -0.571
    167    O    -8.771    0.812    0.354
    168    O    -10.830    -0.550    -0.122
    169    O    -8.602    -1.327    -0.878
    170    C    -9.138    -2.438    -1.634
    171    H    -9.512    -2.119    -2.633
    172    H    -9.991    -2.911    -1.091
    173    C    -8.056    -3.504    -1.841
    174    H    -8.448    -4.368    -2.418
    175    O    -6.946    -2.939    -2.597
    176    C    -5.725    -3.476    -2.112
    177    H    -5.222    -3.966    -2.977
    178    N    -4.846    -2.417    -1.595
    179    C    -3.495    -2.511    -1.402
    180    N    -0.564    -4.355    -1.479
    181    H    -0.882    -5.259    -1.764
    182    H    0.407    -4.227    -1.257
    183    N    -2.740    -3.600    -1.630
    184    C    -1.455    -3.391    -1.339
    185    N    -0.973    -2.190    -0.889
    186    H    0.010    -2.122    -0.678
    187    C    -1.729    -1.051    -0.644
    188    O    -1.209    -0.010    -0.231
    189    C    -3.100    -1.269    -0.937
    190    N    -4.186    -0.411    -0.833
    191    C    -5.203    -1.139    -1.224
    192    H    -6.244    -0.811    -1.251
    193    C    -6.059    -4.522    -1.061
    194    H    -5.314    -4.545    -0.234
    195    O    -6.152    -5.801    -1.668
    196    H    -6.579    -6.408    -1.039
    197    C    -7.412    -4.031    -0.552
    198    H    -7.273    -3.175    0.142
    199    O    -8.224    -5.057    0.046
    200    H    -7.840    -5.319    0.902
    201    H    8.600    -1.226    0.196
    202    O    7.863    -1.734    -0.191
    203    C    8.260    -3.113    -0.190
    204    H    8.551    -3.409    0.843
    205    H    9.157    -3.232    -0.840
    206    C    7.168    -4.070    -0.688
    207    H    7.568    -5.101    -0.787
    208    O    6.076    -4.136    0.279
    209    C    4.836    -4.192    -0.424
    210    H    4.309    -5.098    -0.043
    211    N    3.984    -2.989    -0.190
    212    C    4.541    -1.815    0.266
    213    H    5.615    -1.834    0.459
    214    C    3.796    -0.726    0.494
    215    H    4.226    0.201    0.874
    216    C    2.625    -3.027    -0.489
    217    O    2.138    -4.068    -0.953
    218    N    1.855    -1.938    -0.268
    219    C    2.401    -0.812    0.226
    220    N    1.618    0.241    0.446
    221    H    0.637    0.181    0.246
    222    H    1.983    1.096    0.816
    223    C    5.155    -4.392    -1.895
    224    H    4.397    -3.931    -2.561
    225    O    5.274    -5.769    -2.200
    226    H    5.593    -5.816    -3.111
    227    C    6.497    -3.679    -2.013
    228    H    6.346    -2.575    -1.988
    229    O    7.325    -4.111    -3.113
    230    P    7.245    -3.360    -4.493
    231    O    7.258    -1.902    -4.251
    232    O    8.297    -3.914    -5.374
    233    O    5.828    -3.774    -5.029
    234    C    5.581    -5.079    -5.594
    235    H    5.711    -5.879    -4.829
    236    H    6.290    -5.287    -6.429
    237    C    4.155    -5.185    -6.152
    238    H    3.966    -6.194    -6.582
    239    O    3.184    -4.985    -5.080
    240    C    2.069    -4.252    -5.585
    241    H    1.173    -4.884    -5.393
    242    N    1.878    -2.926    -4.913
    243    C    2.933    -2.337    -4.254
    244    H    3.862    -2.906    -4.243
    245    C    2.804    -1.159    -3.631
    246    H    3.624    -0.700    -3.081
    247    C    0.664    -2.243    -5.006
    248    O    -0.265    -2.737    -5.664
    249    N    0.507    -1.059    -4.369
    250    C    1.532    -0.519    -3.684
    251    N    1.349    0.635    -3.047
    252    H    0.458    1.095    -3.080
    253    H    2.103    1.105    -2.587
    254    C    2.262    -4.116    -7.083
    255    H    1.845    -3.170    -7.476
    256    O    1.679    -5.209    -7.766
    257    H    1.861    -5.071    -8.708
    258    C    3.777    -4.128    -7.199
    259    H    4.166    -3.156    -6.816
    260    O    4.270    -4.494    -8.518
    261    P    5.345    -3.550    -9.176
    262    O    4.876    -2.157    -9.030
    263    O    6.679    -3.879    -8.640
    264    O    5.316    -3.953    -10.697
    265    C    5.980    -3.126    -11.685
    266    H    6.828    -2.536    -11.259
    267    H    5.241    -2.405    -12.102
    268    C    6.531    -3.947    -12.865
    269    H    6.734    -3.292    -13.742
    270    O    7.815    -4.525    -12.497
    271    C    7.920    -5.845    -13.011
    272    H    8.858    -5.869    -13.614
    273    N    8.002    -6.856    -11.912
    274    C    7.621    -6.544    -10.621
    275    H    7.267    -5.522    -10.462
    276    C    8.496    -8.108    -12.212
    277    O    8.852    -8.423    -13.344
    278    N    8.571    -8.977    -11.152
    279    H    8.931    -9.896    -11.365
    280    C    8.233    -8.726    -9.839
    281    O    8.391    -9.596    -8.981
    282    C    7.725    -7.408    -9.601
    283    H    7.474    -7.125    -8.581
    284    C    6.731    -6.064    -13.940
    285    H    6.380    -7.117    -13.924
    286    O    7.063    -5.698    -15.271
    287    H    6.246    -5.696    -15.797
    288    C    5.685    -5.139    -13.327
    289    H    5.282    -5.626    -12.409
    290    O    4.661    -4.690    -14.243
    291    P    3.178    -5.211    -14.112
    292    O    2.659    -5.381    -15.492
    293    O    3.153    -6.435    -13.276
    294    O    2.402    -4.029    -13.429
    295    C    2.344    -3.831    -12.007
    296    H    2.864    -2.879    -11.738
    297    H    2.838    -4.660    -11.437
    298    C    0.888    -3.747    -11.549
    299    H    0.346    -4.694    -11.766
    300    O    0.902    -3.563    -10.112
    301    C    -0.192    -2.749    -9.722
    302    H    -0.805    -3.354    -9.014
    303    N    0.266    -1.539    -9.036
    304    C    0.314    0.319    -7.864
    305    N    1.634    0.018    -8.166
    306    C    1.557    -1.089    -8.863
    307    H    2.411    -1.645    -9.263
    308    N    -1.639    1.408    -7.100
    309    C    -2.324    0.420    -7.678
    310    H    -3.413    0.478    -7.581
    311    N    -1.874    -0.649    -8.325
    312    C    -0.536    -0.635    -8.395
    313    C    -0.281    1.389    -7.164
    314    N    0.425    2.372    -6.574
    315    H    1.433    2.384    -6.587
    316    H    -0.045    3.114    -6.088
    317    C    -1.006    -2.441    -10.960
    318    H    -1.443    -1.419    -10.953
    319    O    -2.043    -3.393    -11.099
    320    H    -2.398    -3.285    -11.991
    321    C    0.036    -2.575    -12.063
    322    H    0.711    -1.688    -12.074
    323    O    -0.531    -2.887    -13.351
    324    P    -0.656    -1.771    -14.444
    325    O    0.577    -0.957    -14.465
    326    O    -1.093    -2.375    -15.721
    327    O    -1.799    -0.840    -13.911
    328    C    -3.173    -1.252    -13.793
    329    H    -3.263    -2.216    -13.242
    330    H    -3.612    -1.390    -14.810
    331    C    -4.007    -0.200    -13.034
    332    H    -5.061    -0.532    -12.932
    333    O    -3.474    -0.016    -11.686
    334    C    -3.517    1.360    -11.329
    335    H    -4.113    1.403    -10.388
    336    N    -2.153    1.929    -11.081
    337    C    -1.039    1.323    -11.615
    338    H    -1.232    0.432    -12.204
    339    C    -2.023    3.047    -10.283
    340    O    -2.985    3.628    -9.789
    341    N    -0.732    3.472    -10.080
    342    H    -0.596    4.264    -9.464
    343    C    0.423    2.898    -10.565
    344    O    1.517    3.383    -10.292
    345    C    0.209    1.748    -11.386
    346    H    1.072    1.242    -11.814
    347    C    -4.289    2.076    -12.428
    348    H    -3.927    3.108    -12.578
    349    O    -5.669    2.098    -12.118
    350    H    -6.124    2.473    -12.884
    351    C    -4.005    1.206    -13.652
    352    H    -2.961    1.388    -14.006
    353    O    -4.997    1.281    -14.716
    354    P    -4.763    2.343    -15.862
    355    O    -3.320    2.382    -16.178
    356    O    -5.669    2.080    -17.003
    357    O    -5.163    3.698    -15.191
    358    C    -6.543    4.042    -14.950
    359    H    -7.035    3.305    -14.272
    360    H    -7.112    4.071    -15.910
    361    C    -6.641    5.424    -14.290
    362    H    -7.703    5.718    -14.139
    363    O    -6.014    5.392    -12.974
    364    C    -5.369    6.641    -12.735
    365    H    -5.827    7.040    -11.801
    366    N    -3.895    6.507    -12.539
    367    C    -3.228    5.458    -13.118
    368    H    -3.848    4.758    -13.674
    369    C    -1.907    5.294    -12.975
    370    H    -1.379    4.439    -13.392
    371    C    -3.166    7.490    -11.879
    372    O    -3.751    8.501    -11.467
    373    N    -1.840    7.320    -11.673
    374    C    -1.204    6.260    -12.203
    375    N    0.095    6.095    -11.966
    376    H    0.593    6.790    -11.442
    377    H    0.629    5.380    -12.420
    378    C    -5.720    7.566    -13.884
    379    H    -4.908    8.282    -14.112
    380    O    -6.905    8.287    -13.598
    381    H    -7.106    8.819    -14.379
    382    C    -5.919    6.567    -15.020
    383    H    -4.932    6.166    -15.356
    384    O    -6.739    7.033    -16.108
    385    P    -6.074    7.670    -17.378
    386    O    -4.916    6.854    -17.803
    387    O    -7.133    7.909    -18.382
    388    O    -5.537    9.045    -16.846
    389    C    -6.466    10.104    -16.527
    390    H    -7.224    9.773    -15.779
    391    H    -7.014    10.435    -17.441
    392    C    -5.709    11.309    -15.958
    393    H    -6.401    12.150    -15.730
    394    O    -5.061    10.940    -14.706
    395    C    -3.809    11.610    -14.616
    396    H    -3.822    12.197    -13.670
    397    N    -2.690    10.657    -14.565
    398    C    -1.434    10.916    -14.088
    399    N    0.891    13.129    -12.790
    400    H    0.374    13.982    -12.745
    401    H    1.861    13.128    -12.530
    402    N    -1.001    12.093    -13.604
    403    C    0.283    12.053    -13.252
    404    N    1.049    10.920    -13.339
    405    H    2.018    10.978    -13.064
    406    C    0.624    9.687    -13.818
    407    O    1.385    8.715    -13.862
    408    C    -0.733    9.732    -14.231
    409    N    -1.531    8.749    -14.804
    410    C    -2.682    9.349    -14.995
    411    H    -3.568    8.894    -15.439
    412    C    -3.703    12.558    -15.799
    413    H    -2.657    12.661    -16.159
    414    O    -4.223    13.831    -15.446
    415    H    -4.287    14.373    -16.250
    416    C    -4.564    11.839    -16.835
    417    H    -4.012    10.968    -17.261
    418    O    -5.078    12.692    -17.872
    419    H    -4.349    12.997    -18.437
 $END
