!*** FMO 5.3 (Gamess) INPUT generated by Facio 22.1.1.32 ***
 $CONTRL RUNTYP=ENERGY NPRINT=-5 ISPHER=1 MAXIT=200 $END
 $SYSTEM MWORDS=63 MEMDDI=63 $END
 $GDDI NGROUP=1 $END
 $SCF DIRSCF=.TRUE. NPUNCH=0 $END
!*** NumCPU : 2  MemPerNode : 512MB
 $PCM SOLVNT=WATER IEF=-10 ICOMP=2 ICAV=1 IDISP=1 IFMO=-1 $END
 $PCMCAV RADII=SUAHF $END
 $TESCAV NTSALL=60 $END
 $FMOPRP
    NAODIR=200
    NGRFMO(1)=1, 1, 0, 0, 0,   0, 0, 0, 0, 0
    IPIEDA=1
    NPRINT=9
 $END
 $FMO
      SCFTYP(1)=RHF
      MODGRD=10
      MODMUL=0
      MAXCAO=5
      MAXBND=15
      NLAYER=1
      MPLEVL(1)=2
      NFRAG=13
      ICHARG(1)=-1, -1, -1, -1, -1, 0, -1, -1, -1, -1, -1, -1, 0
      FRGNAM(1)=F1, F2, F3, F4, F5, F6, F7, F8, F9, F10, F11, F12, F13
      indat(1)=0
               1   -33   0
               34   -67   0
               68   -101   0
               102   -135   0
               136   -169   0
               170   -202   0
               203   -233   0
               234   -264   0
               265   -294   0
               295   -327   0
               328   -357   0
               358   -388   0
               389   -419   0
 $END

 $FMOBND
   -34   33       6-31G*    MINI
   -68   67       6-31G*    MINI
   -102   101       6-31G*    MINI
   -136   135       6-31G*    MINI
   -170   169       6-31G*    MINI
   -203   202       6-31G*    MINI
   -234   233       6-31G*    MINI
   -265   264       6-31G*    MINI
   -295   294       6-31G*    MINI
   -328   327       6-31G*    MINI
   -358   357       6-31G*    MINI
   -389   388       6-31G*    MINI
 $END
 $FMOHYB
 6-31G*      15   5
   1 0  -0.065034   0.288264   0.000000   0.000000   0.604412
         0.290129   0.000000   0.000000   0.319045  -0.017106
        -0.017106   0.057934   0.000000   0.000000   0.000000
   0 1  -0.065040   0.288293   0.569832   0.000000  -0.201456
         0.290147   0.300783   0.000000  -0.106342   0.049598
        -0.017106  -0.008771   0.000000  -0.027223   0.000000
   0 1  -0.065039   0.288293  -0.284916  -0.493490  -0.201455
         0.290145  -0.150392  -0.260486  -0.106340  -0.000427
         0.032923  -0.008771   0.033353   0.013612   0.023576
   0 1  -0.065039   0.288293  -0.284916   0.493490  -0.201455
         0.290145  -0.150392   0.260486  -0.106340  -0.000427
         0.032923  -0.008771  -0.033353   0.013612  -0.023576
   0 1   1.010938  -0.011975   0.000000   0.000000   0.000000
        -0.054085   0.000000   0.000000  -0.000000  -0.003174
        -0.003174  -0.003174   0.000000   0.000000   0.000000
 MINI         5   5
   1 0  -0.104883   0.308874   0.000000   0.000000   0.521806
   0 1  -0.104883   0.308874   0.491961   0.000000  -0.173934
   0 1  -0.104883   0.308876  -0.245980  -0.426050  -0.173933
   0 1  -0.104883   0.308876  -0.245980   0.426050  -0.173933
   0 1   0.988209   0.063992   0.000000   0.000000   0.000000
 $END
 
 $DATA
 FMO calculation
 C1 
 H.1-1    1
      N31 6
   
 O.1-1    8
      N31 6
      d 1
      1 0.800 1.0
   
 C.1-1    6
      N31 6
      d 1
      1 0.800 1.0
   
 N.1-1    7
      N31 6
      d 1
      1 0.800 1.0
   
 P.1-1   15
      N31 6
      d 1
      1 0.550 1.0
   
 $END
 $FMOXYZ
    1    H    10.547    12.644    -9.701
    2    O    9.581    12.764    -9.624
    3    C    9.364    14.133    -9.256
    4    H    9.704    14.793    -10.087
    5    H    9.984    14.368    -8.363
    6    C    7.898    14.432    -8.935
    7    H    7.797    15.336    -8.299
    8    O    7.183    14.688    -10.182
    9    C    5.850    14.230    -10.055
    10    H    5.217    15.145    -10.151
    11    N    5.456    13.248    -11.083
    12    C    6.378    12.323    -11.495
    13    H    7.385    12.429    -11.079
    14    C    6.064    11.394    -12.405
    15    H    6.790    10.672    -12.770
    16    C    4.141    13.182    -11.542
    17    O    3.305    13.997    -11.119
    18    N    3.798    12.239    -12.451
    19    C    4.722    11.359    -12.886
    20    N    4.378    10.434    -13.783
    21    H    3.448    10.367    -14.146
    22    H    5.042    9.760    -14.108
    23    C    5.700    13.652    -8.677
    24    H    5.103    12.718    -8.681
    25    O    5.119    14.630    -7.841
    26    H    4.204    14.333    -7.697
    27    C    7.120    13.284    -8.280
    28    H    7.405    12.333    -8.787
    29    O    7.371    13.235    -6.854
    30    P    6.940    11.951    -6.035
    31    O    7.270    12.190    -4.612
    32    O    7.566    10.765    -6.657
    33    O    5.376    11.808    -6.189
    34    C    4.482    12.763    -5.560
    35    H    4.888    13.799    -5.592
    36    H    4.357    12.516    -4.484
    37    C    3.068    12.766    -6.180
    38    H    2.498    13.668    -5.872
    39    O    3.093    12.724    -7.634
    40    C    1.965    12.043    -8.119
    41    H    1.349    12.812    -8.636
    42    N    2.274    10.989    -9.093
    43    C    1.345    10.417    -9.920
    44    N    -1.935    10.110    -10.972
    45    H    -2.397    10.852    -10.493
    46    H    -2.475    9.524    -11.585
    47    N    0.038    10.734    -9.971
    48    C    -0.635    9.960    -10.813
    49    N    -0.039    9.002    -11.588
    50    H    -0.635    8.473    -12.207
    51    C    1.311    8.674    -11.583
    52    O    1.753    7.798    -12.330
    53    C    2.033    9.468    -10.652
    54    N    3.376    9.441    -10.287
    55    C    3.472    10.361    -9.351
    56    H    4.383    10.621    -8.805
    57    C    1.225    11.503    -6.926
    58    H    0.936    10.447    -7.077
    59    O    0.096    12.318    -6.673
    60    H    -0.560    12.202    -7.376
    61    C    2.254    11.553    -5.799
    62    H    2.959    10.694    -5.867
    63    O    1.723    11.724    -4.470
    64    P    0.962    10.563    -3.736
    65    O    1.070    10.800    -2.281
    66    O    1.477    9.260    -4.226
    67    O    -0.555    10.675    -4.112
    68    C    -1.427    11.759    -3.751
    69    H    -1.018    12.730    -4.105
    70    H    -1.512    11.812    -2.643
    71    C    -2.855    11.573    -4.321
    72    H    -3.525    12.389    -3.969
    73    O    -2.852    11.643    -5.783
    74    C    -3.538    10.520    -6.334
    75    H    -4.212    10.896    -7.140
    76    N    -2.598    9.532    -6.907
    77    C    -2.849    8.471    -7.727
    78    N    -5.018    6.536    -9.589
    79    H    -5.907    6.948    -9.405
    80    H    -4.954    5.758    -10.210
    81    N    -4.045    8.112    -8.208
    82    C    -3.953    7.051    -9.006
    83    N    -2.773    6.420    -9.294
    84    H    -2.808    5.656    -9.947
    85    C    -1.522    6.791    -8.845
    86    O    -0.493    6.202    -9.192
    87    C    -1.612    7.888    -7.972
    88    N    -0.617    8.547    -7.310
    89    C    -1.256    9.504    -6.698
    90    H    -0.797    10.295    -6.141
    91    C    -4.364    9.922    -5.222
    92    H    -4.490    8.835    -5.361
    93    O    -5.638    10.542    -5.154
    94    H    -5.524    11.421    -4.763
    95    C    -3.502    10.215    -3.990
    96    H    -2.678    9.467    -3.929
    97    O    -4.235    10.327    -2.762
    98    P    -4.206    9.258    -1.618
    99    O    -5.129    9.710    -0.555
    100    O    -2.814    8.995    -1.201
    101    O    -4.785    7.942    -2.251
    102    C    -6.076    7.895    -2.905
    103    H    -6.290    8.833    -3.463
    104    H    -6.883    7.777    -2.149
    105    C    -6.176    6.732    -3.911
    106    H    -7.029    6.895    -4.608
    107    O    -4.963    6.690    -4.710
    108    C    -4.549    5.371    -4.912
    109    H    -4.890    5.123    -5.944
    110    N    -3.098    5.202    -4.832
    111    C    -2.396    4.095    -5.234
    112    N    -2.322    0.858    -6.466
    113    H    -3.279    0.655    -6.655
    114    H    -1.640    0.137    -6.558
    115    N    -2.910    2.991    -5.814
    116    C    -2.005    2.041    -5.964
    117    N    -0.687    2.206    -5.647
    118    H    -0.079    1.433    -5.841
    119    C    -0.104    3.349    -5.133
    120    O    1.112    3.394    -4.911
    121    C    -1.080    4.352    -4.894
    122    N    -0.957    5.604    -4.308
    123    C    -2.184    6.074    -4.297
    124    H    -2.494    7.050    -3.918
    125    C    -5.217    4.495    -3.896
    126    H    -4.529    4.132    -3.096
    127    O    -5.756    3.429    -4.623
    128    H    -6.712    3.558    -4.653
    129    C    -6.315    5.352    -3.267
    130    H    -6.057    5.525    -2.196
    131    O    -7.665    4.845    -3.404
    132    P    -8.237    3.779    -2.388
    133    O    -9.711    3.804    -2.512
    134    O    -7.702    4.002    -1.025
    135    O    -7.704    2.390    -2.913
    136    C    -8.278    1.737    -4.068
    137    H    -8.216    2.384    -4.974
    138    H    -9.355    1.513    -3.890
    139    C    -7.580    0.400    -4.375
    140    H    -8.199    -0.226    -5.048
    141    O    -6.312    0.630    -5.063
    142    C    -5.368    -0.357    -4.664
    143    H    -5.024    -0.872    -5.593
    144    N    -4.199    0.199    -3.971
    145    C    -2.961    -0.376    -3.855
    146    N    -0.783    -2.988    -4.500
    147    H    -1.357    -3.664    -4.955
    148    H    0.178    -3.221    -4.316
    149    N    -2.589    -1.560    -4.366
    150    C    -1.312    -1.840    -4.116
    151    N    -0.476    -0.992    -3.438
    152    H    0.497    -1.246    -3.368
    153    C    -0.818    0.261    -2.952
    154    O    0.013    0.986    -2.397
    155    C    -2.195    0.535    -3.152
    156    N    -2.956    1.629    -2.772
    157    C    -4.142    1.373    -3.276
    158    H    -5.037    1.972    -3.150
    159    C    -6.099    -1.316    -3.783
    160    H    -5.457    -1.696    -2.966
    161    O    -6.608    -2.378    -4.574
    162    H    -5.924    -3.065    -4.592
    163    C    -7.184    -0.447    -3.168
    164    H    -6.745    0.240    -2.410
    165    O    -8.318    -1.177    -2.658
    166    P    -8.205    -1.856    -1.237
    167    O    -9.460    -2.600    -0.981
    168    O    -7.860    -0.815    -0.245
    169    O    -7.001    -2.880    -1.314
    170    C    -7.135    -4.103    -2.079
    171    H    -7.665    -3.934    -3.044
    172    H    -7.759    -4.834    -1.513
    173    C    -5.777    -4.781    -2.393
    174    H    -5.915    -5.542    -3.193
    175    O    -4.757    -3.855    -2.860
    176    C    -3.477    -4.285    -2.418
    177    H    -2.881    -4.474    -3.340
    178    N    -2.777    -3.268    -1.605
    179    C    -1.441    -3.293    -1.280
    180    N    1.679    -4.804    -1.475
    181    H    1.513    -5.525    -2.143
    182    H    2.625    -4.573    -1.243
    183    N    -0.557    -4.238    -1.648
    184    C    0.681    -3.971    -1.237
    185    N    1.003    -2.855    -0.517
    186    H    1.963    -2.762    -0.237
    187    C    0.114    -1.867    -0.108
    188    O    0.512    -0.899    0.546
    189    C    -1.214    -2.147    -0.541
    190    N    -2.391    -1.420    -0.386
    191    C    -3.292    -2.123    -1.039
    192    H    -4.350    -1.865    -1.139
    193    C    -3.669    -5.576    -1.653
    194    H    -2.996    -5.640    -0.769
    195    O    -3.447    -6.681    -2.513
    196    H    -3.722    -7.495    -2.055
    197    C    -5.123    -5.462    -1.205
    198    H    -5.223    -4.771    -0.338
    199    O    -5.762    -6.723    -0.947
    200    H    -5.318    -7.162    -0.202
    201    H    10.643    -1.367    0.770
    202    O    9.971    -1.998    0.451
    203    C    10.613    -3.279    0.358
    204    H    10.867    -3.636    1.381
    205    H    11.556    -3.169    -0.221
    206    C    9.749    -4.335    -0.328
    207    H    10.322    -5.270    -0.524
    208    O    8.598    -4.674    0.530
    209    C    7.443    -4.844    -0.290
    210    H    7.046    -5.868    -0.081
    211    N    6.352    -3.844    -0.048
    212    C    6.691    -2.632    0.493
    213    H    7.743    -2.501    0.744
    214    C    5.775    -1.690    0.734
    215    H    6.034    -0.736    1.184
    216    C    5.017    -4.090    -0.400
    217    O    4.711    -5.186    -0.896
    218    N    4.071    -3.133    -0.185
    219    C    4.427    -1.963    0.382
    220    N    3.511    -1.016    0.604
    221    H    2.540    -1.144    0.415
    222    H    3.770    -0.163    1.056
    223    C    7.940    -4.794    -1.705
    224    H    7.238    -4.264    -2.347
    225    O    8.260    -6.100    -2.157
    226    H    7.436    -6.544    -2.410
    227    C    9.132    -3.862    -1.642
    228    H    8.775    -2.813    -1.508
    229    O    10.062    -3.968    -2.745
    230    P    9.772    -3.229    -4.121
    231    O    10.712    -3.753    -5.141
    232    O    9.807    -1.767    -3.889
    233    O    8.299    -3.610    -4.554
    234    C    8.005    -4.938    -5.056
    235    H    8.561    -5.722    -4.498
    236    H    8.328    -5.027    -6.119
    237    C    6.507    -5.306    -4.993
    238    H    6.378    -6.408    -5.034
    239    O    5.827    -4.835    -3.804
    240    C    4.509    -4.471    -4.081
    241    H    3.905    -5.171    -3.457
    242    N    4.120    -3.095    -3.669
    243    C    5.050    -2.182    -3.229
    244    H    6.092    -2.514    -3.253
    245    C    4.673    -0.967    -2.794
    246    H    5.380    -0.231    -2.417
    247    C    2.767    -2.757    -3.676
    248    O    1.932    -3.587    -4.065
    249    N    2.374    -1.548    -3.232
    250    C    3.278    -0.664    -2.792
    251    N    2.834    0.512    -2.360
    252    H    1.844    0.680    -2.338
    253    H    3.439    1.217    -1.988
    254    C    4.305    -4.755    -5.529
    255    H    3.713    -3.967    -6.022
    256    O    3.685    -6.024    -5.602
    257    H    2.732    -5.868    -5.507
    258    C    5.722    -4.722    -6.111
    259    H    6.078    -3.670    -6.223
    260    O    5.954    -5.530    -7.279
    261    P    5.760    -4.897    -8.687
    262    O    5.852    -5.975    -9.692
    263    O    6.711    -3.768    -8.831
    264    O    4.309    -4.324    -8.616
    265    C    3.180    -5.227    -8.549
    266    H    3.291    -6.023    -7.802
    267    H    3.105    -5.800    -9.492
    268    C    1.868    -4.471    -8.355
    269    H    0.995    -5.151    -8.416
    270    O    1.743    -3.793    -7.075
    271    C    1.201    -2.509    -7.262
    272    H    0.267    -2.508    -6.660
    273    N    2.127    -1.427    -6.801
    274    C    3.468    -1.451    -7.086
    275    H    3.802    -2.332    -7.630
    276    C    1.574    -0.338    -6.184
    277    O    0.363    -0.225    -6.056
    278    N    2.453    0.624    -5.747
    279    H    2.083    1.402    -5.227
    280    C    3.816    0.631    -5.939
    281    O    4.498    1.542    -5.472
    282    C    4.311    -0.480    -6.699
    283    H    5.372    -0.520    -6.924
    284    C    0.822    -2.386    -8.722
    285    H    1.026    -1.356    -9.073
    286    O    -0.543    -2.694    -8.905
    287    H    -0.654    -2.840    -9.860
    288    C    1.743    -3.404    -9.411
    289    H    2.724    -2.906    -9.595
    290    O    1.233    -4.060    -10.572
    291    P    2.021    -4.457    -11.875
    292    O    3.387    -4.891    -11.582
    293    O    1.206    -5.440    -12.636
    294    O    2.122    -3.091    -12.657
    295    C    1.198    -2.774    -13.719
    296    H    1.411    -3.419    -14.600
    297    H    1.419    -1.738    -14.049
    298    C    -0.313    -2.882    -13.362
    299    H    -0.657    -3.916    -13.582
    300    O    -0.547    -2.648    -11.950
    301    C    -1.032    -1.380    -11.721
    302    H    -1.728    -1.541    -10.863
    303    N    -0.050    -0.400    -11.257
    304    C    0.778    1.265    -10.085
    305    N    1.839    0.726    -10.797
    306    C    1.301    -0.260    -11.476
    307    H    1.859    -0.903    -12.152
    308    N    -0.557    2.677    -8.739
    309    C    -1.593    1.931    -9.126
    310    H    -2.560    2.197    -8.688
    311    N    -1.607    0.832    -9.875
    312    C    -0.387    0.578    -10.362
    313    C    0.677    2.355    -9.193
    314    N    1.729    3.078    -8.772
    315    H    2.614    3.020    -9.242
    316    H    1.538    3.905    -8.248
    317    C    -1.810    -0.997    -12.917
    318    H    -1.738    0.081    -13.155
    319    O    -3.134    -1.389    -12.626
    320    H    -3.214    -2.297    -12.944
    321    C    -1.204    -1.848    -14.062
    322    H    -0.527    -1.223    -14.688
    323    O    -2.179    -2.536    -14.872
    324    P    -2.947    -1.832    -16.051
    325    O    -4.139    -2.652    -16.382
    326    O    -1.973    -1.619    -17.143
    327    O    -3.394    -0.427    -15.519
    328    C    -4.691    -0.249    -14.903
    329    H    -4.915    -1.019    -14.131
    330    H    -5.494    -0.324    -15.667
    331    C    -4.801    1.127    -14.249
    332    H    -5.770    1.241    -13.717
    333    O    -3.741    1.386    -13.293
    334    C    -3.663    2.757    -13.091
    335    H    -4.314    2.915    -12.196
    336    N    -2.299    3.243    -12.786
    337    C    -1.199    2.685    -13.368
    338    H    -1.427    1.902    -14.092
    339    C    -2.184    4.305    -11.928
    340    O    -3.165    4.883    -11.475
    341    N    -0.897    4.677    -11.624
    342    H    -0.765    5.368    -10.901
    343    C    0.261    4.125    -12.122
    344    O    1.354    4.561    -11.775
    345    C    0.051    3.067    -13.065
    346    H    0.922    2.602    -13.516
    347    C    -4.279    3.415    -14.301
    348    H    -3.578    4.071    -14.853
    349    O    -5.400    4.081    -13.790
    350    H    -5.411    5.012    -14.079
    351    C    -4.689    2.262    -15.224
    352    H    -3.846    1.987    -15.900
    353    O    -5.935    2.424    -15.946
    354    P    -5.975    3.295    -17.250
    355    O    -7.182    2.911    -18.016
    356    O    -4.682    3.168    -17.959
    357    O    -6.123    4.804    -16.780
    358    C    -7.394    5.246    -16.228
    359    H    -7.844    4.486    -15.541
    360    H    -8.120    5.425    -17.052
    361    C    -7.274    6.566    -15.448
    362    H    -8.276    6.910    -15.102
    363    O    -6.456    6.357    -14.268
    364    C    -5.665    7.484    -13.999
    365    H    -5.972    7.800    -12.973
    366    N    -4.203    7.223    -14.017
    367    C    -3.644    6.508    -15.045
    368    H    -4.344    6.038    -15.740
    369    C    -2.324    6.282    -15.096
    370    H    -1.870    5.636    -15.844
    371    C    -3.374    7.863    -13.101
    372    O    -3.875    8.636    -12.272
    373    N    -2.039    7.641    -13.129
    374    C    -1.505    6.874    -14.095
    375    N    -0.190    6.643    -14.099
    376    H    0.413    7.047    -13.407
    377    H    0.248    6.114    -14.832
    378    C    -6.061    8.522    -14.992
    379    H    -5.190    9.110    -15.344
    380    O    -7.045    9.336    -14.385
    381    H    -6.570    10.123    -14.071
    382    C    -6.583    7.708    -16.174
    383    H    -5.740    7.267    -16.750
    384    O    -7.509    8.393    -17.035
    385    P    -6.986    9.436    -18.093
    386    O    -6.041    8.756    -19.007
    387    O    -8.163    10.060    -18.734
    388    O    -6.188    10.545    -17.295
    389    C    -6.884    11.499    -16.456
    390    H    -7.733    11.031    -15.904
    391    H    -7.345    12.290    -17.089
    392    C    -5.947    12.198    -15.438
    393    H    -6.533    12.668    -14.618
    394    O    -4.991    11.304    -14.806
    395    C    -3.812    12.008    -14.472
    396    H    -3.828    12.097    -13.362
    397    N    -2.584    11.277    -14.851
    398    C    -1.339    11.497    -14.319
    399    N    0.748    13.244    -12.175
    400    H    0.124    13.887    -11.733
    401    H    1.716    13.256    -11.912
    402    N    -1.033    12.414    -13.386
    403    C    0.262    12.414    -13.075
    404    N    1.172    11.573    -13.658
    405    H    2.135    11.685    -13.386
    406    C    0.892    10.626    -14.635
    407    O    1.790    9.921    -15.105
    408    C    -0.496    10.603    -14.954
    409    N    -1.202    9.824    -15.863
    410    C    -2.438    10.263    -15.773
    411    H    -3.287    9.883    -16.346
    412    C    -3.902    13.393    -15.102
    413    H    -2.982    13.648    -15.674
    414    O    -4.132    14.363    -14.093
    415    H    -4.355    15.211    -14.515
    416    C    -5.081    13.257    -16.079
    417    H    -4.739    12.833    -17.048
    418    O    -5.858    14.449    -16.283
    419    H    -5.312    15.137    -16.697
 $END
