!*** FMO 5.3 (Gamess) INPUT generated by Facio 22.1.1.32 ***
 $CONTRL RUNTYP=ENERGY NPRINT=-5 ISPHER=1 MAXIT=200 $END
 $SYSTEM MWORDS=63 MEMDDI=63 $END
 $GDDI NGROUP=1 $END
 $SCF DIRSCF=.TRUE. NPUNCH=0 $END
!*** NumCPU : 2  MemPerNode : 512MB
 $PCM SOLVNT=WATER IEF=-10 ICOMP=2 ICAV=1 IDISP=1 IFMO=-1 $END
 $PCMCAV RADII=SUAHF $END
 $TESCAV NTSALL=60 $END
 $FMOPRP
    NAODIR=200
    NGRFMO(1)=1, 1, 0, 0, 0,   0, 0, 0, 0, 0
    IPIEDA=1
    NPRINT=9
 $END
 $FMO
      SCFTYP(1)=RHF
      MODGRD=10
      MODMUL=0
      MAXCAO=5
      MAXBND=10
      NLAYER=1
      MPLEVL(1)=2
      NFRAG=8
      ICHARG(1)=-1, -1, -1, -1, -1, -1, -1, 0
      FRGNAM(1)=F1, F2, F3, F4, F5, F6, F7, F8
      indat(1)=0
               1   -36   0
               37   -67   0
               68   -97   0
               98   -130   0
               131   -163   0
               164   -194   0
               195   -228   0
               229   -256   0
 $END

 $FMOBND
   -37   36       6-31G*    MINI
   -68   67       6-31G*    MINI
   -98   97       6-31G*    MINI
   -131   130       6-31G*    MINI
   -164   163       6-31G*    MINI
   -195   194       6-31G*    MINI
   -229   228       6-31G*    MINI
 $END
 $FMOHYB
 6-31G*      15   5
   1 0  -0.065034   0.288264   0.000000   0.000000   0.604412
         0.290129   0.000000   0.000000   0.319045  -0.017106
        -0.017106   0.057934   0.000000   0.000000   0.000000
   0 1  -0.065040   0.288293   0.569832   0.000000  -0.201456
         0.290147   0.300783   0.000000  -0.106342   0.049598
        -0.017106  -0.008771   0.000000  -0.027223   0.000000
   0 1  -0.065039   0.288293  -0.284916  -0.493490  -0.201455
         0.290145  -0.150392  -0.260486  -0.106340  -0.000427
         0.032923  -0.008771   0.033353   0.013612   0.023576
   0 1  -0.065039   0.288293  -0.284916   0.493490  -0.201455
         0.290145  -0.150392   0.260486  -0.106340  -0.000427
         0.032923  -0.008771  -0.033353   0.013612  -0.023576
   0 1   1.010938  -0.011975   0.000000   0.000000   0.000000
        -0.054085   0.000000   0.000000  -0.000000  -0.003174
        -0.003174  -0.003174   0.000000   0.000000   0.000000
 MINI         5   5
   1 0  -0.104883   0.308874   0.000000   0.000000   0.521806
   0 1  -0.104883   0.308874   0.491961   0.000000  -0.173934
   0 1  -0.104883   0.308876  -0.245980  -0.426050  -0.173933
   0 1  -0.104883   0.308876  -0.245980   0.426050  -0.173933
   0 1   0.988209   0.063992   0.000000   0.000000   0.000000
 $END
 
 $DATA
 FMO calculation
 C1 
 H.1-1    1
      N31 6
   
 O.1-1    8
      N31 6
      d 1
      1 0.800 1.0
   
 C.1-1    6
      N31 6
      d 1
      1 0.800 1.0
   
 N.1-1    7
      N31 6
      d 1
      1 0.800 1.0
   
 P.1-1   15
      N31 6
      d 1
      1 0.550 1.0
   
 $END
 $FMOXYZ
    1    H    -2.505    4.118    15.810
    2    O    -2.082    4.407    14.981
    3    C    -0.665    4.357    15.211
    4    H    -0.377    3.319    15.493
    5    H    -0.397    5.024    16.060
    6    C    0.151    4.768    13.984
    7    H    1.239    4.740    14.217
    8    O    -0.084    3.834    12.884
    9    C    -0.128    4.564    11.667
    10    H    0.626    4.102    10.990
    11    N    -1.444    4.472    11.024
    12    C    -1.716    4.734    9.710
    13    N    -0.657    5.739    6.574
    14    H    0.316    5.904    6.714
    15    H    -1.048    5.871    5.659
    16    N    -0.828    5.145    8.792
    17    C    -1.382    5.328    7.596
    18    N    -2.703    5.074    7.336
    19    H    -3.036    5.218    6.396
    20    C    -3.642    4.629    8.259
    21    O    -4.817    4.422    7.936
    22    C    -3.063    4.470    9.548
    23    N    -3.634    4.064    10.750
    24    C    -2.631    4.077    11.599
    25    H    -2.689    3.809    12.658
    26    C    0.281    5.987    11.969
    27    H    -0.198    6.722    11.291
    28    O    1.687    6.099    11.882
    29    H    1.904    6.964    12.250
    30    C    -0.183    6.156    13.410
    31    H    -1.293    6.263    13.451
    32    O    0.514    7.189    14.159
    33    P    -0.055    8.664    14.109
    34    O    -1.475    8.646    14.519
    35    O    0.839    9.566    14.868
    36    O    0.047    9.041    12.583
    37    C    1.342    9.411    12.037
    38    H    2.078    8.582    12.133
    39    H    1.767    10.289    12.579
    40    C    1.246    9.794    10.554
    41    H    2.260    9.998    10.140
    42    O    0.675    8.707    9.776
    43    C    -0.151    9.252    8.756
    44    H    0.266    8.865    7.801
    45    N    -1.569    8.812    8.863
    46    C    -2.065    8.360    10.064
    47    H    -1.363    8.362    10.897
    48    C    -3.325    7.922    10.181
    49    H    -3.722    7.533    11.115
    50    C    -2.410    8.886    7.757
    51    O    -1.972    9.351    6.691
    52    N    -3.683    8.440    7.855
    53    C    -4.147    7.959    9.020
    54    N    -5.396    7.503    9.074
    55    H    -5.961    7.524    8.245
    56    H    -5.788    7.104    9.906
    57    C    0.013    10.764    8.789
    58    H    -0.914    11.291    8.500
    59    O    1.076    11.166    7.937
    60    H    1.245    12.108    8.107
    61    C    0.348    10.996    10.256
    62    H    -0.564    10.871    10.886
    63    O    1.065    12.216    10.532
    64    P    0.258    13.506    10.937
    65    O    -0.774    13.136    11.933
    66    O    1.232    14.542    11.346
    67    O    -0.437    13.992    9.607
    68    C    -1.700    14.713    9.671
    69    H    -1.520    15.802    9.517
    70    H    -2.209    14.614    10.659
    71    C    -2.709    14.217    8.612
    72    H    -2.414    14.538    7.591
    73    O    -2.749    12.760    8.615
    74    C    -4.083    12.300    8.553
    75    H    -4.105    11.572    7.707
    76    N    -4.487    11.615    9.816
    77    C    -3.711    11.685    10.960
    78    H    -2.801    12.287    10.889
    79    C    -5.616    10.825    9.781
    80    O    -6.286    10.674    8.765
    81    N    -5.916    10.190    10.959
    82    H    -6.739    9.603    10.961
    83    C    -5.185    10.200    12.126
    84    O    -5.553    9.529    13.088
    85    C    -4.015    11.021    12.084
    86    H    -3.381    11.059    12.964
    87    C    -4.947    13.506    8.214
    88    H    -5.974    13.428    8.630
    89    O    -5.011    13.677    6.808
    90    H    -5.663    13.044    6.459
    91    C    -4.168    14.629    8.881
    92    H    -4.318    14.571    9.987
    93    O    -4.424    15.940    8.333
    94    P    -5.281    16.979    9.138
    95    O    -4.751    17.050    10.517
    96    O    -5.276    18.255    8.391
    97    O    -6.743    16.397    9.138
    98    C    -7.713    16.979    10.047
    99    H    -7.780    18.086    9.921
    100    H    -7.421    16.775    11.103
    101    C    -9.113    16.380    9.823
    102    H    -9.790    16.663    10.660
    103    O    -9.700    16.944    8.614
    104    C    -10.466    15.948    7.954
    105    H    -11.497    16.363    7.863
    106    N    -9.941    15.675    6.617
    107    C    -9.786    15.292    4.460
    108    N    -8.485    15.449    4.921
    109    C    -8.630    15.667    6.206
    110    H    -7.817    15.845    6.916
    111    N    -11.666    14.935    3.061
    112    C    -12.406    15.036    4.168
    113    H    -13.485    14.918    4.020
    114    N    -12.025    15.289    5.425
    115    C    -10.689    15.411    5.499
    116    C    -10.320    15.075    3.173
    117    N    -9.572    15.058    2.059
    118    H    -8.577    14.974    2.109
    119    H    -10.001    14.806    1.191
    120    C    -10.500    14.719    8.828
    121    H    -10.501    13.780    8.231
    122    O    -11.642    14.755    9.666
    123    H    -11.545    14.004    10.288
    124    C    -9.197    14.852    9.627
    125    H    -8.336    14.546    8.992
    126    O    -9.145    14.177    10.908
    127    P    -9.599    12.671    11.036
    128    O    -8.795    11.999    12.074
    129    O    -11.065    12.698    11.250
    130    O    -9.308    11.990    9.644
    131    C    -9.737    10.617    9.415
    132    H    -9.992    10.068    10.355
    133    H    -8.875    10.069    8.979
    134    C    -10.952    10.506    8.461
    135    H    -11.885    10.756    9.010
    136    O    -10.817    11.415    7.337
    137    C    -10.338    10.702    6.218
    138    H    -11.171    10.712    5.482
    139    N    -9.146    11.322    5.657
    140    C    -7.678    12.196    4.280
    141    N    -7.107    12.254    5.550
    142    C    -8.023    11.728    6.330
    143    H    -7.951    11.627    7.416
    144    N    -8.047    12.398    1.945
    145    C    -9.217    11.789    2.158
    146    H    -9.838    11.628    1.268
    147    N    -9.755    11.376    3.308
    148    C    -8.927    11.609    4.336
    149    C    -7.240    12.633    3.010
    150    N    -6.094    13.305    2.804
    151    H    -5.489    13.570    3.554
    152    H    -5.853    13.591    1.873
    153    C    -10.087    9.282    6.641
    154    H    -9.045    9.151    7.008
    155    O    -10.319    8.433    5.554
    156    H    -10.351    7.516    5.865
    157    C    -11.075    9.111    7.801
    158    H    -10.665    8.368    8.526
    159    O    -12.456    8.778    7.466
    160    P    -12.840    7.326    6.962
    161    O    -11.709    6.417    7.263
    162    O    -14.153    6.941    7.517
    163    O    -12.967    7.480    5.399
    164    C    -13.630    6.512    4.565
    165    H    -14.658    6.322    4.953
    166    H    -13.089    5.539    4.582
    167    C    -13.772    6.963    3.094
    168    H    -14.196    6.123    2.502
    169    O    -14.691    8.073    3.005
    170    C    -13.994    9.287    2.746
    171    H    -14.279    9.597    1.716
    172    N    -14.387    10.352    3.722
    173    C    -13.434    11.228    4.206
    174    H    -12.399    11.100    3.882
    175    C    -13.755    12.187    5.085
    176    H    -13.009    12.848    5.521
    177    C    -15.739    10.582    4.028
    178    O    -16.628    9.930    3.454
    179    N    -16.068    11.523    4.939
    180    C    -15.121    12.310    5.467
    181    N    -15.495    13.237    6.346
    182    H    -16.462    13.279    6.609
    183    H    -14.855    13.883    6.762
    184    C    -12.506    8.952    2.760
    185    H    -12.083    9.057    3.783
    186    O    -11.785    9.756    1.845
    187    H    -10.843    9.557    1.926
    188    C    -12.504    7.474    2.385
    189    H    -11.625    6.990    2.874
    190    O    -12.560    7.241    0.953
    191    P    -11.704    6.101    0.308
    192    O    -11.625    4.982    1.267
    193    O    -12.255    5.798    -1.031
    194    O    -10.274    6.743    0.143
    195    C    -9.985    7.536    -1.033
    196    H    -10.786    8.290    -1.214
    197    H    -9.920    6.871    -1.925
    198    C    -8.660    8.302    -0.900
    199    H    -8.473    8.928    -1.801
    200    O    -8.723    9.196    0.251
    201    C    -7.467    9.180    0.923
    202    H    -7.120    10.233    1.012
    203    N    -7.582    8.582    2.254
    204    C    -6.677    8.679    3.275
    205    N    -3.686    9.856    4.544
    206    H    -3.274    10.302    3.749
    207    H    -3.130    9.721    5.370
    208    N    -5.517    9.353    3.242
    209    C    -4.877    9.305    4.409
    210    N    -5.386    8.691    5.522
    211    H    -4.833    8.702    6.366
    212    C    -6.585    7.995    5.587
    213    O    -6.968    7.469    6.638
    214    C    -7.218    7.955    4.316
    215    N    -8.385    7.332    3.918
    216    C    -8.588    7.765    2.705
    217    H    -9.476    7.575    2.106
    218    C    -6.493    8.410    0.060
    219    H    -5.722    7.881    0.657
    220    O    -5.862    9.280    -0.857
    221    H    -5.349    8.735    -1.469
    222    C    -7.424    7.431    -0.641
    223    H    -7.757    6.650    0.084
    224    O    -6.914    6.893    -1.887
    225    P    -6.360    5.413    -1.885
    226    O    -7.227    4.564    -1.046
    227    O    -6.158    4.968    -3.279
    228    O    -4.950    5.508    -1.191
    229    C    -3.907    6.292    -1.818
    230    H    -4.231    7.341    -2.006
    231    H    -3.622    5.842    -2.799
    232    C    -2.659    6.336    -0.935
    233    H    -1.811    6.818    -1.469
    234    O    -2.935    7.143    0.243
    235    C    -2.291    6.561    1.368
    236    H    -1.646    7.365    1.795
    237    N    -3.261    6.103    2.403
    238    C    -4.574    5.854    2.067
    239    H    -4.847    6.047    1.031
    240    C    -5.465    5.441    2.975
    241    H    -6.512    5.265    2.730
    242    C    -2.835    5.885    3.708
    243    O    -1.642    6.074    3.994
    244    N    -3.720    5.469    4.642
    245    C    -5.003    5.242    4.306
    246    N    -5.853    4.841    5.248
    247    H    -5.536    4.743    6.195
    248    H    -6.822    4.688    5.054
    249    C    -1.406    5.429    0.857
    250    H    -1.330    4.597    1.591
    251    O    -0.108    5.917    0.545
    252    H    0.405    5.220    0.102
    253    C    -2.177    4.987    -0.382
    254    H    -3.063    4.385    -0.087
    255    O    -1.390    4.294    -1.366
    256    H    -1.072    3.450    -1.000
 $END
