!*** FMO 5.3 (Gamess) INPUT generated by Facio 22.1.1.32 ***
 $CONTRL RUNTYP=ENERGY NPRINT=-5 ISPHER=1 MAXIT=200 $END
 $SYSTEM MWORDS=63 MEMDDI=63 $END
 $GDDI NGROUP=1 $END
 $SCF DIRSCF=.TRUE. NPUNCH=0 $END
!*** NumCPU : 2  MemPerNode : 512MB
 $PCM SOLVNT=WATER IEF=-10 ICOMP=2 ICAV=1 IDISP=1 IFMO=-1 $END
 $PCMCAV RADII=SUAHF $END
 $TESCAV NTSALL=60 $END
 $FMOPRP
    NAODIR=200
    NGRFMO(1)=1, 1, 0, 0, 0,   0, 0, 0, 0, 0
    IPIEDA=1
    NPRINT=9
 $END
 $FMO
      SCFTYP(1)=RHF
      MODGRD=10
      MODMUL=0
      MAXCAO=5
      MAXBND=10
      NLAYER=1
      MPLEVL(1)=2
      NFRAG=8
      ICHARG(1)=-1, -1, -1, -1, -1, -1, -1, 0
      FRGNAM(1)=F1, F2, F3, F4, F5, F6, F7, F8
      indat(1)=0
               1   -36   0
               37   -67   0
               68   -97   0
               98   -130   0
               131   -163   0
               164   -194   0
               195   -228   0
               229   -256   0
 $END

 $FMOBND
   -37   36       6-31G*    MINI
   -68   67       6-31G*    MINI
   -98   97       6-31G*    MINI
   -131   130       6-31G*    MINI
   -164   163       6-31G*    MINI
   -195   194       6-31G*    MINI
   -229   228       6-31G*    MINI
 $END
 $FMOHYB
 6-31G*      15   5
   1 0  -0.065034   0.288264   0.000000   0.000000   0.604412
         0.290129   0.000000   0.000000   0.319045  -0.017106
        -0.017106   0.057934   0.000000   0.000000   0.000000
   0 1  -0.065040   0.288293   0.569832   0.000000  -0.201456
         0.290147   0.300783   0.000000  -0.106342   0.049598
        -0.017106  -0.008771   0.000000  -0.027223   0.000000
   0 1  -0.065039   0.288293  -0.284916  -0.493490  -0.201455
         0.290145  -0.150392  -0.260486  -0.106340  -0.000427
         0.032923  -0.008771   0.033353   0.013612   0.023576
   0 1  -0.065039   0.288293  -0.284916   0.493490  -0.201455
         0.290145  -0.150392   0.260486  -0.106340  -0.000427
         0.032923  -0.008771  -0.033353   0.013612  -0.023576
   0 1   1.010938  -0.011975   0.000000   0.000000   0.000000
        -0.054085   0.000000   0.000000  -0.000000  -0.003174
        -0.003174  -0.003174   0.000000   0.000000   0.000000
 MINI         5   5
   1 0  -0.104883   0.308874   0.000000   0.000000   0.521806
   0 1  -0.104883   0.308874   0.491961   0.000000  -0.173934
   0 1  -0.104883   0.308876  -0.245980  -0.426050  -0.173933
   0 1  -0.104883   0.308876  -0.245980   0.426050  -0.173933
   0 1   0.988209   0.063992   0.000000   0.000000   0.000000
 $END
 
 $DATA
 FMO calculation
 C1 
 H.1-1    1
      N31 6
   
 O.1-1    8
      N31 6
      d 1
      1 0.800 1.0
   
 C.1-1    6
      N31 6
      d 1
      1 0.800 1.0
   
 N.1-1    7
      N31 6
      d 1
      1 0.800 1.0
   
 P.1-1   15
      N31 6
      d 1
      1 0.550 1.0
   
 $END
 $FMOXYZ
    1    H    -0.379    5.191    16.302
    2    O    -0.117    5.441    15.398
    3    C    1.279    5.772    15.444
    4    H    1.853    4.886    15.794
    5    H    1.438    6.594    16.174
    6    C    1.832    6.207    14.083
    7    H    2.897    6.518    14.162
    8    O    1.773    5.083    13.153
    9    C    1.431    5.567    11.862
    10    H    2.230    5.222    11.166
    11    N    0.142    5.028    11.407
    12    C    -0.306    5.002    10.114
    13    N    0.144    5.739    6.762
    14    H    1.026    6.207    6.750
    15    H    -0.354    5.616    5.899
    16    N    0.344    5.496    9.046
    17    C    -0.331    5.307    7.913
    18    N    -1.536    4.659    7.856
    19    H    -1.978    4.558    6.957
    20    C    -2.226    4.129    8.939
    21    O    -3.310    3.555    8.792
    22    C    -1.528    4.357    10.157
    23    N    -1.860    4.013    11.462
    24    C    -0.843    4.441    12.174
    25    H    -0.743    4.352    13.259
    26    C    1.439    7.075    11.926
    27    H    0.717    7.535    11.223
    28    O    2.743    7.549    11.650
    29    H    2.716    8.509    11.753
    30    C    1.047    7.325    13.377
    31    H    -0.037    7.116    13.528
    32    O    1.445    8.603    13.906
    33    P    0.486    9.846    13.830
    34    O    -0.841    9.463    14.354
    35    O    1.166    10.981    14.495
    36    O    0.360    10.129    12.284
    37    C    1.480    10.694    11.560
    38    H    2.401    10.084    11.693
    39    H    1.719    11.712    11.935
    40    C    1.194    10.803    10.058
    41    H    2.067    11.218    9.511
    42    O    0.940    9.476    9.518
    43    C    -0.053    9.561    8.507
    44    H    0.429    9.164    7.584
    45    N    -1.264    8.743    8.798
    46    C    -1.547    8.360    10.089
    47    H    -0.853    8.713    10.852
    48    C    -2.602    7.584    10.372
    49    H    -2.824    7.245    11.382
    50    C    -2.125    8.377    7.766
    51    O    -1.883    8.750    6.609
    52    N    -3.200    7.602    8.035
    53    C    -3.445    7.196    9.291
    54    N    -4.500    6.418    9.514
    55    H    -5.091    6.153    8.748
    56    H    -4.714    6.063    10.429
    57    C    -0.365    11.030    8.304
    58    H    -1.425    11.196    8.038
    59    O    0.482    11.568    7.303
    60    H    0.426    12.532    7.367
    61    C    -0.048    11.621    9.672
    62    H    -0.841    11.351    10.408
    63    O    0.257    13.042    9.653
    64    P    -0.911    14.060    9.941
    65    O    -1.385    13.817    11.318
    66    O    -0.438    15.431    9.645
    67    O    -2.063    13.675    8.951
    68    C    -2.022    14.023    7.550
    69    H    -1.121    13.603    7.052
    70    H    -2.012    15.129    7.424
    71    C    -3.263    13.494    6.823
    72    H    -3.229    13.752    5.742
    73    O    -3.329    12.043    6.920
    74    C    -4.673    11.633    7.051
    75    H    -4.841    10.948    6.191
    76    N    -4.915    10.916    8.332
    77    C    -4.130    11.153    9.439
    78    H    -3.315    11.857    9.288
    79    C    -5.941    10.001    8.379
    80    O    -6.658    9.766    7.410
    81    N    -6.091    9.362    9.584
    82    H    -6.849    8.695    9.630
    83    C    -5.311    9.508    10.713
    84    O    -5.504    8.800    11.699
    85    C    -4.278    10.491    10.593
    86    H    -3.595    10.638    11.427
    87    C    -5.540    12.874    6.901
    88    H    -6.446    12.817    7.535
    89    O    -5.915    13.038    5.543
    90    H    -6.777    12.610    5.396
    91    C    -4.596    13.974    7.390
    92    H    -4.491    13.914    8.504
    93    O    -4.902    15.308    6.902
    94    P    -5.475    16.371    7.916
    95    O    -4.357    16.990    8.657
    96    O    -6.347    17.295    7.156
    97    O    -6.374    15.553    8.931
    98    C    -7.747    15.207    8.610
    99    H    -7.778    14.227    8.092
    100    H    -8.232    15.947    7.930
    101    C    -8.584    15.083    9.894
    102    H    -8.077    14.403    10.613
    103    O    -8.762    16.392    10.502
    104    C    -10.070    16.877    10.227
    105    H    -10.606    16.872    11.208
    106    N    -10.025    18.240    9.686
    107    C    -10.541    20.273    9.020
    108    N    -9.174    20.133    8.809
    109    C    -8.919    18.910    9.215
    110    H    -7.937    18.430    9.190
    111    N    -12.747    21.145    9.075
    112    C    -13.109    19.973    9.611
    113    H    -14.174    19.867    9.840
    114    N    -12.357    18.907    9.905
    115    C    -11.074    19.118    9.567
    116    C    -11.437    21.335    8.770
    117    N    -11.058    22.512    8.237
    118    H    -10.100    22.716    8.020
    119    H    -11.731    23.246    8.128
    120    C    -10.730    15.887    9.280
    121    H    -10.513    16.151    8.221
    122    O    -12.123    15.784    9.486
    123    H    -12.250    15.354    10.348
    124    C    -10.020    14.590    9.649
    125    H    -10.023    13.914    8.762
    126    O    -10.572    13.956    10.823
    127    P    -10.782    12.402    10.894
    128    O    -9.589    11.750    10.316
    129    O    -11.152    12.040    12.280
    130    O    -12.028    12.158    9.967
    131    C    -12.111    11.027    9.065
    132    H    -12.648    10.185    9.557
    133    H    -11.106    10.649    8.766
    134    C    -12.857    11.384    7.771
    135    H    -13.944    11.520    7.973
    136    O    -12.359    12.646    7.244
    137    C    -12.387    12.616    5.833
    138    H    -13.033    13.468    5.512
    139    N    -11.040    12.787    5.287
    140    C    -9.343    13.170    3.948
    141    N    -8.799    12.940    5.209
    142    C    -9.846    12.729    5.967
    143    H    -9.819    12.528    7.042
    144    N    -9.594    13.641    1.640
    145    C    -10.906    13.463    1.825
    146    H    -11.531    13.579    0.932
    147    N    -11.573    13.198    2.953
    148    C    -10.723    13.064    3.984
    149    C    -8.761    13.501    2.705
    150    N    -7.440    13.708    2.541
    151    H    -6.793    13.653    3.300
    152    H    -7.084    13.878    1.618
    153    C    -13.010    11.305    5.411
    154    H    -12.564    10.914    4.477
    155    O    -14.406    11.459    5.246
    156    H    -14.793    10.572    5.190
    157    C    -12.677    10.411    6.593
    158    H    -11.595    10.146    6.566
    159    O    -13.550    9.269    6.722
    160    P    -12.976    7.808    6.571
    161    O    -11.626    7.754    7.173
    162    O    -13.986    6.877    7.127
    163    O    -12.830    7.542    5.021
    164    C    -13.902    7.775    4.080
    165    H    -14.556    8.626    4.385
    166    H    -14.540    6.868    4.024
    167    C    -13.379    8.091    2.665
    168    H    -14.223    8.219    1.953
    169    O    -12.663    9.356    2.708
    170    C    -11.540    9.308    1.847
    171    H    -11.678    10.156    1.135
    172    N    -10.246    9.489    2.576
    173    C    -10.140    9.091    3.890
    174    H    -11.042    8.677    4.336
    175    C    -9.007    9.252    4.584
    176    H    -8.920    8.959    5.629
    177    C    -9.130    10.013    1.923
    178    O    -9.224    10.313    0.722
    179    N    -7.977    10.197    2.613
    180    C    -7.901    9.845    3.907
    181    N    -6.773    10.075    4.569
    182    H    -5.987    10.419    4.053
    183    H    -6.692    9.887    5.550
    184    C    -11.620    8.007    1.075
    185    H    -10.620    7.618    0.834
    186    O    -12.349    8.179    -0.125
    187    H    -12.488    7.296    -0.506
    188    C    -12.371    7.103    2.051
    189    H    -11.699    6.795    2.886
    190    O    -13.069    5.988    1.428
    191    P    -12.274    4.626    1.305
    192    O    -11.602    4.348    2.595
    193    O    -13.181    3.581    0.777
    194    O    -11.202    4.912    0.187
    195    C    -9.949    4.180    0.148
    196    H    -9.957    3.476    -0.713
    197    H    -9.761    3.574    1.069
    198    C    -8.758    5.135    -0.006
    199    H    -8.767    5.619    -1.003
    200    O    -8.868    6.186    0.985
    201    C    -7.603    6.512    1.496
    202    H    -7.492    7.610    1.371
    203    N    -7.516    6.180    2.919
    204    C    -6.522    6.556    3.780
    205    N    -3.546    8.216    4.405
    206    H    -3.301    8.585    3.511
    207    H    -2.943    8.394    5.189
    208    N    -5.436    7.285    3.467
    209    C    -4.657    7.514    4.520
    210    N    -4.949    7.061    5.778
    211    H    -4.300    7.265    6.522
    212    C    -6.063    6.311    6.132
    213    O    -6.250    5.937    7.294
    214    C    -6.887    6.042    5.008
    215    N    -8.084    5.338    4.920
    216    C    -8.428    5.455    3.661
    217    H    -9.339    5.049    3.208
    218    C    -6.585    5.787    0.651
    219    H    -5.665    5.536    1.215
    220    O    -6.249    6.577    -0.476
    221    H    -5.685    6.036    -1.041
    222    C    -7.367    4.542    0.250
    223    H    -7.483    3.865    1.130
    224    O    -6.876    3.878    -0.941
    225    P    -5.995    2.586    -0.761
    226    O    -6.564    1.751    0.320
    227    O    -5.820    1.942    -2.079
    228    O    -4.613    3.171    -0.286
    229    C    -3.857    4.046    -1.160
    230    H    -4.467    4.912    -1.507
    231    H    -3.519    3.493    -2.067
    232    C    -2.608    4.591    -0.455
    233    H    -1.987    5.195    -1.146
    234    O    -3.005    5.465    0.638
    235    C    -2.127    5.270    1.741
    236    H    -1.705    6.275    1.968
    237    N    -2.827    4.749    2.950
    238    C    -4.038    4.109    2.820
    239    H    -4.440    4.047    1.811
    240    C    -4.696    3.629    3.882
    241    H    -5.669    3.149    3.795
    242    C    -2.241    4.861    4.207
    243    O    -1.127    5.394    4.312
    244    N    -2.897    4.393    5.295
    245    C    -4.087    3.783    5.158
    246    N    -4.717    3.345    6.246
    247    H    -4.286    3.449    7.146
    248    H    -5.604    2.882    6.189
    249    C    -1.004    4.354    1.281
    250    H    -0.641    3.691    2.099
    251    O    0.071    5.121    0.756
    252    H    0.729    4.520    0.361
    253    C    -1.709    3.535    0.204
    254    H    -2.362    2.770    0.672
    255    O    -0.826    2.939    -0.763
    256    H    -0.280    2.258    -0.332
 $END
