!*** FMO 5.3 (Gamess) INPUT generated by Facio 22.1.1.32 ***
 $CONTRL RUNTYP=ENERGY NPRINT=-5 ISPHER=1 MAXIT=200 $END
 $SYSTEM MWORDS=63 MEMDDI=63 $END
 $GDDI NGROUP=1 $END
 $SCF DIRSCF=.TRUE. NPUNCH=0 $END
!*** NumCPU : 2  MemPerNode : 512MB
 $PCM SOLVNT=WATER IEF=-10 ICOMP=2 ICAV=1 IDISP=1 IFMO=-1 $END
 $PCMCAV RADII=SUAHF $END
 $TESCAV NTSALL=60 $END
 $FMOPRP
    NAODIR=200
    NGRFMO(1)=1, 1, 0, 0, 0,   0, 0, 0, 0, 0
    IPIEDA=1
    NPRINT=9
 $END
 $FMO
      SCFTYP(1)=RHF
      MODGRD=10
      MODMUL=0
      MAXCAO=5
      MAXBND=10
      NLAYER=1
      MPLEVL(1)=2
      NFRAG=8
      ICHARG(1)=-1, -1, -1, -1, -1, -1, -1, 0
      FRGNAM(1)=F1, F2, F3, F4, F5, F6, F7, F8
      indat(1)=0
               1   -36   0
               37   -67   0
               68   -97   0
               98   -130   0
               131   -163   0
               164   -194   0
               195   -228   0
               229   -256   0
 $END

 $FMOBND
   -37   36       6-31G*    MINI
   -68   67       6-31G*    MINI
   -98   97       6-31G*    MINI
   -131   130       6-31G*    MINI
   -164   163       6-31G*    MINI
   -195   194       6-31G*    MINI
   -229   228       6-31G*    MINI
 $END
 $FMOHYB
 6-31G*      15   5
   1 0  -0.065034   0.288264   0.000000   0.000000   0.604412
         0.290129   0.000000   0.000000   0.319045  -0.017106
        -0.017106   0.057934   0.000000   0.000000   0.000000
   0 1  -0.065040   0.288293   0.569832   0.000000  -0.201456
         0.290147   0.300783   0.000000  -0.106342   0.049598
        -0.017106  -0.008771   0.000000  -0.027223   0.000000
   0 1  -0.065039   0.288293  -0.284916  -0.493490  -0.201455
         0.290145  -0.150392  -0.260486  -0.106340  -0.000427
         0.032923  -0.008771   0.033353   0.013612   0.023576
   0 1  -0.065039   0.288293  -0.284916   0.493490  -0.201455
         0.290145  -0.150392   0.260486  -0.106340  -0.000427
         0.032923  -0.008771  -0.033353   0.013612  -0.023576
   0 1   1.010938  -0.011975   0.000000   0.000000   0.000000
        -0.054085   0.000000   0.000000  -0.000000  -0.003174
        -0.003174  -0.003174   0.000000   0.000000   0.000000
 MINI         5   5
   1 0  -0.104883   0.308874   0.000000   0.000000   0.521806
   0 1  -0.104883   0.308874   0.491961   0.000000  -0.173934
   0 1  -0.104883   0.308876  -0.245980  -0.426050  -0.173933
   0 1  -0.104883   0.308876  -0.245980   0.426050  -0.173933
   0 1   0.988209   0.063992   0.000000   0.000000   0.000000
 $END
 
 $DATA
 FMO calculation
 C1 
 H.1-1    1
      N31 6
   
 O.1-1    8
      N31 6
      d 1
      1 0.800 1.0
   
 C.1-1    6
      N31 6
      d 1
      1 0.800 1.0
   
 N.1-1    7
      N31 6
      d 1
      1 0.800 1.0
   
 P.1-1   15
      N31 6
      d 1
      1 0.550 1.0
   
 $END
 $FMOXYZ
    1    H    1.468    4.231    14.732
    2    O    1.582    4.667    13.866
    3    C    2.912    5.206    13.848
    4    H    3.642    4.376    13.990
    5    H    3.033    5.918    14.695
    6    C    3.248    5.939    12.545
    7    H    4.278    6.355    12.576
    8    O    3.188    5.008    11.424
    9    C    2.635    5.669    10.296
    10    H    3.372    5.562    9.467
    11    N    1.363    5.058    9.882
    12    C    0.753    5.214    8.667
    13    N    0.690    6.598    5.498
    14    H    1.508    7.173    5.486
    15    H    0.101    6.571    4.686
    16    N    1.211    5.961    7.648
    17    C    0.426    5.890    6.577
    18    N    -0.691    5.097    6.517
    19    H    -1.230    5.103    5.665
    20    C    -1.170    4.289    7.538
    21    O    -2.184    3.598    7.388
    22    C    -0.375    4.415    8.711
    23    N    -0.497    3.801    9.952
    24    C    0.565    4.205    10.612
    25    H    0.826    3.918    11.634
    26    C    2.488    7.132    10.653
    27    H    1.630    7.611    10.140
    28    O    3.680    7.822    10.332
    29    H    3.578    8.723    10.662
    30    C    2.276    7.066    12.163
    31    H    1.249    6.691    12.390
    32    O    2.618    8.279    12.883
    33    P    1.456    9.310    13.182
    34    O    0.298    8.592    13.752
    35    O    2.025    10.407    14.000
    36    O    1.077    9.849    11.748
    37    C    2.004    10.720    11.057
    38    H    2.997    10.237    10.940
    39    H    2.153    11.664    11.632
    40    C    1.501    11.101    9.658
    41    H    2.232    11.772    9.154
    42    O    1.364    9.915    8.821
    43    C    0.219    10.065    7.987
    44    H    0.595    9.957    6.944
    45    N    -0.824    9.027    8.225
    46    C    -0.853    8.336    9.412
    47    H    -0.095    8.621    10.143
    48    C    -1.751    7.366    9.634
    49    H    -1.770    6.788    10.555
    50    C    -1.780    8.758    7.248
    51    O    -1.751    9.394    6.184
    52    N    -2.706    7.796    7.462
    53    C    -2.702    7.096    8.607
    54    N    -3.606    6.133    8.771
    55    H    -4.282    5.965    8.048
    56    H    -3.624    5.555    9.589
    57    C    -0.301    11.478    8.176
    58    H    -1.404    11.542    8.066
    59    O    0.337    12.350    7.255
    60    H    0.155    13.257    7.542
    61    C    0.126    11.775    9.609
    62    H    -0.522    11.230    10.333
    63    O    0.260    13.180    9.915
    64    P    -0.934    13.970    10.561
    65    O    -1.105    13.495    11.949
    66    O    -0.681    15.415    10.396
    67    O    -2.192    13.567    9.717
    68    C    -2.471    14.201    8.445
    69    H    -1.699    13.938    7.690
    70    H    -2.495    15.310    8.544
    71    C    -3.823    13.754    7.882
    72    H    -4.058    14.293    6.938
    73    O    -3.777    12.332    7.570
    74    C    -5.030    11.747    7.868
    75    H    -5.365    11.308    6.904
    76    N    -4.913    10.680    8.897
    77    C    -3.924    10.738    9.851
    78    H    -3.263    11.598    9.781
    79    C    -5.789    9.622    8.858
    80    O    -6.675    9.532    8.007
    81    N    -5.600    8.672    9.826
    82    H    -6.239    7.893    9.813
    83    C    -4.620    8.652    10.797
    84    O    -4.540    7.707    11.579
    85    C    -3.743    9.782    10.772
    86    H    -2.929    9.829    11.492
    87    C    -5.980    12.874    8.263
    88    H    -6.737    12.569    9.016
    89    O    -6.607    13.359    7.094
    90    H    -7.541    13.071    7.073
    91    C    -5.016    13.907    8.831
    92    H    -4.661    13.580    9.832
    93    O    -5.492    15.273    8.810
    94    P    -6.043    15.940    10.125
    95    O    -5.166    15.589    11.262
    96    O    -6.202    17.388    9.860
    97    O    -7.477    15.314    10.351
    98    C    -8.307    15.824    11.432
    99    H    -7.920    16.772    11.882
    100    H    -8.342    15.070    12.251
    101    C    -9.750    16.098    10.974
    102    H    -10.383    16.403    11.839
    103    O    -9.741    17.214    10.035
    104    C    -10.683    16.978    9.001
    105    H    -11.380    17.848    9.005
    106    N    -10.030    16.902    7.688
    107    C    -9.642    16.934    5.526
    108    N    -8.401    16.827    6.137
    109    C    -8.686    16.800    7.416
    110    H    -7.954    16.718    8.220
    111    N    -11.349    17.131    3.900
    112    C    -12.217    17.080    4.915
    113    H    -13.274    17.158    4.634
    114    N    -11.975    17.041    6.231
    115    C    -10.654    16.965    6.468
    116    C    -10.023    17.048    4.175
    117    N    -9.138    17.103    3.166
    118    H    -8.173    16.888    3.323
    119    H    -9.474    17.030    2.225
    120    C    -11.449    15.722    9.343
    121    H    -11.716    15.132    8.444
    122    O    -12.623    16.052    10.060
    123    H    -12.967    15.230    10.437
    124    C    -10.454    14.965    10.209
    125    H    -9.676    14.493    9.564
    126    O    -11.079    14.043    11.125
    127    P    -10.930    12.489    10.947
    128    O    -9.531    12.170    10.603
    129    O    -11.494    11.831    12.148
    130    O    -11.842    12.129    9.710
    131    C    -13.264    12.373    9.672
    132    H    -13.524    13.357    10.123
    133    H    -13.799    11.583    10.251
    134    C    -13.806    12.355    8.229
    135    H    -14.909    12.465    8.215
    136    O    -13.259    13.495    7.509
    137    C    -12.906    13.113    6.192
    138    H    -13.417    13.824    5.502
    139    N    -11.459    13.203    5.999
    140    C    -9.447    13.456    5.156
    141    N    -9.283    13.219    6.508
    142    C    -10.491    13.083    6.959
    143    H    -10.728    12.917    8.002
    144    N    -9.034    13.943    2.882
    145    C    -10.359    13.860    2.711
    146    H    -10.714    14.027    1.688
    147    N    -11.324    13.626    3.610
    148    C    -10.791    13.439    4.825
    149    C    -8.527    13.734    4.123
    150    N    -7.193    13.800    4.309
    151    H    -6.801    13.785    5.237
    152    H    -6.598    14.050    3.546
    153    C    -13.430    11.711    5.961
    154    H    -12.771    11.121    5.288
    155    O    -14.742    11.754    5.429
    156    H    -15.045    10.835    5.356
    157    C    -13.416    11.131    7.374
    158    H    -12.373    10.873    7.660
    159    O    -14.337    10.030    7.606
    160    P    -13.929    8.602    7.060
    161    O    -12.467    8.446    7.208
    162    O    -14.779    7.573    7.697
    163    O    -14.294    8.645    5.526
    164    C    -13.744    7.641    4.626
    165    H    -14.470    6.806    4.515
    166    H    -12.796    7.193    5.015
    167    C    -13.425    8.209    3.226
    168    H    -14.347    8.335    2.623
    169    O    -12.833    9.536    3.380
    170    C    -11.720    9.669    2.524
    171    H    -11.886    10.619    1.965
    172    N    -10.428    9.759    3.264
    173    C    -10.312    9.245    4.540
    174    H    -11.215    8.808    4.974
    175    C    -9.159    9.330    5.217
    176    H    -9.042    8.952    6.230
    177    C    -9.328    10.368    2.659
    178    O    -9.455    10.829    1.513
    179    N    -8.156    10.456    3.331
    180    C    -8.060    9.965    4.577
    181    N    -6.915    10.124    5.229
    182    H    -6.191    10.629    4.761
    183    H    -6.818    9.887    6.198
    184    C    -11.773    8.521    1.543
    185    H    -10.773    8.261    1.171
    186    O    -12.604    8.845    0.442
    187    H    -12.701    8.039    -0.090
    188    C    -12.377    7.415    2.403
    189    H    -11.617    7.037    3.126
    190    O    -13.013    6.349    1.658
    191    P    -12.156    5.109    1.178
    192    O    -11.268    4.696    2.285
    193    O    -13.071    4.074    0.638
    194    O    -11.297    5.633    -0.043
    195    C    -9.977    5.065    -0.295
    196    H    -9.976    4.532    -1.270
    197    H    -9.660    4.319    0.473
    198    C    -8.881    6.140    -0.342
    199    H    -9.031    6.812    -1.213
    200    O    -8.965    6.955    0.848
    201    C    -7.679    7.330    1.280
    202    H    -7.670    8.441    1.342
    203    N    -7.404    6.767    2.605
    204    C    -6.362    7.099    3.423
    205    N    -3.519    8.959    4.061
    206    H    -3.405    9.488    3.223
    207    H    -2.865    9.084    4.814
    208    N    -5.396    7.992    3.148
    209    C    -4.539    8.130    4.153
    210    N    -4.635    7.429    5.326
    211    H    -3.941    7.596    6.038
    212    C    -5.616    6.498    5.637
    213    O    -5.626    5.905    6.719
    214    C    -6.534    6.339    4.566
    215    N    -7.660    5.532    4.461
    216    C    -8.152    5.824    3.280
    217    H    -9.061    5.398    2.844
    218    C    -6.704    6.862    0.225
    219    H    -5.713    6.605    0.646
    220    O    -6.555    7.867    -0.761
    221    H    -5.981    7.512    -1.450
    222    C    -7.431    5.635    -0.326
    223    H    -7.396    4.805    0.418
    224    O    -7.036    5.228    -1.656
    225    P    -5.968    4.078    -1.807
    226    O    -6.300    2.971    -0.879
    227    O    -5.832    3.689    -3.230
    228    O    -4.630    4.767    -1.340
    229    C    -4.073    5.846    -2.127
    230    H    -4.803    6.675    -2.266
    231    H    -3.786    5.482    -3.141
    232    C    -2.816    6.425    -1.468
    233    H    -2.367    7.218    -2.106
    234    O    -3.157    7.041    -0.191
    235    C    -2.128    6.759    0.753
    236    H    -1.788    7.750    1.134
    237    N    -2.607    5.935    1.900
    238    C    -3.748    5.176    1.777
    239    H    -4.265    5.244    0.824
    240    C    -4.212    4.432    2.788
    241    H    -5.130    3.853    2.710
    242    C    -1.882    5.893    3.087
    243    O    -0.827    6.541    3.177
    244    N    -2.337    5.150    4.123
    245    C    -3.470    4.435    4.001
    246    N    -3.904    3.729    5.045
    247    H    -3.365    3.718    5.890
    248    H    -4.729    3.157    4.999
    249    C    -0.980    6.098    0.001
    250    H    -0.443    5.359    0.632
    251    O    -0.072    7.083    -0.471
    252    H    0.557    6.665    -1.082
    253    C    -1.726    5.399    -1.131
    254    H    -2.220    4.477    -0.753
    255    O    -0.926    5.116    -2.291
    256    H    -0.234    4.466    -2.067
 $END
