!*** FMO 5.3 (Gamess) INPUT generated by Facio 22.1.1.32 ***
 $CONTRL RUNTYP=ENERGY NPRINT=-5 ISPHER=1 MAXIT=200 $END
 $SYSTEM MWORDS=63 MEMDDI=63 $END
 $GDDI NGROUP=1 $END
 $SCF DIRSCF=.TRUE. NPUNCH=0 $END
!*** NumCPU : 2  MemPerNode : 512MB
 $PCM SOLVNT=WATER IEF=-10 ICOMP=2 ICAV=1 IDISP=1 IFMO=-1 $END
 $PCMCAV RADII=SUAHF $END
 $TESCAV NTSALL=60 $END
 $FMOPRP
    NAODIR=200
    NGRFMO(1)=1, 1, 0, 0, 0,   0, 0, 0, 0, 0
    IPIEDA=1
    NPRINT=9
 $END
 $FMO
      SCFTYP(1)=RHF
      MODGRD=10
      MODMUL=0
      MAXCAO=5
      MAXBND=10
      NLAYER=1
      MPLEVL(1)=2
      NFRAG=8
      ICHARG(1)=-1, -1, -1, -1, -1, -1, -1, 0
      FRGNAM(1)=F1, F2, F3, F4, F5, F6, F7, F8
      indat(1)=0
               1   -36   0
               37   -67   0
               68   -97   0
               98   -130   0
               131   -163   0
               164   -194   0
               195   -228   0
               229   -256   0
 $END

 $FMOBND
   -37   36       6-31G*    MINI
   -68   67       6-31G*    MINI
   -98   97       6-31G*    MINI
   -131   130       6-31G*    MINI
   -164   163       6-31G*    MINI
   -195   194       6-31G*    MINI
   -229   228       6-31G*    MINI
 $END
 $FMOHYB
 6-31G*      15   5
   1 0  -0.065034   0.288264   0.000000   0.000000   0.604412
         0.290129   0.000000   0.000000   0.319045  -0.017106
        -0.017106   0.057934   0.000000   0.000000   0.000000
   0 1  -0.065040   0.288293   0.569832   0.000000  -0.201456
         0.290147   0.300783   0.000000  -0.106342   0.049598
        -0.017106  -0.008771   0.000000  -0.027223   0.000000
   0 1  -0.065039   0.288293  -0.284916  -0.493490  -0.201455
         0.290145  -0.150392  -0.260486  -0.106340  -0.000427
         0.032923  -0.008771   0.033353   0.013612   0.023576
   0 1  -0.065039   0.288293  -0.284916   0.493490  -0.201455
         0.290145  -0.150392   0.260486  -0.106340  -0.000427
         0.032923  -0.008771  -0.033353   0.013612  -0.023576
   0 1   1.010938  -0.011975   0.000000   0.000000   0.000000
        -0.054085   0.000000   0.000000  -0.000000  -0.003174
        -0.003174  -0.003174   0.000000   0.000000   0.000000
 MINI         5   5
   1 0  -0.104883   0.308874   0.000000   0.000000   0.521806
   0 1  -0.104883   0.308874   0.491961   0.000000  -0.173934
   0 1  -0.104883   0.308876  -0.245980  -0.426050  -0.173933
   0 1  -0.104883   0.308876  -0.245980   0.426050  -0.173933
   0 1   0.988209   0.063992   0.000000   0.000000   0.000000
 $END
 
 $DATA
 FMO calculation
 C1 
 H.1-1    1
      N31 6
   
 O.1-1    8
      N31 6
      d 1
      1 0.800 1.0
   
 C.1-1    6
      N31 6
      d 1
      1 0.800 1.0
   
 N.1-1    7
      N31 6
      d 1
      1 0.800 1.0
   
 P.1-1   15
      N31 6
      d 1
      1 0.550 1.0
   
 $END
 $FMOXYZ
    1    H    0.877    3.119    13.092
    2    O    1.004    3.785    12.390
    3    C    2.408    4.078    12.353
    4    H    2.984    3.131    12.247
    5    H    2.704    4.542    13.320
    6    C    2.793    5.026    11.215
    7    H    3.878    5.261    11.239
    8    O    2.516    4.397    9.926
    9    C    2.017    5.382    9.033
    10    H    2.672    5.359    8.132
    11    N    0.637    5.092    8.622
    12    C    -0.003    5.614    7.530
    13    N    0.005    7.672    4.752
    14    H    0.913    8.082    4.790
    15    H    -0.616    7.926    4.006
    16    N    0.519    6.494    6.660
    17    C    -0.332    6.806    5.686
    18    N    -1.583    6.258    5.578
    19    H    -2.162    6.548    4.805
    20    C    -2.143    5.333    6.449
    21    O    -3.280    4.885    6.269
    22    C    -1.253    5.025    7.515
    23    N    -1.408    4.167    8.598
    24    C    -0.259    4.241    9.231
    25    H    0.003    3.693    10.140
    26    C    2.146    6.726    9.712
    27    H    1.358    7.441    9.400
    28    O    3.420    7.274    9.444
    29    H    3.454    8.118    9.907
    30    C    2.006    6.345    11.182
    31    H    0.945    6.097    11.418
    32    O    2.586    7.280    12.119
    33    P    1.705    8.441    12.715
    34    O    0.431    7.876    13.197
    35    O    2.518    9.198    13.691
    36    O    1.407    9.348    11.470
    37    C    2.454    10.147    10.874
    38    H    3.329    9.524    10.588
    39    H    2.817    10.913    11.597
    40    C    1.945    10.885    9.627
    41    H    2.760    11.486    9.165
    42    O    1.474    9.937    8.623
    43    C    0.325    10.483    7.979
    44    H    0.586    10.512    6.896
    45    N    -0.899    9.649    8.144
    46    C    -1.001    8.768    9.196
    47    H    -0.152    8.746    9.879
    48    C    -2.073    7.977    9.344
    49    H    -2.156    7.255    10.154
    50    C    -1.955    9.769    7.244
    51    O    -1.873    10.591    6.319
    52    N    -3.041    8.976    7.373
    53    C    -3.118    8.092    8.380
    54    N    -4.193    7.311    8.465
    55    H    -4.926    7.425    7.790
    56    H    -4.294    6.611    9.171
    57    C    0.154    11.906    8.474
    58    H    -0.906    12.216    8.503
    59    O    0.888    12.799    7.655
    60    H    0.866    13.668    8.088
    61    C    0.747    11.818    9.874
    62    H    0.049    11.280    10.557
    63    O    1.209    13.071    10.421
    64    P    0.223    13.988    11.237
    65    O    -0.401    13.163    12.294
    66    O    0.968    15.184    11.681
    67    O    -0.884    14.453    10.214
    68    C    -2.236    14.725    10.672
    69    H    -2.379    15.823    10.766
    70    H    -2.461    14.280    11.678
    71    C    -3.297    14.201    9.693
    72    H    -3.297    14.797    8.756
    73    O    -2.999    12.828    9.330
    74    C    -4.183    12.059    9.305
    75    H    -4.211    11.578    8.298
    76    N    -4.185    11.000    10.345
    77    C    -3.184    10.921    11.294
    78    H    -2.430    11.713    11.265
    79    C    -5.162    10.032    10.267
    80    O    -6.023    10.019    9.394
    81    N    -5.091    9.063    11.229
    82    H    -5.816    8.361    11.198
    83    C    -4.121    8.908    12.192
    84    O    -4.168    7.950    12.960
    85    C    -3.111    9.922    12.183
    86    H    -2.304    9.861    12.909
    87    C    -5.334    13.036    9.426
    88    H    -6.260    12.617    9.868
    89    O    -5.574    13.547    8.144
    90    H    -4.930    14.249    8.041
    91    C    -4.721    14.135    10.276
    92    H    -4.626    13.799    11.334
    93    O    -5.358    15.427    10.139
    94    P    -6.525    15.843    11.111
    95    O    -6.274    15.229    12.437
    96    O    -6.635    17.316    11.084
    97    O    -7.841    15.226    10.502
    98    C    -9.131    15.490    11.116
    99    H    -9.094    16.325    11.858
    100    H    -9.455    14.579    11.660
    101    C    -10.220    15.869    10.092
    102    H    -11.166    16.144    10.614
    103    O    -9.786    17.048    9.355
    104    C    -10.166    16.936    7.996
    105    H    -10.777    17.840    7.772
    106    N    -9.007    16.935    7.102
    107    C    -7.728    17.128    5.324
    108    N    -6.872    16.900    6.397
    109    C    -7.679    16.777    7.425
    110    H    -7.370    16.558    8.450
    111    N    -8.576    17.555    3.147
    112    C    -9.790    17.526    3.706
    113    H    -10.624    17.702    3.018
    114    N    -10.135    17.358    4.987
    115    C    -9.045    17.150    5.748
    116    C    -7.498    17.341    3.946
    117    N    -6.270    17.383    3.398
    118    H    -5.461    17.106    3.920
    119    H    -6.172    17.473    2.407
    120    C    -11.029    15.703    7.851
    121    H    -10.882    15.192    6.878
    122    O    -12.390    16.063    8.000
    123    H    -12.889    15.240    8.116
    124    C    -10.548    14.832    9.004
    125    H    -9.569    14.363    8.733
    126    O    -11.555    13.890    9.462
    127    P    -11.224    12.355    9.506
    128    O    -9.795    12.186    9.823
    129    O    -12.187    11.692    10.413
    130    O    -11.471    11.845    8.033
    131    C    -12.707    12.060    7.325
    132    H    -13.209    13.012    7.621
    133    H    -13.400    11.225    7.560
    134    C    -12.487    12.096    5.804
    135    H    -13.452    12.151    5.262
    136    O    -11.758    13.314    5.478
    137    C    -10.824    13.057    4.449
    138    H    -11.038    13.783    3.627
    139    N    -9.460    13.254    4.931
    140    C    -7.316    13.679    5.106
    141    N    -7.770    13.377    6.368
    142    C    -9.029    13.124    6.221
    143    H    -9.700    12.862    7.035
    144    N    -5.933    14.269    3.274
    145    C    -7.026    14.121    2.517
    146    H    -6.889    14.309    1.445
    147    N    -8.282    13.844    2.890
    148    C    -8.350    13.606    4.202
    149    C    -6.048    14.044    4.609
    150    N    -4.981    14.214    5.406
    151    H    -5.100    13.951    6.367
    152    H    -4.096    14.513    5.047
    153    C    -11.063    11.648    3.963
    154    H    -10.123    11.147    3.665
    155    O    -11.978    11.664    2.883
    156    H    -12.072    10.748    2.592
    157    C    -11.646    10.957    5.196
    158    H    -10.810    10.726    5.897
    159    O    -12.466    9.800    4.870
    160    P    -12.630    8.649    5.934
    161    O    -11.422    8.565    6.773
    162    O    -13.918    8.852    6.631
    163    O    -12.749    7.332    5.072
    164    C    -11.565    6.526    4.850
    165    H    -11.049    6.279    5.808
    166    H    -10.853    7.085    4.210
    167    C    -11.876    5.209    4.123
    168    H    -10.953    4.613    3.960
    169    O    -12.777    4.389    4.922
    170    C    -13.769    3.817    4.072
    171    H    -13.718    2.720    4.273
    172    N    -15.150    4.284    4.383
    173    C    -15.346    5.348    5.234
    174    H    -14.450    5.823    5.635
    175    C    -16.575    5.767    5.555
    176    H    -16.746    6.594    6.242
    177    C    -16.254    3.629    3.833
    178    O    -16.067    2.671    3.065
    179    N    -17.506    4.038    4.146
    180    C    -17.682    5.079    4.983
    181    N    -18.918    5.467    5.289
    182    H    -19.696    5.002    4.861
    183    H    -19.098    6.225    5.918
    184    C    -13.353    4.082    2.633
    185    H    -14.220    4.203    1.946
    186    O    -12.520    3.028    2.179
    187    H    -12.135    3.294    1.328
    188    C    -12.584    5.389    2.780
    189    H    -13.301    6.230    2.923
    190    O    -11.604    5.635    1.750
    191    P    -11.951    6.563    0.530
    192    O    -11.700    5.808    -0.715
    193    O    -13.310    7.130    0.687
    194    O    -10.878    7.717    0.662
    195    C    -11.036    8.874    -0.199
    196    H    -11.975    9.418    0.056
    197    H    -11.081    8.571    -1.272
    198    C    -9.871    9.863    -0.061
    199    H    -10.018    10.742    -0.722
    200    O    -9.815    10.358    1.297
    201    C    -8.460    10.499    1.698
    202    H    -8.329    11.540    2.048
    203    N    -8.142    9.595    2.808
    204    C    -7.034    9.636    3.609
    205    N    -4.011    11.061    4.495
    206    H    -3.928    11.810    3.842
    207    H    -3.305    10.927    5.193
    208    N    -6.020    10.509    3.510
    209    C    -5.098    10.318    4.451
    210    N    -5.191    9.343    5.411
    211    H    -4.454    9.278    6.095
    212    C    -6.229    8.429    5.543
    213    O    -6.248    7.579    6.443
    214    C    -7.205    8.616    4.527
    215    N    -8.386    7.932    4.286
    216    C    -8.917    8.554    3.263
    217    H    -9.880    8.323    2.799
    218    C    -7.598    10.262    0.488
    219    H    -6.614    9.819    0.747
    220    O    -7.396    11.478    -0.206
    221    H    -6.951    11.256    -1.032
    222    C    -8.467    9.298    -0.305
    223    H    -8.463    8.296    0.185
    224    O    -8.179    9.267    -1.722
    225    P    -7.396    8.022    -2.286
    226    O    -7.832    6.800    -1.587
    227    O    -7.492    8.016    -3.766
    228    O    -5.900    8.305    -1.870
    229    C    -5.234    9.491    -2.363
    230    H    -5.828    10.414    -2.170
    231    H    -5.088    9.412    -3.462
    232    C    -3.852    9.668    -1.724
    233    H    -3.290    10.497    -2.206
    234    O    -4.011    10.018    -0.322
    235    C    -3.002    9.365    0.440
    236    H    -2.463    10.172    0.989
    237    N    -3.565    8.404    1.425
    238    C    -4.830    7.894    1.248
    239    H    -5.378    8.267    0.384
    240    C    -5.361    7.022    2.112
    241    H    -6.374    6.643    2.003
    242    C    -2.793    7.971    2.498
    243    O    -1.630    8.386    2.614
    244    N    -3.314    7.096    3.388
    245    C    -4.562    6.622    3.220
    246    N    -5.051    5.760    4.108
    247    H    -4.493    5.482    4.894
    248    H    -5.983    5.402    4.032
    249    C    -2.041    8.703    -0.536
    250    H    -1.612    7.762    -0.130
    251    O    -1.002    9.607    -0.879
    252    H    -0.458    9.208    -1.580
    253    C    -2.968    8.413    -1.711
    254    H    -3.604    7.528    -1.488
    255    O    -2.295    8.257    -2.973
    256    H    -1.785    7.426    -2.975
 $END
