!*** FMO 5.3 (Gamess) INPUT generated by Facio 22.1.1.32 ***
 $CONTRL RUNTYP=ENERGY NPRINT=-5 ISPHER=1 MAXIT=200 $END
 $SYSTEM MWORDS=63 MEMDDI=63 $END
 $GDDI NGROUP=1 $END
 $SCF DIRSCF=.TRUE. NPUNCH=0 $END
!*** NumCPU : 2  MemPerNode : 512MB
 $PCM SOLVNT=WATER IEF=-10 ICOMP=2 ICAV=1 IDISP=1 IFMO=-1 $END
 $PCMCAV RADII=SUAHF $END
 $TESCAV NTSALL=60 $END
 $FMOPRP
    NAODIR=200
    NGRFMO(1)=1, 1, 0, 0, 0,   0, 0, 0, 0, 0
    IPIEDA=1
    NPRINT=9
 $END
 $FMO
      SCFTYP(1)=RHF
      MODGRD=10
      MODMUL=0
      MAXCAO=5
      MAXBND=10
      NLAYER=1
      MPLEVL(1)=2
      NFRAG=8
      ICHARG(1)=-1, -1, -1, -1, -1, -1, -1, 0
      FRGNAM(1)=F1, F2, F3, F4, F5, F6, F7, F8
      indat(1)=0
               1   -36   0
               37   -67   0
               68   -97   0
               98   -130   0
               131   -163   0
               164   -194   0
               195   -228   0
               229   -256   0
 $END

 $FMOBND
   -37   36       6-31G*    MINI
   -68   67       6-31G*    MINI
   -98   97       6-31G*    MINI
   -131   130       6-31G*    MINI
   -164   163       6-31G*    MINI
   -195   194       6-31G*    MINI
   -229   228       6-31G*    MINI
 $END
 $FMOHYB
 6-31G*      15   5
   1 0  -0.065034   0.288264   0.000000   0.000000   0.604412
         0.290129   0.000000   0.000000   0.319045  -0.017106
        -0.017106   0.057934   0.000000   0.000000   0.000000
   0 1  -0.065040   0.288293   0.569832   0.000000  -0.201456
         0.290147   0.300783   0.000000  -0.106342   0.049598
        -0.017106  -0.008771   0.000000  -0.027223   0.000000
   0 1  -0.065039   0.288293  -0.284916  -0.493490  -0.201455
         0.290145  -0.150392  -0.260486  -0.106340  -0.000427
         0.032923  -0.008771   0.033353   0.013612   0.023576
   0 1  -0.065039   0.288293  -0.284916   0.493490  -0.201455
         0.290145  -0.150392   0.260486  -0.106340  -0.000427
         0.032923  -0.008771  -0.033353   0.013612  -0.023576
   0 1   1.010938  -0.011975   0.000000   0.000000   0.000000
        -0.054085   0.000000   0.000000  -0.000000  -0.003174
        -0.003174  -0.003174   0.000000   0.000000   0.000000
 MINI         5   5
   1 0  -0.104883   0.308874   0.000000   0.000000   0.521806
   0 1  -0.104883   0.308874   0.491961   0.000000  -0.173934
   0 1  -0.104883   0.308876  -0.245980  -0.426050  -0.173933
   0 1  -0.104883   0.308876  -0.245980   0.426050  -0.173933
   0 1   0.988209   0.063992   0.000000   0.000000   0.000000
 $END
 
 $DATA
 FMO calculation
 C1 
 H.1-1    1
      N31 6
   
 O.1-1    8
      N31 6
      d 1
      1 0.800 1.0
   
 C.1-1    6
      N31 6
      d 1
      1 0.800 1.0
   
 N.1-1    7
      N31 6
      d 1
      1 0.800 1.0
   
 P.1-1   15
      N31 6
      d 1
      1 0.550 1.0
   
 $END
 $FMOXYZ
    1    H    -0.863    4.429    16.023
    2    O    -0.615    4.848    15.178
    3    C    0.760    5.243    15.303
    4    H    1.379    4.346    15.536
    5    H    0.854    5.958    16.152
    6    C    1.313    5.911    14.041
    7    H    2.365    6.236    14.191
    8    O    1.307    4.961    12.936
    9    C    0.964    5.645    11.741
    10    H    1.784    5.443    11.011
    11    N    -0.297    5.144    11.180
    12    C    -0.735    5.328    9.898
    13    N    -0.270    6.645    6.732
    14    H    0.608    7.113    6.820
    15    H    -0.742    6.645    5.847
    16    N    -0.096    6.020    8.941
    17    C    -0.748    6.005    7.782
    18    N    -1.923    5.326    7.593
    19    H    -2.346    5.357    6.679
    20    C    -2.601    4.590    8.556
    21    O    -3.656    4.005    8.287
    22    C    -1.928    4.634    9.810
    23    N    -2.251    4.049    11.031
    24    C    -1.252    4.382    11.817
    25    H    -1.145    4.099    12.868
    26    C    0.916    7.119    12.056
    27    H    0.186    7.667    11.426
    28    O    2.205    7.678    11.890
    29    H    2.150    8.585    12.213
    30    C    0.501    7.107    13.522
    31    H    -0.577    6.842    13.622
    32    O    0.851    8.291    14.266
    33    P    -0.137    9.513    14.322
    34    O    -1.451    9.037    14.803
    35    O    0.517    10.584    15.109
    36    O    -0.269    9.950    12.815
    37    C    0.798    10.705    12.192
    38    H    1.766    10.154    12.220
    39    H    0.961    11.670    12.728
    40    C    0.471    11.041    10.735
    41    H    1.316    11.593    10.261
    42    O    0.240    9.837    9.954
    43    C    -0.782    10.094    8.997
    44    H    -0.315    9.911    8.001
    45    N    -1.959    9.189    9.150
    46    C    -2.194    8.569    10.357
    47    H    -1.471    8.774    11.146
    48    C    -3.224    7.730    10.523
    49    H    -3.394    7.195    11.455
    50    C    -2.852    9.002    8.096
    51    O    -2.677    9.615    7.032
    52    N    -3.891    8.150    8.243
    53    C    -4.093    7.521    9.414
    54    N    -5.116    6.679    9.525
    55    H    -5.716    6.524    8.737
    56    H    -5.270    6.138    10.351
    57    C    -1.149    11.565    9.105
    58    H    -2.225    11.745    8.912
    59    O    -0.361    12.338    8.219
    60    H    -0.578    13.263    8.390
    61    C    -0.802    11.864    10.555
    62    H    -1.572    11.409    11.224
    63    O    -0.519    13.250    10.840
    64    P    -1.530    14.124    11.664
    65    O    -2.332    13.254    12.547
    66    O    -0.769    15.213    12.318
    67    O    -2.439    14.718    10.540
    68    C    -2.025    15.655    9.543
    69    H    -2.247    15.214    8.548
    70    H    -0.932    15.872    9.577
    71    C    -2.804    16.969    9.671
    72    H    -2.476    17.543    10.564
    73    O    -2.501    17.764    8.486
    74    C    -3.684    18.399    8.009
    75    H    -3.429    19.479    7.922
    76    N    -4.112    17.891    6.670
    77    C    -3.445    16.851    6.055
    78    H    -2.617    16.409    6.616
    79    C    -5.137    18.547    6.014
    80    O    -5.721    19.514    6.494
    81    N    -5.450    18.051    4.774
    82    H    -6.216    18.510    4.299
    83    C    -4.817    17.029    4.098
    84    O    -5.172    16.719    2.960
    85    C    -3.747    16.420    4.823
    86    H    -3.176    15.637    4.337
    87    C    -4.738    18.219    9.085
    88    H    -5.767    18.162    8.672
    89    O    -4.661    19.283    10.020
    90    H    -5.226    19.052    10.776
    91    C    -4.340    16.883    9.699
    92    H    -4.624    16.046    9.021
    93    O    -4.818    16.714    11.046
    94    P    -5.814    15.574    11.461
    95    O    -5.915    15.576    12.940
    96    O    -7.091    15.803    10.750
    97    O    -5.135    14.232    11.012
    98    C    -5.757    12.947    11.160
    99    H    -6.089    12.777    12.213
    100    H    -4.990    12.173    10.940
    101    C    -6.944    12.782    10.195
    102    H    -7.830    13.287    10.634
    103    O    -6.682    13.391    8.890
    104    C    -6.406    12.396    7.941
    105    H    -7.280    12.403    7.251
    106    N    -5.175    12.708    7.222
    107    C    -3.712    13.047    5.624
    108    N    -3.071    13.377    6.812
    109    C    -3.982    13.162    7.733
    110    H    -3.844    13.325    8.808
    111    N    -4.210    12.741    3.324
    112    C    -5.447    12.421    3.715
    113    H    -6.152    12.174    2.914
    114    N    -5.945    12.336    4.950
    115    C    -5.014    12.656    5.865
    116    C    -3.297    13.069    4.274
    117    N    -2.055    13.407    3.886
    118    H    -1.330    13.618    4.545
    119    H    -1.819    13.405    2.911
    120    C    -6.356    11.069    8.666
    121    H    -5.328    10.860    9.041
    122    O    -6.800    10.006    7.850
    123    H    -7.717    9.780    8.118
    124    C    -7.301    11.339    9.847
    125    H    -7.001    10.708    10.717
    126    O    -8.721    11.228    9.562
    127    P    -9.478    9.884    9.832
    128    O    -9.101    8.971    8.734
    129    O    -9.217    9.450    11.220
    130    O    -11.004    10.258    9.715
    131    C    -11.892    9.426    8.926
    132    H    -11.982    8.408    9.373
    133    H    -11.496    9.312    7.889
    134    C    -13.310    10.017    8.816
    135    H    -13.884    9.858    9.754
    136    O    -13.242    11.454    8.603
    137    C    -14.201    11.841    7.641
    138    H    -14.804    12.654    8.106
    139    N    -13.541    12.357    6.439
    140    C    -13.141    13.343    4.518
    141    N    -11.917    12.870    4.972
    142    C    -12.205    12.300    6.114
    143    H    -11.481    11.817    6.777
    144    N    -14.831    14.367    3.208
    145    C    -15.688    13.980    4.159
    146    H    -16.733    14.255    3.986
    147    N    -15.450    13.337    5.307
    148    C    -14.147    13.033    5.415
    149    C    -13.514    14.066    3.365
    150    N    -12.634    14.474    2.432
    151    H    -11.654    14.272    2.494
    152    H    -12.965    14.970    1.628
    153    C    -15.090    10.642    7.366
    154    H    -15.466    10.622    6.320
    155    O    -16.179    10.621    8.275
    156    H    -16.644    9.776    8.161
    157    C    -14.124    9.491    7.621
    158    H    -13.413    9.391    6.768
    159    O    -14.742    8.236    7.965
    160    P    -15.443    7.336    6.879
    161    O    -14.970    5.952    7.076
    162    O    -16.907    7.547    6.938
    163    O    -14.921    7.856    5.499
    164    C    -14.483    6.956    4.453
    165    H    -15.232    6.152    4.263
    166    H    -13.534    6.463    4.768
    167    C    -14.217    7.692    3.117
    168    H    -15.145    7.760    2.510
    169    O    -13.797    9.068    3.385
    170    C    -12.740    9.425    2.530
    171    H    -13.072    10.369    2.036
    172    N    -11.476    9.667    3.276
    173    C    -11.220    8.989    4.449
    174    H    -11.990    8.288    4.779
    175    C    -10.102    9.214    5.151
    176    H    -9.887    8.711    6.092
    177    C    -10.543    10.575    2.782
    178    O    -10.787    11.170    1.721
    179    N    -9.399    10.799    3.470
    180    C    -9.181    10.170    4.635
    181    N    -8.089    10.459    5.325
    182    H    -7.430    11.128    4.964
    183    H    -7.822    9.994    6.169
    184    C    -12.616    8.341    1.480
    185    H    -11.580    8.236    1.119
    186    O    -13.459    8.620    0.381
    187    H    -13.445    7.842    -0.199
    188    C    -13.081    7.103    2.248
    189    H    -12.280    6.772    2.948
    190    O    -13.582    6.020    1.420
    191    P    -12.552    4.955    0.862
    192    O    -11.815    4.424    2.032
    193    O    -13.284    3.964    0.040
    194    O    -11.575    5.748    -0.083
    195    C    -10.204    5.309    -0.279
    196    H    -10.092    4.854    -1.289
    197    H    -9.886    4.538    0.462
    198    C    -9.211    6.474    -0.151
    199    H    -9.302    7.160    -1.018
    200    O    -9.516    7.240    1.039
    201    C    -8.330    7.692    1.649
    202    H    -8.417    8.799    1.740
    203    N    -8.192    7.104    2.988
    204    C    -7.225    7.407    3.903
    205    N    -4.429    9.223    4.824
    206    H    -4.258    9.783    4.020
    207    H    -3.856    9.328    5.641
    208    N    -6.216    8.276    3.723
    209    C    -5.460    8.399    4.807
    210    N    -5.676    7.694    5.961
    211    H    -5.080    7.887    6.751
    212    C    -6.713    6.796    6.180
    213    O    -6.844    6.200    7.254
    214    C    -7.522    6.649    5.022
    215    N    -8.650    5.863    4.806
    216    C    -9.018    6.168    3.583
    217    H    -9.880    5.750    3.053
    218    C    -7.185    7.337    0.725
    219    H    -6.242    7.118    1.268
    220    O    -6.969    8.390    -0.196
    221    H    -6.348    8.069    -0.864
    222    C    -7.738    6.092    0.040
    223    H    -7.735    5.242    0.765
    224    O    -7.131    5.783    -1.236
    225    P    -6.165    4.545    -1.337
    226    O    -6.676    3.455    -0.477
    227    O    -5.923    4.212    -2.759
    228    O    -4.831    5.105    -0.718
    229    C    -4.102    6.138    -1.426
    230    H    -4.747    7.028    -1.606
    231    H    -3.747    5.757    -2.417
    232    C    -2.876    6.610    -0.629
    233    H    -2.278    7.339    -1.215
    234    O    -3.309    7.289    0.587
    235    C    -2.440    6.933    1.656
    236    H    -2.051    7.894    2.065
    237    N    -3.139    6.190    2.742
    238    C    -4.328    5.547    2.485
    239    H    -4.723    5.658    1.477
    240    C    -4.976    4.865    3.436
    241    H    -5.928    4.372    3.252
    242    C    -2.573    6.104    4.010
    243    O    -1.480    6.650    4.223
    244    N    -3.215    5.422    4.986
    245    C    -4.380    4.803    4.726
    246    N    -4.995    4.142    5.703
    247    H    -4.594    4.132    6.623
    248    H    -5.876    3.687    5.564
    249    C    -1.278    6.148    1.065
    250    H    -0.893    5.378    1.767
    251    O    -0.233    7.035    0.695
    252    H    0.426    6.545    0.171
    253    C    -1.939    5.497    -0.144
    254    H    -2.563    4.634    0.171
    255    O    -1.025    5.107    -1.184
    256    H    -0.426    4.413    -0.853
 $END
