!*** FMO 5.3 (Gamess) INPUT generated by Facio 22.1.1.32 ***
 $CONTRL RUNTYP=ENERGY NPRINT=-5 ISPHER=1 MAXIT=200 $END
 $SYSTEM MWORDS=63 MEMDDI=63 $END
 $GDDI NGROUP=1 $END
 $SCF DIRSCF=.TRUE. NPUNCH=0 $END
!*** NumCPU : 2  MemPerNode : 512MB
 $PCM SOLVNT=WATER IEF=-10 ICOMP=2 ICAV=1 IDISP=1 IFMO=-1 $END
 $PCMCAV RADII=SUAHF $END
 $TESCAV NTSALL=60 $END
 $FMOPRP
    NAODIR=200
    NGRFMO(1)=1, 1, 0, 0, 0,   0, 0, 0, 0, 0
    IPIEDA=1
    NPRINT=9
 $END
 $FMO
      SCFTYP(1)=RHF
      MODGRD=10
      MODMUL=0
      MAXCAO=5
      MAXBND=10
      NLAYER=1
      MPLEVL(1)=2
      NFRAG=8
      ICHARG(1)=-1, -1, -1, -1, -1, -1, -1, 0
      FRGNAM(1)=F1, F2, F3, F4, F5, F6, F7, F8
      indat(1)=0
               1   -36   0
               37   -67   0
               68   -97   0
               98   -130   0
               131   -163   0
               164   -194   0
               195   -228   0
               229   -256   0
 $END

 $FMOBND
   -37   36       6-31G*    MINI
   -68   67       6-31G*    MINI
   -98   97       6-31G*    MINI
   -131   130       6-31G*    MINI
   -164   163       6-31G*    MINI
   -195   194       6-31G*    MINI
   -229   228       6-31G*    MINI
 $END
 $FMOHYB
 6-31G*      15   5
   1 0  -0.065034   0.288264   0.000000   0.000000   0.604412
         0.290129   0.000000   0.000000   0.319045  -0.017106
        -0.017106   0.057934   0.000000   0.000000   0.000000
   0 1  -0.065040   0.288293   0.569832   0.000000  -0.201456
         0.290147   0.300783   0.000000  -0.106342   0.049598
        -0.017106  -0.008771   0.000000  -0.027223   0.000000
   0 1  -0.065039   0.288293  -0.284916  -0.493490  -0.201455
         0.290145  -0.150392  -0.260486  -0.106340  -0.000427
         0.032923  -0.008771   0.033353   0.013612   0.023576
   0 1  -0.065039   0.288293  -0.284916   0.493490  -0.201455
         0.290145  -0.150392   0.260486  -0.106340  -0.000427
         0.032923  -0.008771  -0.033353   0.013612  -0.023576
   0 1   1.010938  -0.011975   0.000000   0.000000   0.000000
        -0.054085   0.000000   0.000000  -0.000000  -0.003174
        -0.003174  -0.003174   0.000000   0.000000   0.000000
 MINI         5   5
   1 0  -0.104883   0.308874   0.000000   0.000000   0.521806
   0 1  -0.104883   0.308874   0.491961   0.000000  -0.173934
   0 1  -0.104883   0.308876  -0.245980  -0.426050  -0.173933
   0 1  -0.104883   0.308876  -0.245980   0.426050  -0.173933
   0 1   0.988209   0.063992   0.000000   0.000000   0.000000
 $END
 
 $DATA
 FMO calculation
 C1 
 H.1-1    1
      N31 6
   
 O.1-1    8
      N31 6
      d 1
      1 0.800 1.0
   
 C.1-1    6
      N31 6
      d 1
      1 0.800 1.0
   
 N.1-1    7
      N31 6
      d 1
      1 0.800 1.0
   
 P.1-1   15
      N31 6
      d 1
      1 0.550 1.0
   
 $END
 $FMOXYZ
    1    H    1.206    3.773    14.110
    2    O    1.311    4.541    13.518
    3    C    2.663    4.990    13.681
    4    H    3.343    4.109    13.693
    5    H    2.742    5.495    14.670
    6    C    3.128    5.961    12.593
    7    H    4.110    6.407    12.868
    8    O    3.319    5.241    11.335
    9    C    2.759    5.995    10.271
    10    H    3.507    6.031    9.449
    11    N    1.518    5.380    9.773
    12    C    0.916    5.602    8.565
    13    N    0.851    7.136    5.467
    14    H    1.656    7.730    5.472
    15    H    0.243    7.116    4.668
    16    N    1.360    6.424    7.599
    17    C    0.573    6.402    6.526
    18    N    -0.533    5.599    6.424
    19    H    -1.104    5.662    5.594
    20    C    -1.015    4.742    7.403
    21    O    -2.020    4.036    7.253
    22    C    -0.196    4.778    8.552
    23    N    -0.304    4.069    9.733
    24    C    0.738    4.449    10.422
    25    H    1.011    4.051    11.395
    26    C    2.530    7.384    10.807
    27    H    1.714    7.905    10.277
    28    O    3.734    8.131    10.719
    29    H    4.402    7.729    11.295
    30    C    2.141    7.089    12.252
    31    H    1.111    6.665    12.289
    32    O    2.314    8.181    13.175
    33    P    1.125    9.171    13.470
    34    O    1.633    10.232    14.373
    35    O    -0.046    8.397    13.938
    36    O    0.737    9.791    12.073
    37    C    1.652    10.654    11.371
    38    H    2.656    10.196    11.268
    39    H    1.781    11.603    11.935
    40    C    1.146    10.992    9.963
    41    H    1.876    11.654    9.450
    42    O    1.017    9.799    9.138
    43    C    -0.165    9.873    8.366
    44    H    0.168    9.711    7.314
    45    N    -1.158    8.816    8.700
    46    C    -1.094    8.124    9.889
    47    H    -0.297    8.419    10.571
    48    C    -1.958    7.139    10.171
    49    H    -1.907    6.558    11.088
    50    C    -2.149    8.503    7.778
    51    O    -2.200    9.129    6.709
    52    N    -3.027    7.520    8.049
    53    C    -2.946    6.827    9.195
    54    N    -3.815    5.843    9.399
    55    H    -4.531    5.723    8.709
    56    H    -3.845    5.316    10.249
    57    C    -0.703    11.281    8.503
    58    H    -1.808    11.332    8.427
    59    O    -0.112    12.093    7.502
    60    H    0.839    12.153    7.674
    61    C    -0.224    11.659    9.906
    62    H    -0.849    11.143    10.673
    63    O    -0.068    13.079    10.150
    64    P    -1.236    13.838    10.877
    65    O    -0.811    15.247    11.063
    66    O    -1.574    13.099    12.113
    67    O    -2.435    13.722    9.875
    68    C    -2.363    14.353    8.579
    69    H    -1.492    13.997    7.990
    70    H    -2.263    15.456    8.700
    71    C    -3.633    14.076    7.770
    72    H    -3.661    14.700    6.856
    73    O    -3.683    12.691    7.331
    74    C    -5.030    12.242    7.328
    75    H    -5.244    11.986    6.265
    76    N    -5.205    11.044    8.185
    77    C    -4.400    10.858    9.288
    78    H    -3.652    11.636    9.455
    79    C    -6.207    10.150    7.883
    80    O    -6.978    10.304    6.940
    81    N    -6.268    9.058    8.706
    82    H    -7.010    8.405    8.518
    83    C    -5.512    8.809    9.828
    84    O    -5.727    7.808    10.509
    85    C    -4.502    9.788    10.088
    86    H    -3.834    9.636    10.930
    87    C    -5.911    13.410    7.758
    88    H    -6.755    13.095    8.410
    89    O    -6.411    14.066    6.608
    90    H    -7.275    13.660    6.402
    91    C    -4.931    14.268    8.547
    92    H    -4.786    13.797    9.549
    93    O    -5.249    15.674    8.615
    94    P    -5.827    16.256    9.950
    95    O    -6.108    17.693    9.740
    96    O    -4.955    15.913    11.091
    97    O    -7.189    15.491    10.104
    98    C    -8.108    15.812    11.170
    99    H    -7.915    16.813    11.627
    100    H    -8.006    15.055    11.981
    101    C    -9.555    15.801    10.672
    102    H    -10.267    15.892    11.518
    103    O    -9.768    16.968    9.824
    104    C    -10.586    16.613    8.723
    105    H    -11.449    17.317    8.722
    106    N    -9.847    16.755    7.457
    107    C    -9.294    17.135    5.361
    108    N    -8.105    16.944    6.044
    109    C    -8.484    16.709    7.274
    110    H    -7.809    16.510    8.101
    111    N    -10.870    17.578    3.655
    112    C    -11.812    17.408    4.588
    113    H    -12.845    17.531    4.237
    114    N    -11.673    17.128    5.891
    115    C    -10.375    17.018    6.217
    116    C    -9.568    17.437    4.010
    117    N    -8.602    17.578    3.082
    118    H    -7.648    17.364    3.297
    119    H    -8.861    17.639    2.117
    120    C    -11.092    15.205    8.957
    121    H    -11.216    14.650    8.009
    122    O    -12.326    15.228    9.653
    123    H    -12.542    14.304    9.853
    124    C    -9.977    14.599    9.805
    125    H    -9.116    14.338    9.145
    126    O    -10.411    13.506    10.639
    127    P    -9.710    12.101    10.664
    128    O    -9.885    11.536    12.020
    129    O    -8.323    12.201    10.163
    130    O    -10.558    11.246    9.652
    131    C    -11.948    10.931    9.883
    132    H    -12.399    11.547    10.699
    133    H    -12.035    9.865    10.184
    134    C    -12.805    11.136    8.622
    135    H    -13.886    11.044    8.865
    136    O    -12.587    12.474    8.082
    137    C    -12.544    12.414    6.670
    138    H    -13.288    13.154    6.293
    139    N    -11.213    12.773    6.165
    140    C    -9.573    13.581    4.949
    141    N    -8.993    13.094    6.106
    142    C    -9.994    12.609    6.784
    143    H    -9.884    12.139    7.755
    144    N    -9.877    14.503    2.803
    145    C    -11.179    14.257    2.965
    146    H    -11.815    14.568    2.130
    147    N    -11.822    13.729    4.014
    148    C    -10.943    13.389    4.970
    149    C    -9.021    14.175    3.799
    150    N    -7.705    14.434    3.663
    151    H    -7.067    14.382    4.432
    152    H    -7.368    14.819    2.800
    153    C    -12.967    11.024    6.268
    154    H    -12.486    10.689    5.329
    155    O    -14.376    10.982    6.146
    156    H    -14.625    10.050    6.114
    157    C    -12.491    10.190    7.453
    158    H    -11.384    10.066    7.433
    159    O    -13.197    8.940    7.624
    160    P    -12.587    7.621    7.012
    161    O    -13.437    6.472    7.396
    162    O    -11.159    7.547    7.381
    163    O    -12.688    7.823    5.466
    164    C    -13.922    7.936    4.740
    165    H    -14.609    8.665    5.213
    166    H    -14.448    6.955    4.725
    167    C    -13.657    8.362    3.287
    168    H    -14.596    8.358    2.696
    169    O    -13.131    9.719    3.253
    170    C    -12.139    9.821    2.246
    171    H    -12.494    10.629    1.564
    172    N    -10.800    10.179    2.800
    173    C    -10.395    9.642    4.001
    174    H    -11.104    8.983    4.488
    175    C    -9.218    9.951    4.552
    176    H    -8.906    9.567    5.523
    177    C    -9.927    11.004    2.091
    178    O    -10.271    11.454    0.987
    179    N    -8.721    11.308    2.625
    180    C    -8.366    10.830    3.827
    181    N    -7.212    11.211    4.353
    182    H    -7.012    10.954    5.305
    183    H    -6.666    11.903    3.886
    184    C    -12.131    8.512    1.482
    185    H    -11.125    8.276    1.109
    186    O    -13.012    8.555    0.381
    187    H    -13.033    7.658    0.010
    188    C    -12.608    7.517    2.542
    189    H    -11.778    7.298    3.253
    190    O    -13.228    6.309    2.041
    191    P    -12.308    5.117    1.575
    192    O    -13.171    4.056    1.009
    193    O    -11.413    4.728    2.685
    194    O    -11.471    5.715    0.378
    195    C    -10.125    5.238    0.108
    196    H    -10.099    4.805    -0.917
    197    H    -9.795    4.428    0.802
    198    C    -9.076    6.357    0.161
    199    H    -9.247    7.054    -0.686
    200    O    -9.205    7.129    1.378
    201    C    -7.938    7.575    1.799
    202    H    -7.997    8.683    1.896
    203    N    -7.588    6.999    3.089
    204    C    -6.549    7.387    3.884
    205    N    -3.806    9.413    4.484
    206    H    -3.724    9.963    3.656
    207    H    -3.117    9.492    5.211
    208    N    -5.669    8.365    3.612
    209    C    -4.762    8.510    4.575
    210    N    -4.768    7.758    5.721
    211    H    -4.037    7.900    6.401
    212    C    -5.673    6.752    6.032
    213    O    -5.626    6.116    7.089
    214    C    -6.619    6.574    4.996
    215    N    -7.676    5.680    4.896
    216    C    -8.234    5.973    3.747
    217    H    -9.120    5.489    3.324
    218    C    -6.959    7.201    0.721
    219    H    -5.934    7.013    1.104
    220    O    -6.929    8.248    -0.230
    221    H    -7.787    8.308    -0.672
    222    C    -7.601    5.931    0.162
    223    H    -7.500    5.087    0.884
    224    O    -7.196    5.565    -1.168
    225    P    -5.880    4.735    -1.427
    226    O    -5.895    3.511    -0.591
    227    O    -5.731    4.533    -2.884
    228    O    -4.667    5.617    -0.973
    229    C    -4.381    6.890    -1.592
    230    H    -5.274    7.539    -1.636
    231    H    -4.074    6.748    -2.650
    232    C    -3.268    7.668    -0.870
    233    H    -3.260    8.731    -1.208
    234    O    -3.415    7.660    0.581
    235    C    -2.347    6.944    1.170
    236    H    -1.652    7.731    1.545
    237    N    -2.817    6.065    2.268
    238    C    -3.930    5.280    2.090
    239    H    -4.440    5.398    1.147
    240    C    -4.369    4.444    3.040
    241    H    -5.244    3.807    2.908
    242    C    -2.121    6.001    3.460
    243    O    -1.108    6.702    3.609
    244    N    -2.545    5.169    4.432
    245    C    -3.627    4.394    4.250
    246    N    -3.990    3.578    5.233
    247    H    -3.448    3.633    6.075
    248    H    -4.800    2.988    5.193
    249    C    -1.646    6.164    0.073
    250    H    -2.139    5.178    -0.074
    251    O    -0.259    5.987    0.329
    252    H    0.160    6.866    0.357
    253    C    -1.901    7.041    -1.154
    254    H    -2.003    6.384    -2.046
    255    O    -0.880    8.023    -1.407
    256    H    -0.063    7.563    -1.661
 $END
