!*** FMO 5.3 (Gamess) INPUT generated by Facio 22.1.1.32 ***
 $CONTRL RUNTYP=ENERGY NPRINT=-5 ISPHER=1 MAXIT=200 $END
 $SYSTEM MWORDS=63 MEMDDI=63 $END
 $GDDI NGROUP=1 $END
 $SCF DIRSCF=.TRUE. NPUNCH=0 $END
!*** NumCPU : 2  MemPerNode : 512MB
 $PCM SOLVNT=WATER IEF=-10 ICOMP=2 ICAV=1 IDISP=1 IFMO=-1 $END
 $PCMCAV RADII=SUAHF $END
 $TESCAV NTSALL=60 $END
 $FMOPRP
    NAODIR=200
    NGRFMO(1)=1, 1, 0, 0, 0,   0, 0, 0, 0, 0
    IPIEDA=1
    NPRINT=9
 $END
 $FMO
      SCFTYP(1)=RHF
      MODGRD=10
      MODMUL=0
      MAXCAO=5
      MAXBND=13
      NLAYER=1
      MPLEVL(1)=2
      NFRAG=11
      ICHARG(1)=-1, -1, -1, -1, 0, -1, -1, -1, -1, -1, 0
      FRGNAM(1)=F1, F2, F3, F4, F5, F6, F7, F8, F9, F10, F11
      indat(1)=0
               1   -35   0
               36   -65   0
               66   -99   0
               100   -133   0
               134   -165   0
               166   -195   0
               196   -226   0
               227   -259   0
               260   -292   0
               293   -325   0
               326   -352   0
 $END

 $FMOBND
   -36   35       6-31G*    MINI
   -66   65       6-31G*    MINI
   -100   99       6-31G*    MINI
   -134   133       6-31G*    MINI
   -166   165       6-31G*    MINI
   -196   195       6-31G*    MINI
   -227   226       6-31G*    MINI
   -260   259       6-31G*    MINI
   -293   292       6-31G*    MINI
   -326   325       6-31G*    MINI
 $END
 $FMOHYB
 6-31G*      15   5
   1 0  -0.065034   0.288264   0.000000   0.000000   0.604412
         0.290129   0.000000   0.000000   0.319045  -0.017106
        -0.017106   0.057934   0.000000   0.000000   0.000000
   0 1  -0.065040   0.288293   0.569832   0.000000  -0.201456
         0.290147   0.300783   0.000000  -0.106342   0.049598
        -0.017106  -0.008771   0.000000  -0.027223   0.000000
   0 1  -0.065039   0.288293  -0.284916  -0.493490  -0.201455
         0.290145  -0.150392  -0.260486  -0.106340  -0.000427
         0.032923  -0.008771   0.033353   0.013612   0.023576
   0 1  -0.065039   0.288293  -0.284916   0.493490  -0.201455
         0.290145  -0.150392   0.260486  -0.106340  -0.000427
         0.032923  -0.008771  -0.033353   0.013612  -0.023576
   0 1   1.010938  -0.011975   0.000000   0.000000   0.000000
        -0.054085   0.000000   0.000000  -0.000000  -0.003174
        -0.003174  -0.003174   0.000000   0.000000   0.000000
 MINI         5   5
   1 0  -0.104883   0.308874   0.000000   0.000000   0.521806
   0 1  -0.104883   0.308874   0.491961   0.000000  -0.173934
   0 1  -0.104883   0.308876  -0.245980  -0.426050  -0.173933
   0 1  -0.104883   0.308876  -0.245980   0.426050  -0.173933
   0 1   0.988209   0.063992   0.000000   0.000000   0.000000
 $END
 
 $DATA
 FMO calculation
 C1 
 H.1-1    1
      N31 6
   
 O.1-1    8
      N31 6
      d 1
      1 0.800 1.0
   
 C.1-1    6
      N31 6
      d 1
      1 0.800 1.0
   
 N.1-1    7
      N31 6
      d 1
      1 0.800 1.0
   
 P.1-1   15
      N31 6
      d 1
      1 0.550 1.0
   
 $END
 $FMOXYZ
    1    H    0.342    -6.636    -1.498
    2    O    -0.109    -6.121    -2.193
    3    C    0.444    -6.551    -3.450
    4    H    0.502    -7.661    -3.449
    5    H    1.489    -6.171    -3.513
    6    C    -0.320    -6.103    -4.722
    7    H    -0.521    -6.970    -5.386
    8    O    -1.622    -5.527    -4.382
    9    C    -1.828    -4.327    -5.102
    10    H    -2.823    -4.434    -5.594
    11    N    -1.896    -3.163    -4.210
    12    C    -2.245    -1.138    -3.421
    13    N    -1.957    -1.936    -2.319
    14    C    -1.765    -3.129    -2.839
    15    H    -1.504    -4.031    -2.279
    16    N    -2.812    0.697    -4.803
    17    C    -2.725    -0.144    -5.835
    18    H    -2.909    0.301    -6.819
    19    N    -2.446    -1.446    -5.835
    20    C    -2.212    -1.886    -4.588
    21    C    -2.575    0.229    -3.553
    22    N    -2.677    1.095    -2.529
    23    H    -2.540    0.811    -1.573
    24    H    -2.948    2.041    -2.723
    25    C    -0.756    -4.224    -6.166
    26    H    -0.441    -3.177    -6.364
    27    O    -1.218    -4.809    -7.368
    28    H    -0.468    -4.803    -7.982
    29    C    0.391    -5.020    -5.555
    30    H    0.934    -4.378    -4.825
    31    O    1.257    -5.638    -6.536
    32    P    2.754    -5.221    -6.730
    33    O    3.437    -6.248    -7.549
    34    O    3.343    -4.947    -5.403
    35    O    2.679    -3.881    -7.547
    36    C    2.539    -3.885    -8.992
    37    H    2.009    -4.797    -9.360
    38    H    3.547    -3.883    -9.464
    39    C    1.766    -2.660    -9.525
    40    H    1.311    -2.896    -10.513
    41    O    0.678    -2.306    -8.627
    42    C    0.525    -0.898    -8.589
    43    H    -0.528    -0.728    -8.919
    44    N    0.732    -0.340    -7.220
    45    C    1.335    -1.074    -6.219
    46    H    1.701    -2.057    -6.517
    47    C    0.259    0.929    -6.972
    48    O    -0.293    1.611    -7.833
    49    N    0.417    1.369    -5.687
    50    H    0.050    2.295    -5.510
    51    C    0.936    0.666    -4.620
    52    O    0.935    1.168    -3.498
    53    C    1.435    -0.637    -4.955
    54    H    1.873    -1.250    -4.170
    55    C    1.477    -0.300    -9.609
    56    H    1.900    0.671    -9.268
    57    O    0.823    -0.126    -10.854
    58    H    1.514    0.120    -11.505
    59    C    2.572    -1.364    -9.691
    60    H    3.246    -1.296    -8.809
    61    O    3.329    -1.413    -10.921
    62    P    3.972    -0.129    -11.558
    63    O    2.942    0.512    -12.402
    64    O    5.230    -0.542    -12.227
    65    O    4.319    0.789    -10.326
    66    C    5.066    2.018    -10.483
    67    H    5.323    2.243    -11.547
    68    H    6.034    1.898    -9.949
    69    C    4.327    3.251    -9.908
    70    H    3.621    3.656    -10.668
    71    O    3.569    2.932    -8.701
    72    C    4.267    3.392    -7.547
    73    H    3.643    4.208    -7.125
    74    N    4.444    2.326    -6.556
    75    C    4.658    2.483    -5.209
    76    N    5.215    4.539    -2.490
    77    H    5.650    4.436    -1.593
    78    H    5.182    5.429    -2.937
    79    N    4.732    3.651    -4.548
    80    C    5.046    3.491    -3.271
    81    N    5.216    2.266    -2.682
    82    H    5.421    2.233    -1.698
    83    C    5.111    1.041    -3.331
    84    O    5.280    -0.027    -2.731
    85    C    4.803    1.203    -4.710
    86    N    4.673    0.256    -5.724
    87    C    4.471    0.973    -6.804
    88    H    4.318    0.584    -7.814
    89    C    5.601    3.946    -7.998
    90    H    6.390    3.163    -7.969
    91    O    5.999    5.062    -7.234
    92    H    5.460    5.809    -7.532
    93    C    5.317    4.333    -9.446
    94    H    6.256    4.155    -10.025
    95    O    4.786    5.676    -9.632
    96    P    5.697    6.738    -10.372
    97    O    4.853    7.873    -10.807
    98    O    6.481    6.067    -11.426
    99    O    6.641    7.206    -9.209
    100    C    7.965    7.744    -9.423
    101    H    8.291    7.698    -10.488
    102    H    8.673    7.101    -8.858
    103    C    8.165    9.194    -8.911
    104    H    8.127    9.907    -9.763
    105    O    7.095    9.592    -7.995
    106    C    7.654    10.230    -6.861
    107    H    7.068    11.162    -6.688
    108    N    7.565    9.367    -5.676
    109    C    7.823    9.749    -4.390
    110    N    8.766    12.179    -2.119
    111    H    8.801    13.006    -2.686
    112    H    8.809    12.276    -1.121
    113    N    8.200    10.978    -3.994
    114    C    8.409    11.041    -2.685
    115    N    8.282    9.964    -1.848
    116    H    8.398    10.113    -0.858
    117    C    7.888    8.686    -2.231
    118    O    7.779    7.770    -1.410
    119    C    7.643    8.616    -3.624
    120    N    7.252    7.541    -4.412
    121    C    7.215    8.032    -5.627
    122    H    6.944    7.477    -6.530
    123    C    9.088    10.578    -7.201
    124    H    9.749    10.620    -6.307
    125    O    9.141    11.813    -7.890
    126    H    10.039    11.911    -8.240
    127    C    9.465    9.417    -8.107
    128    H    9.625    8.495    -7.496
    129    O    10.558    9.706    -9.004
    130    P    12.014    9.209    -8.668
    131    O    12.903    9.573    -9.800
    132    O    11.965    7.781    -8.308
    133    O    12.429    10.025    -7.387
    134    C    13.245    11.213    -7.509
    135    H    12.745    11.960    -8.168
    136    H    14.237    10.969    -7.959
    137    C    13.505    11.892    -6.152
    138    H    13.821    12.945    -6.299
    139    O    12.298    11.905    -5.331
    140    C    12.660    11.714    -3.974
    141    H    12.226    12.566    -3.400
    142    N    12.125    10.452    -3.457
    143    C    11.476    8.841    -2.110
    144    N    11.253    8.379    -3.401
    145    C    11.652    9.369    -4.163
    146    H    11.626    9.376    -5.255
    147    N    11.624    8.991    0.249
    148    C    12.103    10.225    0.063
    149    H    12.359    10.774    0.976
    150    N    12.346    10.873    -1.079
    151    C    12.008    10.118    -2.135
    152    C    11.282    8.256    -0.841
    153    N    10.785    7.020    -0.658
    154    H    10.500    6.440    -1.425
    155    H    10.628    6.698    0.277
    156    C    14.176    11.762    -3.892
    157    H    14.575    11.113    -3.082
    158    O    14.609    13.100    -3.690
    159    H    15.571    13.146    -3.837
    160    C    14.568    11.224    -5.265
    161    H    14.425    10.120    -5.320
    162    O    15.895    11.597    -5.680
    163    H    16.566    11.152    -5.125
    164    H    9.093    8.660    9.759
    165    O    9.633    9.036    9.037
    166    C    10.653    9.843    9.654
    167    H    11.186    9.237    10.418
    168    H    10.173    10.687    10.186
    169    C    11.693    10.431    8.683
    170    H    12.581    10.801    9.236
    171    O    12.140    9.415    7.748
    172    C    12.337    9.964    6.457
    173    H    13.444    9.957    6.332
    174    N    11.737    9.117    5.372
    175    C    11.107    7.922    5.676
    176    H    10.966    7.710    6.739
    177    C    11.986    9.452    4.054
    178    O    12.642    10.434    3.723
    179    N    11.472    8.582    3.125
    180    H    11.637    8.802    2.151
    181    C    10.910    7.350    3.357
    182    O    10.632    6.611    2.413
    183    C    10.697    7.053    4.738
    184    H    10.243    6.100    4.997
    185    C    11.859    11.419    6.467
    186    H    11.136    11.625    5.648
    187    O    12.966    12.293    6.353
    188    H    12.651    13.176    6.596
    189    C    11.150    11.569    7.821
    190    H    10.069    11.330    7.676
    191    O    11.359    12.841    8.484
    192    P    10.195    13.875    8.682
    193    O    10.805    15.190    8.987
    194    O    9.224    13.348    9.666
    195    O    9.539    13.943    7.256
    196    C    10.102    14.835    6.263
    197    H    11.181    14.621    6.075
    198    H    10.023    15.895    6.602
    199    C    9.345    14.727    4.935
    200    H    9.626    15.556    4.250
    201    O    9.693    13.495    4.265
    202    C    8.731    13.306    3.258
    203    H    9.048    13.995    2.441
    204    N    8.661    11.910    2.789
    205    C    8.544    10.897    3.707
    206    H    8.596    11.192    4.760
    207    C    8.413    9.621    3.312
    208    H    8.323    8.799    4.017
    209    C    8.618    11.634    1.426
    210    O    8.685    12.563    0.614
    211    N    8.504    10.353    1.014
    212    C    8.372    9.364    1.907
    213    N    8.165    8.128    1.453
    214    H    8.172    7.977    0.462
    215    H    8.071    7.339    2.063
    216    C    7.401    13.789    3.810
    217    H    6.783    12.940    4.182
    218    O    6.674    14.516    2.837
    219    H    5.857    14.825    3.267
    220    C    7.816    14.656    5.020
    221    H    7.591    14.064    5.936
    222    O    7.243    15.974    5.111
    223    P    5.810    16.213    5.713
    224    O    5.216    17.382    5.024
    225    O    5.919    16.309    7.186
    226    O    5.000    14.893    5.376
    227    C    3.551    14.873    5.473
    228    H    3.168    15.548    6.279
    229    H    3.247    13.847    5.781
    230    C    2.815    15.182    4.142
    231    H    2.396    16.208    4.170
    232    O    3.759    15.173    3.017
    233    C    3.186    14.530    1.903
    234    H    3.337    15.202    1.025
    235    N    3.837    13.236    1.667
    236    C    4.680    11.436    0.735
    237    N    4.864    11.281    2.102
    238    C    4.349    12.372    2.609
    239    H    4.323    12.612    3.676
    240    N    4.678    11.058    -1.599
    241    C    4.044    12.229    -1.711
    242    H    3.802    12.533    -2.736
    243    N    3.694    13.098    -0.752
    244    C    4.054    12.638    0.455
    245    C    4.996    10.612    -0.361
    246    N    5.565    9.407    -0.218
    247    H    5.851    9.067    0.677
    248    H    5.739    8.848    -1.026
    249    C    1.714    14.377    2.186
    250    H    1.305    13.496    1.671
    251    O    0.999    15.529    1.779
    252    H    0.129    15.494    2.207
    253    C    1.700    14.201    3.701
    254    H    2.042    13.174    3.970
    255    O    0.437    14.551    4.305
    256    P    -0.519    13.472    4.939
    257    O    -1.782    14.143    5.309
    258    O    0.201    12.782    6.033
    259    O    -0.814    12.438    3.795
    260    C    -1.742    12.665    2.704
    261    H    -2.152    13.706    2.702
    262    H    -2.613    11.987    2.857
    263    C    -1.152    12.361    1.295
    264    H    -0.875    13.313    0.792
    265    O    0.065    11.589    1.408
    266    C    0.409    11.104    0.149
    267    H    0.954    11.932    -0.360
    268    N    1.273    9.935    0.267
    269    C    2.516    8.178    -0.132
    270    N    2.448    8.290    1.254
    271    C    1.704    9.348    1.436
    272    H    1.433    9.763    2.413
    273    N    3.004    7.379    -2.306
    274    C    2.317    8.430    -2.756
    275    H    2.236    8.489    -3.846
    276    N    1.690    9.395    -2.077
    277    C    1.816    9.195    -0.753
    278    C    3.129    7.228    -0.966
    279    N    3.794    6.172    -0.480
    280    H    3.851    5.992    0.504
    281    H    4.065    5.464    -1.127
    282    C    -0.895    10.806    -0.563
    283    H    -1.107    9.717    -0.601
    284    O    -0.801    11.337    -1.867
    285    H    -1.666    11.280    -2.317
    286    C    -1.970    11.500    0.318
    287    H    -2.448    10.722    0.962
    288    O    -2.973    12.282    -0.369
    289    P    -4.078    11.596    -1.261
    290    O    -5.265    12.477    -1.276
    291    O    -4.286    10.210    -0.793
    292    O    -3.420    11.583    -2.702
    293    C    -3.921    10.690    -3.730
    294    H    -4.981    10.932    -3.975
    295    H    -3.883    9.629    -3.383
    296    C    -3.092    10.792    -5.030
    297    H    -3.092    11.832    -5.425
    298    O    -1.713    10.436    -4.726
    299    C    -1.265    9.353    -5.523
    300    H    -0.266    9.663    -5.909
    301    N    -1.086    8.133    -4.705
    302    C    -0.696    6.101    -3.933
    303    N    -0.871    6.912    -2.818
    304    C    -1.070    8.104    -3.327
    305    H    -1.197    9.023    -2.752
    306    N    -0.352    4.216    -5.329
    307    C    -0.489    5.054    -6.360
    308    H    -0.405    4.592    -7.350
    309    N    -0.683    6.377    -6.357
    310    C    -0.807    6.842    -5.102
    311    C    -0.441    4.718    -4.071
    312    N    -0.263    3.875    -3.037
    313    H    -0.268    4.205    -2.088
    314    H    0.033    2.937    -3.217
    315    C    -2.231    9.212    -6.687
    316    H    -2.398    8.160    -6.998
    317    O    -1.743    9.945    -7.795
    318    H    -2.462    9.998    -8.447
    319    C    -3.532    9.802    -6.130
    320    H    -4.092    8.994    -5.604
    321    O    -4.338    10.475    -7.115
    322    P    -5.750    10.007    -7.599
    323    O    -5.992    10.592    -8.942
    324    O    -6.742    10.319    -6.551
    325    O    -5.604    8.439    -7.707
    326    C    -6.132    7.704    -8.842
    327    H    -6.646    8.352    -9.589
    328    H    -6.928    7.025    -8.458
    329    C    -5.110    6.849    -9.636
    330    H    -4.890    7.329    -10.616
    331    O    -3.824    6.712    -8.950
    332    C    -3.510    5.340    -8.776
    333    H    -2.425    5.250    -9.010
    334    N    -3.737    4.881    -7.359
    335    C    -4.025    5.799    -6.362
    336    H    -4.200    6.822    -6.698
    337    C    -3.445    3.573    -7.020
    338    O    -3.069    2.737    -7.833
    339    N    -3.581    3.271    -5.692
    340    H    -3.271    2.345    -5.423
    341    C    -3.772    4.144    -4.649
    342    O    -3.701    3.743    -3.487
    343    C    -4.046    5.486    -5.056
    344    H    -4.216    6.234    -4.285
    345    C    -4.312    4.587    -9.828
    346    H    -4.538    3.542    -9.532
    347    O    -3.627    4.589    -11.072
    348    H    -3.470    5.512    -11.334
    349    C    -5.594    5.407    -9.869
    350    H    -6.241    5.117    -9.013
    351    O    -6.330    5.326    -11.104
    352    H    -6.484    4.392    -11.329
 $END
