!*** FMO 5.3 (Gamess) INPUT generated by Facio 22.1.1.32 ***
 $CONTRL RUNTYP=ENERGY NPRINT=-5 ISPHER=1 MAXIT=200 $END
 $SYSTEM MWORDS=63 MEMDDI=63 $END
 $GDDI NGROUP=1 $END
 $SCF DIRSCF=.TRUE. NPUNCH=0 $END
!*** NumCPU : 2  MemPerNode : 512MB
 $PCM SOLVNT=WATER IEF=-10 ICOMP=2 ICAV=1 IDISP=1 IFMO=-1 $END
 $PCMCAV RADII=SUAHF $END
 $TESCAV NTSALL=60 $END
 $FMOPRP
    NAODIR=200
    NGRFMO(1)=1, 1, 0, 0, 0,   0, 0, 0, 0, 0
    IPIEDA=1
    NPRINT=9
 $END
 $FMO
      SCFTYP(1)=RHF
      MODGRD=10
      MODMUL=0
      MAXCAO=5
      MAXBND=13
      NLAYER=1
      MPLEVL(1)=2
      NFRAG=11
      ICHARG(1)=-1, -1, -1, -1, 0, -1, -1, -1, -1, -1, 0
      FRGNAM(1)=F1, F2, F3, F4, F5, F6, F7, F8, F9, F10, F11
      indat(1)=0
               1   -35   0
               36   -65   0
               66   -99   0
               100   -133   0
               134   -165   0
               166   -195   0
               196   -226   0
               227   -259   0
               260   -292   0
               293   -325   0
               326   -352   0
 $END

 $FMOBND
   -36   35       6-31G*    MINI
   -66   65       6-31G*    MINI
   -100   99       6-31G*    MINI
   -134   133       6-31G*    MINI
   -166   165       6-31G*    MINI
   -196   195       6-31G*    MINI
   -227   226       6-31G*    MINI
   -260   259       6-31G*    MINI
   -293   292       6-31G*    MINI
   -326   325       6-31G*    MINI
 $END
 $FMOHYB
 6-31G*      15   5
   1 0  -0.065034   0.288264   0.000000   0.000000   0.604412
         0.290129   0.000000   0.000000   0.319045  -0.017106
        -0.017106   0.057934   0.000000   0.000000   0.000000
   0 1  -0.065040   0.288293   0.569832   0.000000  -0.201456
         0.290147   0.300783   0.000000  -0.106342   0.049598
        -0.017106  -0.008771   0.000000  -0.027223   0.000000
   0 1  -0.065039   0.288293  -0.284916  -0.493490  -0.201455
         0.290145  -0.150392  -0.260486  -0.106340  -0.000427
         0.032923  -0.008771   0.033353   0.013612   0.023576
   0 1  -0.065039   0.288293  -0.284916   0.493490  -0.201455
         0.290145  -0.150392   0.260486  -0.106340  -0.000427
         0.032923  -0.008771  -0.033353   0.013612  -0.023576
   0 1   1.010938  -0.011975   0.000000   0.000000   0.000000
        -0.054085   0.000000   0.000000  -0.000000  -0.003174
        -0.003174  -0.003174   0.000000   0.000000   0.000000
 MINI         5   5
   1 0  -0.104883   0.308874   0.000000   0.000000   0.521806
   0 1  -0.104883   0.308874   0.491961   0.000000  -0.173934
   0 1  -0.104883   0.308876  -0.245980  -0.426050  -0.173933
   0 1  -0.104883   0.308876  -0.245980   0.426050  -0.173933
   0 1   0.988209   0.063992   0.000000   0.000000   0.000000
 $END
 
 $DATA
 FMO calculation
 C1 
 H.1-1    1
      N31 6
   
 O.1-1    8
      N31 6
      d 1
      1 0.800 1.0
   
 C.1-1    6
      N31 6
      d 1
      1 0.800 1.0
   
 N.1-1    7
      N31 6
      d 1
      1 0.800 1.0
   
 P.1-1   15
      N31 6
      d 1
      1 0.550 1.0
   
 $END
 $FMOXYZ
    1    H    6.216    -3.104    1.139
    2    O    5.495    -3.040    0.486
    3    C    5.408    -4.324    -0.150
    4    H    5.185    -5.100    0.619
    5    H    6.393    -4.564    -0.597
    6    C    4.330    -4.387    -1.240
    7    H    4.298    -5.394    -1.712
    8    O    3.023    -4.140    -0.641
    9    C    2.236    -3.365    -1.529
    10    H    1.297    -3.938    -1.704
    11    N    1.897    -2.065    -0.944
    12    C    0.906    -0.156    -0.478
    13    N    1.923    -0.303    0.458
    14    C    2.473    -1.454    0.146
    15    H    3.316    -1.912    0.669
    16    N    -0.947    0.678    -1.697
    17    C    -0.823    -0.404    -2.475
    18    H    -1.549    -0.480    -3.293
    19    N    0.047    -1.415    -2.381
    20    C    0.887    -1.231    -1.351
    21    C    -0.079    0.838    -0.664
    22    N    -0.201    1.920    0.126
    23    H    0.420    2.080    0.895
    24    H    -0.875    2.632    -0.091
    25    C    3.001    -3.248    -2.828
    26    H    2.799    -2.301    -3.370
    27    O    2.675    -4.354    -3.647
    28    H    3.333    -4.383    -4.355
    29    C    4.448    -3.328    -2.349
    30    H    4.745    -2.379    -1.846
    31    O    5.401    -3.757    -3.354
    32    P    6.144    -2.663    -4.214
    33    O    6.735    -1.658    -3.304
    34    O    7.080    -3.348    -5.132
    35    O    4.982    -1.991    -5.031
    36    C    4.313    -2.701    -6.097
    37    H    3.816    -3.618    -5.721
    38    H    5.045    -3.010    -6.880
    39    C    3.244    -1.829    -6.773
    40    H    2.741    -2.388    -7.591
    41    O    2.212    -1.439    -5.825
    42    C    1.771    -0.119    -6.126
    43    H    0.678    -0.203    -6.336
    44    N    1.998    0.808    -4.985
    45    C    2.926    0.510    -4.013
    46    H    3.485    -0.414    -4.169
    47    C    1.272    1.977    -4.931
    48    O    0.463    2.297    -5.799
    49    N    1.515    2.756    -3.832
    50    H    0.995    3.628    -3.792
    51    C    2.378    2.494    -2.794
    52    O    2.463    3.271    -1.848
    53    C    3.124    1.282    -2.937
    54    H    3.837    1.017    -2.160
    55    C    2.492    0.323    -7.392
    56    H    2.733    1.410    -7.396
    57    O    1.707    -0.005    -8.525
    58    H    2.266    0.104    -9.312
    59    C    3.763    -0.506    -7.332
    60    H    4.450    -0.086    -6.561
    61    O    4.398    -0.725    -8.610
    62    P    5.601    0.196    -9.027
    63    O    6.545    0.273    -7.886
    64    O    6.133    -0.310    -10.316
    65    O    4.945    1.603    -9.277
    66    C    5.788    2.781    -9.165
    67    H    6.570    2.779    -9.963
    68    H    6.328    2.806    -8.189
    69    C    4.963    4.081    -9.299
    70    H    4.547    4.136    -10.326
    71    O    3.807    4.085    -8.401
    72    C    3.652    5.375    -7.827
    73    H    2.586    5.651    -7.994
    74    N    3.932    5.406    -6.371
    75    C    4.655    4.525    -5.590
    76    N    6.415    1.565    -5.303
    77    H    6.943    1.056    -4.627
    78    H    6.370    1.240    -6.254
    79    N    5.281    3.410    -6.006
    80    C    5.815    2.710    -5.032
    81    N    5.842    3.145    -3.733
    82    H    6.337    2.594    -3.049
    83    C    5.274    4.333    -3.270
    84    O    5.347    4.651    -2.079
    85    C    4.613    5.040    -4.313
    86    N    3.878    6.218    -4.279
    87    C    3.495    6.395    -5.518
    88    H    2.889    7.237    -5.868
    89    C    4.550    6.323    -8.593
    90    H    4.938    7.155    -7.967
    91    O    3.855    6.857    -9.708
    92    H    4.518    7.244    -10.302
    93    C    5.690    5.404    -9.014
    94    H    6.352    5.219    -8.131
    95    O    6.386    5.865    -10.196
    96    P    7.948    5.970    -10.217
    97    O    8.506    5.035    -9.219
    98    O    8.435    5.821    -11.607
    99    O    8.236    7.436    -9.722
    100    C    7.778    8.589    -10.462
    101    H    6.766    8.428    -10.904
    102    H    8.485    8.809    -11.293
    103    C    7.702    9.822    -9.553
    104    H    7.350    10.714    -10.116
    105    O    6.739    9.570    -8.490
    106    C    7.220    10.133    -7.281
    107    H    6.413    10.796    -6.899
    108    N    7.491    9.098    -6.270
    109    C    7.694    9.287    -4.925
    110    N    8.060    11.392    -2.200
    111    H    7.879    12.294    -2.590
    112    H    8.238    11.313    -1.215
    113    N    7.703    10.471    -4.279
    114    C    7.963    10.331    -2.982
    115    N    8.168    9.117    -2.381
    116    H    8.277    9.093    -1.379
    117    C    8.099    7.878    -3.009
    118    O    8.273    6.828    -2.381
    119    C    7.881    8.019    -4.404
    120    N    7.815    7.055    -5.401
    121    C    7.580    7.741    -6.491
    122    H    7.441    7.318    -7.486
    123    C    8.444    10.962    -7.617
    124    H    9.174    11.003    -6.782
    125    O    8.056    12.280    -7.971
    126    H    8.849    12.734    -8.282
    127    C    8.997    10.191    -8.811
    128    H    9.457    9.234    -8.467
    129    O    9.856    10.952    -9.683
    130    P    11.417    10.838    -9.547
    131    O    11.830    9.429    -9.363
    132    O    12.048    11.575    -10.667
    133    O    11.711    11.591    -8.200
    134    C    11.583    13.027    -8.115
    135    H    10.549    13.351    -8.364
    136    H    12.285    13.529    -8.820
    137    C    11.892    13.524    -6.699
    138    H    11.825    14.631    -6.642
    139    O    10.911    12.982    -5.765
    140    C    11.556    12.693    -4.534
    141    H    11.011    13.266    -3.748
    142    N    11.478    11.259    -4.224
    143    C    11.448    9.321    -3.181
    144    N    11.164    9.049    -4.513
    145    C    11.195    10.227    -5.087
    146    H    11.028    10.410    -6.151
    147    N    11.845    9.090    -0.858
    148    C    12.000    10.418    -0.829
    149    H    12.242    10.842    0.152
    150    N    11.943    11.295    -1.838
    151    C    11.643    10.679    -2.992
    152    C    11.552    8.494    -2.042
    153    N    11.382    7.160    -2.069
    154    H    11.110    6.676    -2.903
    155    H    11.419    6.629    -1.219
    156    C    12.986    13.202    -4.629
    157    H    13.697    12.569    -4.059
    158    O    13.051    14.541    -4.163
    159    H    13.957    14.889    -4.278
    160    C    13.249    13.093    -6.128
    161    H    13.429    12.036    -6.416
    162    O    14.306    13.942    -6.609
    163    H    15.156    13.649    -6.242
    164    H    11.909    4.045    7.300
    165    O    11.815    4.929    6.902
    166    C    12.507    5.847    7.762
    167    H    13.533    5.462    7.953
    168    H    11.969    5.897    8.736
    169    C    12.593    7.272    7.190
    170    H    12.999    7.977    7.947
    171    O    13.500    7.309    6.043
    172    C    12.971    8.182    5.051
    173    H    13.768    8.934    4.842
    174    N    12.602    7.459    3.803
    175    C    12.390    6.096    3.801
    176    H    12.555    5.592    4.754
    177    C    12.451    8.196    2.649
    178    O    12.597    9.413    2.619
    179    N    12.127    7.467    1.534
    180    H    12.048    8.001    0.676
    181    C    11.971    6.100    1.441
    182    O    11.759    5.577    0.348
    183    C    12.088    5.409    2.690
    184    H    12.003    4.327    2.702
    185    C    11.778    8.885    5.669
    186    H    11.004    9.143    4.921
    187    O    12.187    10.061    6.335
    188    H    11.394    10.408    6.763
    189    C    11.270    7.836    6.649
    190    H    10.764    7.012    6.096
    191    O    10.479    8.350    7.740
    192    P    8.916    8.440    7.622
    193    O    8.393    7.147    7.132
    194    O    8.384    8.926    8.917
    195    O    8.677    9.543    6.516
    196    C    8.993    10.931    6.799
    197    H    10.036    11.058    7.173
    198    H    8.321    11.329    7.589
    199    C    8.792    11.834    5.574
    200    H    8.999    12.897    5.831
    201    O    9.712    11.453    4.510
    202    C    9.051    11.590    3.253
    203    H    9.680    12.289    2.655
    204    N    8.920    10.301    2.514
    205    C    8.992    9.109    3.194
    206    H    9.148    9.184    4.270
    207    C    8.905    7.935    2.559
    208    H    9.003    6.985    3.080
    209    C    8.662    10.295    1.145
    210    O    8.538    11.376    0.549
    211    N    8.558    9.118    0.486
    212    C    8.685    7.957    1.152
    213    N    8.611    6.810    0.482
    214    H    8.446    6.828    -0.508
    215    H    8.680    5.920    0.936
    216    C    7.706    12.240    3.515
    217    H    6.918    11.914    2.804
    218    O    7.837    13.648    3.478
    219    H    6.978    14.000    3.745
    220    C    7.401    11.757    4.925
    221    H    7.123    10.679    4.911
    222    O    6.463    12.578    5.660
    223    P    4.931    12.219    5.640
    224    O    4.784    10.751    5.697
    225    O    4.246    12.998    6.691
    226    O    4.435    12.708    4.234
    227    C    4.406    14.097    3.847
    228    H    5.387    14.593    4.027
    229    H    3.643    14.653    4.441
    230    C    4.072    14.254    2.355
    231    H    4.077    15.327    2.056
    232    O    5.088    13.576    1.561
    233    C    4.476    12.920    0.464
    234    H    4.980    13.312    -0.446
    235    N    4.670    11.467    0.534
    236    C    4.968    9.354    0.007
    237    N    4.991    9.411    1.395
    238    C    4.815    10.682    1.655
    239    H    4.781    11.107    2.657
    240    N    5.080    8.582    -2.218
    241    C    4.819    9.830    -2.594
    242    H    4.772    9.983    -3.677
    243    N    4.668    10.925    -1.840
    244    C    4.760    10.613    -0.535
    245    C    5.144    8.289    -0.899
    246    N    5.344    7.015    -0.522
    247    H    5.345    6.727    0.438
    248    H    5.405    6.307    -1.237
    249    C    3.009    13.310    0.441
    250    H    2.361    12.482    0.093
    251    O    2.812    14.442    -0.383
    252    H    1.898    14.739    -0.264
    253    C    2.746    13.620    1.910
    254    H    2.667    12.669    2.481
    255    O    1.647    14.526    2.158
    256    P    0.228    13.977    2.573
    257    O    0.377    12.623    3.149
    258    O    -0.449    14.992    3.413
    259    O    -0.544    13.832    1.213
    260    C    -1.181    14.961    0.572
    261    H    -0.495    15.841    0.537
    262    H    -2.093    15.262    1.138
    263    C    -1.595    14.632    -0.877
    264    H    -1.998    15.540    -1.380
    265    O    -0.419    14.204    -1.626
    266    C    -0.784    13.168    -2.522
    267    H    -0.487    13.513    -3.539
    268    N    -0.075    11.926    -2.207
    269    C    0.962    9.998    -2.387
    270    N    0.938    10.299    -1.031
    271    C    0.309    11.448    -0.979
    272    H    0.112    12.012    -0.065
    273    N    1.332    8.921    -4.466
    274    C    0.689    9.950    -5.024
    275    H    0.598    9.916    -6.113
    276    N    0.172    11.037    -4.445
    277    C    0.341    10.995    -3.117
    278    C    1.480    8.906    -3.115
    279    N    2.111    7.872    -2.538
    280    H    2.391    7.912    -1.582
    281    H    2.661    7.277    -3.141
    282    C    -2.290    12.998    -2.469
    283    H    -2.603    11.938    -2.596
    284    O    -2.911    13.795    -3.463
    285    H    -3.869    13.723    -3.331
    286    C    -2.616    13.487    -1.059
    287    H    -2.351    12.708    -0.312
    288    O    -3.961    13.977    -0.864
    289    P    -5.182    12.996    -0.699
    290    O    -4.956    12.166    0.499
    291    O    -6.415    13.814    -0.711
    292    O    -5.161    12.074    -1.981
    293    C    -5.762    10.753    -1.911
    294    H    -6.857    10.830    -1.724
    295    H    -5.316    10.151    -1.083
    296    C    -5.554    9.958    -3.214
    297    H    -6.087    10.444    -4.057
    298    O    -4.137    9.928    -3.555
    299    C    -3.802    8.661    -4.092
    300    H    -3.324    8.846    -5.082
    301    N    -2.858    7.972    -3.210
    302    C    -1.259    6.688    -2.427
    303    N    -1.757    7.391    -1.337
    304    C    -2.698    8.142    -1.853
    305    H    -3.322    8.845    -1.293
    306    N    -0.032    5.181    -3.772
    307    C    -0.755    5.627    -4.802
    308    H    -0.519    5.168    -5.767
    309    N    -1.742    6.531    -4.814
    310    C    -1.932    7.035    -3.585
    311    C    -0.256    5.708    -2.542
    312    N    0.472    5.272    -1.495
    313    H    0.358    5.662    -0.575
    314    H    1.247    4.658    -1.662
    315    C    -5.092    7.888    -4.292
    316    H    -4.965    6.791    -4.173
    317    O    -5.627    8.164    -5.574
    318    H    -6.524    7.798    -5.609
    319    C    -5.955    8.471    -3.179
    320    H    -5.604    8.083    -2.194
    321    O    -7.377    8.322    -3.387
    322    P    -8.189    7.315    -2.489
    323    O    -7.667    7.371    -1.107
    324    O    -9.636    7.561    -2.672
    325    O    -7.814    5.912    -3.104
    326    C    -8.291    5.548    -4.422
    327    H    -7.994    6.308    -5.179
    328    H    -9.404    5.473    -4.422
    329    C    -7.733    4.192    -4.884
    330    H    -8.187    3.887    -5.850
    331    O    -6.293    4.296    -5.100
    332    C    -5.668    3.093    -4.667
    333    H    -5.089    2.719    -5.548
    334    N    -4.751    3.338    -3.512
    335    C    -4.871    4.466    -2.729
    336    H    -5.673    5.145    -3.012
    337    C    -3.768    2.408    -3.256
    338    O    -3.632    1.390    -3.924
    339    N    -2.951    2.707    -2.197
    340    H    -2.222    2.028    -2.009
    341    C    -3.011    3.809    -1.372
    342    O    -2.220    3.921    -0.438
    343    C    -4.049    4.740    -1.706
    344    H    -4.164    5.638    -1.103
    345    C    -6.772    2.099    -4.335
    346    H    -6.477    1.417    -3.509
    347    O    -7.112    1.343    -5.488
    348    H    -7.920    0.831    -5.307
    349    C    -7.895    3.030    -3.893
    350    H    -7.695    3.418    -2.871
    351    O    -9.212    2.453    -3.978
    352    H    -9.283    1.708    -3.353
 $END
