!*** FMO 5.3 (Gamess) INPUT generated by Facio 22.1.1.32 ***
 $CONTRL RUNTYP=ENERGY NPRINT=-5 ISPHER=1 MAXIT=200 $END
 $SYSTEM MWORDS=63 MEMDDI=63 $END
 $GDDI NGROUP=1 $END
 $SCF DIRSCF=.TRUE. NPUNCH=0 $END
!*** NumCPU : 2  MemPerNode : 512MB
 $PCM SOLVNT=WATER IEF=-10 ICOMP=2 ICAV=1 IDISP=1 IFMO=-1 $END
 $PCMCAV RADII=SUAHF $END
 $TESCAV NTSALL=60 $END
 $FMOPRP
    NAODIR=200
    NGRFMO(1)=1, 1, 0, 0, 0,   0, 0, 0, 0, 0
    IPIEDA=1
    NPRINT=9
 $END
 $FMO
      SCFTYP(1)=RHF
      MODGRD=10
      MODMUL=0
      MAXCAO=5
      MAXBND=13
      NLAYER=1
      MPLEVL(1)=2
      NFRAG=11
      ICHARG(1)=-1, -1, -1, -1, 0, -1, -1, -1, -1, -1, 0
      FRGNAM(1)=F1, F2, F3, F4, F5, F6, F7, F8, F9, F10, F11
      indat(1)=0
               1   -35   0
               36   -65   0
               66   -99   0
               100   -133   0
               134   -165   0
               166   -195   0
               196   -226   0
               227   -259   0
               260   -292   0
               293   -325   0
               326   -352   0
 $END

 $FMOBND
   -36   35       6-31G*    MINI
   -66   65       6-31G*    MINI
   -100   99       6-31G*    MINI
   -134   133       6-31G*    MINI
   -166   165       6-31G*    MINI
   -196   195       6-31G*    MINI
   -227   226       6-31G*    MINI
   -260   259       6-31G*    MINI
   -293   292       6-31G*    MINI
   -326   325       6-31G*    MINI
 $END
 $FMOHYB
 6-31G*      15   5
   1 0  -0.065034   0.288264   0.000000   0.000000   0.604412
         0.290129   0.000000   0.000000   0.319045  -0.017106
        -0.017106   0.057934   0.000000   0.000000   0.000000
   0 1  -0.065040   0.288293   0.569832   0.000000  -0.201456
         0.290147   0.300783   0.000000  -0.106342   0.049598
        -0.017106  -0.008771   0.000000  -0.027223   0.000000
   0 1  -0.065039   0.288293  -0.284916  -0.493490  -0.201455
         0.290145  -0.150392  -0.260486  -0.106340  -0.000427
         0.032923  -0.008771   0.033353   0.013612   0.023576
   0 1  -0.065039   0.288293  -0.284916   0.493490  -0.201455
         0.290145  -0.150392   0.260486  -0.106340  -0.000427
         0.032923  -0.008771  -0.033353   0.013612  -0.023576
   0 1   1.010938  -0.011975   0.000000   0.000000   0.000000
        -0.054085   0.000000   0.000000  -0.000000  -0.003174
        -0.003174  -0.003174   0.000000   0.000000   0.000000
 MINI         5   5
   1 0  -0.104883   0.308874   0.000000   0.000000   0.521806
   0 1  -0.104883   0.308874   0.491961   0.000000  -0.173934
   0 1  -0.104883   0.308876  -0.245980  -0.426050  -0.173933
   0 1  -0.104883   0.308876  -0.245980   0.426050  -0.173933
   0 1   0.988209   0.063992   0.000000   0.000000   0.000000
 $END
 
 $DATA
 FMO calculation
 C1 
 H.1-1    1
      N31 6
   
 O.1-1    8
      N31 6
      d 1
      1 0.800 1.0
   
 C.1-1    6
      N31 6
      d 1
      1 0.800 1.0
   
 N.1-1    7
      N31 6
      d 1
      1 0.800 1.0
   
 P.1-1   15
      N31 6
      d 1
      1 0.550 1.0
   
 $END
 $FMOXYZ
    1    H    4.085    -3.971    1.306
    2    O    3.618    -3.751    0.476
    3    C    3.537    -4.959    -0.298
    4    H    3.083    -5.763    0.324
    5    H    4.564    -5.284    -0.580
    6    C    2.711    -4.801    -1.578
    7    H    2.708    -5.737    -2.172
    8    O    1.326    -4.494    -1.245
    9    C    0.816    -3.563    -2.183
    10    H    -0.097    -4.030    -2.624
    11    N    0.440    -2.306    -1.529
    12    C    -0.497    -0.373    -1.062
    13    N    0.278    -0.705    0.043
    14    C    0.814    -1.858    -0.282
    15    H    1.494    -2.440    0.346
    16    N    -1.957    0.758    -2.544
    17    C    -1.748    -0.253    -3.396
    18    H    -2.279    -0.176    -4.351
    19    N    -0.993    -1.347    -3.244
    20    C    -0.397    -1.348    -2.040
    21    C    -1.329    0.732    -1.341
    22    N    -1.538    1.739    -0.472
    23    H    -1.107    1.751    0.438
    24    H    -2.111    2.523    -0.729
    25    C    1.862    -3.380    -3.260
    26    H    1.851    -2.364    -3.707
    27    O    1.663    -4.348    -4.270
    28    H    2.410    -4.278    -4.876
    29    C    3.151    -3.647    -2.488
    30    H    3.387    -2.784    -1.821
    31    O    4.280    -4.064    -3.293
    32    P    5.257    -2.956    -3.850
    33    O    5.671    -2.086    -2.731
    34    O    6.339    -3.616    -4.611
    35    O    4.354    -2.119    -4.825
    36    C    3.952    -2.663    -6.103
    37    H    3.327    -3.573    -5.977
    38    H    4.845    -2.949    -6.707
    39    C    3.144    -1.642    -6.917
    40    H    2.814    -2.084    -7.886
    41    O    1.937    -1.244    -6.200
    42    C    1.692    0.142    -6.431
    43    H    0.670    0.195    -6.877
    44    N    1.728    0.933    -5.170
    45    C    2.291    0.417    -4.021
    46    H    2.743    -0.569    -4.124
    47    C    1.146    2.180    -5.167
    48    O    0.619    2.669    -6.165
    49    N    1.183    2.828    -3.963
    50    H    0.692    3.715    -3.924
    51    C    1.677    2.362    -2.769
    52    O    1.593    3.053    -1.755
    53    C    2.275    1.065    -2.847
    54    H    2.709    0.637    -1.947
    55    C    2.706    0.622    -7.457
    56    H    3.005    1.679    -7.299
    57    O    2.200    0.457    -8.771
    58    H    2.945    0.583    -9.376
    59    C    3.868    -0.318    -7.198
    60    H    4.379    -0.032    -6.249
    61    O    4.758    -0.463    -8.322
    62    P    6.205    0.145    -8.279
    63    O    6.738    0.074    -6.902
    64    O    7.000    -0.535    -9.327
    65    O    6.006    1.655    -8.677
    66    C    5.626    1.989    -10.035
    67    H    4.741    1.396    -10.365
    68    H    6.464    1.774    -10.739
    69    C    5.264    3.474    -10.170
    70    H    4.963    3.718    -11.210
    71    O    4.128    3.776    -9.309
    72    C    4.326    5.050    -8.711
    73    H    3.416    5.652    -8.929
    74    N    4.492    4.951    -7.256
    75    C    4.436    5.997    -6.378
    76    N    4.082    9.384    -5.749
    77    H    3.892    9.759    -6.659
    78    H    4.087    9.986    -4.959
    79    N    4.218    7.286    -6.699
    80    C    4.257    8.081    -5.632
    81    N    4.477    7.623    -4.362
    82    H    4.345    8.278    -3.606
    83    C    4.592    6.291    -3.994
    84    O    4.721    5.968    -2.809
    85    C    4.605    5.438    -5.127
    86    N    4.777    4.062    -5.216
    87    C    4.715    3.818    -6.504
    88    H    4.811    2.836    -6.972
    89    C    5.521    5.686    -9.383
    90    H    6.076    6.380    -8.714
    91    O    5.105    6.373    -10.549
    92    H    5.908    6.611    -11.028
    93    C    6.360    4.466    -9.733
    94    H    6.839    4.041    -8.820
    95    O    7.301    4.676    -10.809
    96    P    8.744    5.226    -10.479
    97    O    9.346    4.346    -9.452
    98    O    9.459    5.384    -11.766
    99    O    8.510    6.640    -9.827
    100    C    8.185    7.809    -10.610
    101    H    7.196    7.696    -11.106
    102    H    8.944    7.977    -11.408
    103    C    8.122    9.071    -9.740
    104    H    7.814    9.953    -10.341
    105    O    7.142    8.906    -8.677
    106    C    7.625    9.530    -7.498
    107    H    6.848    10.263    -7.187
    108    N    7.816    8.553    -6.418
    109    C    7.909    8.827    -5.081
    110    N    7.916    11.101    -2.464
    111    H    7.833    11.984    -2.927
    112    H    8.073    11.091    -1.472
    113    N    7.853    10.047    -4.519
    114    C    7.944    9.999    -3.191
    115    N    8.085    8.829    -2.495
    116    H    8.143    8.881    -1.489
    117    C    8.134    7.554    -3.046
    118    O    8.246    6.548    -2.338
    119    C    8.048    7.599    -4.461
    120    N    8.060    6.570    -5.396
    121    C    7.914    7.185    -6.545
    122    H    7.884    6.701    -7.523
    123    C    8.903    10.262    -7.855
    124    H    9.628    10.294    -7.015
    125    O    8.606    11.581    -8.272
    126    H    9.422    11.953    -8.632
    127    C    9.422    9.414    -9.008
    128    H    9.827    8.448    -8.621
    129    O    10.320    10.098    -9.910
    130    P    11.867    9.842    -9.799
    131    O    12.125    8.410    -9.556
    132    O    12.537    10.452    -10.968
    133    O    12.267    10.639    -8.503
    134    C    12.241    12.085    -8.520
    135    H    11.237    12.474    -8.808
    136    H    12.987    12.479    -9.250
    137    C    12.590    12.650    -7.139
    138    H    12.624    13.759    -7.164
    139    O    11.568    12.272    -6.170
    140    C    12.189    12.008    -4.920
    141    H    11.701    12.682    -4.178
    142    N    11.976    10.614    -4.511
    143    C    11.752    8.767    -3.337
    144    N    11.434    8.436    -4.644
    145    C    11.589    9.559    -5.301
    146    H    11.446    9.682    -6.377
    147    N    12.144    8.650    -1.007
    148    C    12.446    9.951    -1.071
    149    H    12.739    10.411    -0.120
    150    N    12.461    10.765    -2.134
    151    C    12.090    10.106    -3.242
    152    C    11.783    8.010    -2.146
    153    N    11.478    6.702    -2.086
    154    H    11.200    6.184    -2.897
    155    H    11.512    6.215    -1.209
    156    C    13.659    12.371    -5.043
    157    H    14.304    11.710    -4.428
    158    O    13.852    13.725    -4.665
    159    H    14.763    13.985    -4.883
    160    C    13.905    12.142    -6.530
    161    H    13.995    11.056    -6.748
    162    O    15.024    12.868    -7.069
    163    H    15.848    12.533    -6.679
    164    H    11.781    4.165    7.495
    165    O    11.844    4.992    6.985
    166    C    12.583    5.924    7.790
    167    H    13.589    5.502    8.004
    168    H    12.060    6.046    8.763
    169    C    12.755    7.303    7.133
    170    H    13.219    8.018    7.847
    171    O    13.658    7.200    5.987
    172    C    13.196    8.050    4.945
    173    H    14.051    8.717    4.685
    174    N    12.757    7.277    3.746
    175    C    12.454    5.933    3.828
    176    H    12.576    5.481    4.813
    177    C    12.667    7.940    2.544
    178    O    12.930    9.133    2.427
    179    N    12.272    7.171    1.481
    180    H    12.241    7.651    0.589
    181    C    12.012    5.816    1.474
    182    O    11.752    5.242    0.416
    183    C    12.090    5.200    2.765
    184    H    11.905    4.132    2.851
    185    C    12.072    8.890    5.527
    186    H    11.324    9.177    4.763
    187    O    12.595    10.055    6.136
    188    H    11.850    10.497    6.562
    189    C    11.476    7.939    6.560
    190    H    10.907    7.126    6.054
    191    O    10.723    8.583    7.615
    192    P    9.171    8.769    7.451
    193    O    8.596    7.492    6.984
    194    O    8.647    9.302    8.734
    195    O    9.044    9.831    6.298
    196    C    9.436    11.207    6.498
    197    H    10.504    11.290    6.800
    198    H    8.828    11.664    7.307
    199    C    9.227    12.061    5.236
    200    H    9.521    13.115    5.421
    201    O    10.057    11.562    4.146
    202    C    9.332    11.646    2.917
    203    H    9.963    12.257    2.233
    204    N    9.089    10.315    2.281
    205    C    9.212    9.166    3.026
    206    H    9.502    9.305    4.067
    207    C    9.016    7.956    2.490
    208    H    9.143    7.040    3.063
    209    C    8.701    10.224    0.944
    210    O    8.555    11.264    0.282
    211    N    8.499    9.008    0.382
    212    C    8.654    7.891    1.114
    213    N    8.474    6.707    0.530
    214    H    8.325    6.670    -0.460
    215    H    8.539    5.841    1.035
    216    C    8.044    12.402    3.201
    217    H    7.201    12.051    2.570
    218    O    8.223    13.798    3.024
    219    H    7.435    14.222    3.391
    220    C    7.805    12.048    4.659
    221    H    7.485    10.988    4.732
    222    O    6.949    12.973    5.371
    223    P    5.496    12.519    5.797
    224    O    5.391    11.044    5.813
    225    O    5.119    13.224    7.042
    226    O    4.591    13.045    4.622
    227    C    4.412    14.462    4.403
    228    H    5.380    15.012    4.456
    229    H    3.737    14.886    5.181
    230    C    3.799    14.732    3.022
    231    H    3.640    15.823    2.867
    232    O    4.725    14.287    1.991
    233    C    3.992    13.707    0.924
    234    H    4.290    14.262    0.004
    235    N    4.333    12.290    0.770
    236    C    4.741    10.311    -0.093
    237    N    5.045    10.214    1.258
    238    C    4.786    11.411    1.725
    239    H    4.931    11.721    2.760
    240    N    4.431    9.816    -2.388
    241    C    3.966    11.064    -2.510
    242    H    3.630    11.356    -3.511
    243    N    3.865    12.025    -1.590
    244    C    4.285    11.582    -0.398
    245    C    4.831    9.389    -1.158
    246    N    5.272    8.124    -0.993
    247    H    5.478    7.768    -0.078
    248    H    5.121    7.445    -1.715
    249    C    2.514    13.923    1.192
    250    H    1.878    13.094    0.812
    251    O    2.092    15.146    0.620
    252    H    1.177    15.301    0.901
    253    C    2.491    13.983    2.717
    254    H    2.616    12.960    3.138
    255    O    1.365    14.685    3.296
    256    P    0.000    13.890    3.432
    257    O    0.258    12.437    3.505
    258    O    -0.728    14.498    4.570
    259    O    -0.789    14.255    2.109
    260    C    -1.880    13.400    1.667
    261    H    -2.852    13.802    2.032
    262    H    -1.793    12.358    2.065
    263    C    -1.939    13.288    0.135
    264    H    -2.239    14.256    -0.321
    265    O    -0.614    12.961    -0.370
    266    C    -0.726    12.066    -1.452
    267    H    -0.205    12.544    -2.312
    268    N    -0.080    10.796    -1.133
    269    C    1.022    8.908    -1.300
    270    N    0.710    9.048    0.046
    271    C    0.056    10.186    0.091
    272    H    -0.357    10.638    0.996
    273    N    1.770    8.048    -3.368
    274    C    1.246    9.134    -3.933
    275    H    1.373    9.205    -5.018
    276    N    0.635    10.170    -3.354
    277    C    0.534    9.977    -2.031
    278    C    1.702    7.909    -2.021
    279    N    2.313    6.862    -1.436
    280    H    2.282    6.713    -0.448
    281    H    2.896    6.274    -1.996
    282    C    -2.196    11.905    -1.777
    283    H    -2.442    10.891    -2.154
    284    O    -2.593    12.867    -2.735
    285    H    -3.550    12.781    -2.833
    286    C    -2.841    12.164    -0.421
    287    H    -2.683    11.283    0.246
    288    O    -4.227    12.594    -0.482
    289    P    -5.351    11.489    -0.371
    290    O    -4.977    10.568    0.724
    291    O    -6.673    12.139    -0.242
    292    O    -5.277    10.728    -1.745
    293    C    -5.742    11.349    -2.966
    294    H    -5.285    12.356    -3.111
    295    H    -6.848    11.486    -2.939
    296    C    -5.402    10.492    -4.196
    297    H    -5.731    11.002    -5.127
    298    O    -3.959    10.315    -4.290
    299    C    -3.675    9.003    -4.747
    300    H    -3.019    9.102    -5.642
    301    N    -2.982    8.228    -3.709
    302    C    -1.693    6.788    -2.660
    303    N    -2.318    7.536    -1.675
    304    C    -3.076    8.364    -2.344
    305    H    -3.723    9.109    -1.887
    306    N    -0.403    5.163    -3.781
    307    C    -0.871    5.680    -4.919
    308    H    -0.505    5.198    -5.831
    309    N    -1.711    6.704    -5.101
    310    C    -2.094    7.207    -3.919
    311    C    -0.795    5.702    -2.601
    312    N    -0.328    5.172    -1.454
    313    H    -0.550    5.560    -0.553
    314    H    0.390    4.473    -1.504
    315    C    -4.989    8.369    -5.158
    316    H    -4.995    7.270    -5.016
    317    O    -5.273    8.666    -6.513
    318    H    -6.159    8.329    -6.703
    319    C    -5.962    9.061    -4.212
    320    H    -5.845    8.669    -3.174
    321    O    -7.330    9.071    -4.670
    322    P    -8.372    8.063    -4.071
    323    O    -8.126    7.907    -2.625
    324    O    -9.725    8.502    -4.477
    325    O    -8.014    6.697    -4.765
    326    C    -8.192    6.517    -6.186
    327    H    -7.681    7.323    -6.758
    328    H    -9.277    6.553    -6.447
    329    C    -7.631    5.171    -6.666
    330    H    -7.875    5.008    -7.740
    331    O    -6.176    5.172    -6.555
    332    C    -5.733    3.883    -6.145
    333    H    -5.009    3.543    -6.924
    334    N    -5.072    3.926    -4.806
    335    C    -5.311    4.957    -3.924
    336    H    -6.016    5.708    -4.273
    337    C    -4.228    2.894    -4.460
    338    O    -4.005    1.945    -5.206
    339    N    -3.663    2.998    -3.217
    340    H    -3.041    2.240    -2.957
    341    C    -3.842    4.003    -2.294
    342    O    -3.276    3.946    -1.205
    343    C    -4.723    5.047    -2.723
    344    H    -4.916    5.878    -2.046
    345    C    -6.948    2.962    -6.158
    346    H    -6.883    2.189    -5.364
    347    O    -7.082    2.335    -7.426
    348    H    -7.943    1.878    -7.467
    349    C    -8.082    3.941    -5.869
    350    H    -8.095    4.204    -4.792
    351    O    -9.378    3.497    -6.306
    352    H    -9.640    2.695    -5.815
 $END
