!*** FMO 5.3 (Gamess) INPUT generated by Facio 22.1.1.32 ***
 $CONTRL RUNTYP=ENERGY NPRINT=-5 ISPHER=1 MAXIT=200 $END
 $SYSTEM MWORDS=63 MEMDDI=63 $END
 $GDDI NGROUP=1 $END
 $SCF DIRSCF=.TRUE. NPUNCH=0 $END
!*** NumCPU : 2  MemPerNode : 512MB
 $PCM SOLVNT=WATER IEF=-10 ICOMP=2 ICAV=1 IDISP=1 IFMO=-1 $END
 $PCMCAV RADII=SUAHF $END
 $TESCAV NTSALL=60 $END
 $FMOPRP
    NAODIR=200
    NGRFMO(1)=1, 1, 0, 0, 0,   0, 0, 0, 0, 0
    IPIEDA=1
    NPRINT=9
 $END
 $FMO
      SCFTYP(1)=RHF
      MODGRD=10
      MODMUL=0
      MAXCAO=5
      MAXBND=13
      NLAYER=1
      MPLEVL(1)=2
      NFRAG=11
      ICHARG(1)=-1, -1, -1, -1, -1, -1, -1, -1, -1, -1, 0
      FRGNAM(1)=F1, F2, F3, F4, F5, F6, F7, F8, F9, F10, F11
      indat(1)=0
               1   -36   0
               37   -70   0
               71   -101   0
               102   -131   0
               132   -162   0
               163   -195   0
               196   -225   0
               226   -258   0
               259   -291   0
               292   -322   0
               323   -350   0
 $END

 $FMOBND
   -37   36       6-31G*    MINI
   -71   70       6-31G*    MINI
   -102   101       6-31G*    MINI
   -132   131       6-31G*    MINI
   -163   162       6-31G*    MINI
   -196   195       6-31G*    MINI
   -226   225       6-31G*    MINI
   -259   258       6-31G*    MINI
   -292   291       6-31G*    MINI
   -323   322       6-31G*    MINI
 $END
 $FMOHYB
 6-31G*      15   5
   1 0  -0.065034   0.288264   0.000000   0.000000   0.604412
         0.290129   0.000000   0.000000   0.319045  -0.017106
        -0.017106   0.057934   0.000000   0.000000   0.000000
   0 1  -0.065040   0.288293   0.569832   0.000000  -0.201456
         0.290147   0.300783   0.000000  -0.106342   0.049598
        -0.017106  -0.008771   0.000000  -0.027223   0.000000
   0 1  -0.065039   0.288293  -0.284916  -0.493490  -0.201455
         0.290145  -0.150392  -0.260486  -0.106340  -0.000427
         0.032923  -0.008771   0.033353   0.013612   0.023576
   0 1  -0.065039   0.288293  -0.284916   0.493490  -0.201455
         0.290145  -0.150392   0.260486  -0.106340  -0.000427
         0.032923  -0.008771  -0.033353   0.013612  -0.023576
   0 1   1.010938  -0.011975   0.000000   0.000000   0.000000
        -0.054085   0.000000   0.000000  -0.000000  -0.003174
        -0.003174  -0.003174   0.000000   0.000000   0.000000
 MINI         5   5
   1 0  -0.104883   0.308874   0.000000   0.000000   0.521806
   0 1  -0.104883   0.308874   0.491961   0.000000  -0.173934
   0 1  -0.104883   0.308876  -0.245980  -0.426050  -0.173933
   0 1  -0.104883   0.308876  -0.245980   0.426050  -0.173933
   0 1   0.988209   0.063992   0.000000   0.000000   0.000000
 $END
 
 $DATA
 FMO calculation
 C1 
 H.1-1    1
      N31 6
   
 O.1-1    8
      N31 6
      d 1
      1 0.800 1.0
   
 C.1-1    6
      N31 6
      d 1
      1 0.800 1.0
   
 N.1-1    7
      N31 6
      d 1
      1 0.800 1.0
   
 P.1-1   15
      N31 6
      d 1
      1 0.550 1.0
   
 $END
 $FMOXYZ
    1    H    -1.555    -9.303    0.231
    2    O    -1.667    -8.743    1.019
    3    C    -1.402    -9.571    2.161
    4    H    -0.385    -10.014    2.066
    5    H    -2.134    -10.407    2.184
    6    C    -1.496    -8.810    3.486
    7    H    -1.314    -9.491    4.349
    8    O    -0.482    -7.762    3.541
    9    C    -1.036    -6.621    4.186
    10    H    -0.370    -6.375    5.044
    11    N    -1.095    -5.465    3.280
    12    C    -1.241    -4.158    3.657
    13    N    -1.618    -1.779    6.142
    14    H    -1.624    -2.329    6.977
    15    H    -1.689    -0.781    6.217
    16    N    -1.369    -3.713    4.919
    17    C    -1.460    -2.389    4.982
    18    N    -1.394    -1.579    3.876
    19    H    -1.455    -0.582    4.013
    20    C    -1.258    -2.009    2.561
    21    O    -1.198    -1.206    1.623
    22    C    -1.190    -3.426    2.485
    23    N    -1.046    -4.262    1.383
    24    C    -1.002    -5.467    1.904
    25    H    -0.890    -6.400    1.344
    26    C    -2.399    -7.009    4.705
    27    H    -3.109    -6.159    4.716
    28    O    -2.283    -7.550    6.007
    29    H    -3.166    -7.840    6.266
    30    C    -2.823    -8.067    3.697
    31    H    -3.092    -7.592    2.724
    32    O    -3.828    -8.986    4.166
    33    P    -5.352    -8.654    3.959
    34    O    -5.568    -8.311    2.540
    35    O    -6.123    -9.790    4.511
    36    O    -5.589    -7.375    4.845
    37    C    -5.610    -7.482    6.288
    38    H    -4.699    -7.983    6.681
    39    H    -6.484    -8.082    6.624
    40    C    -5.723    -6.097    6.937
    41    H    -5.668    -6.168    8.045
    42    O    -4.635    -5.238    6.499
    43    C    -5.107    -3.906    6.372
    44    H    -4.485    -3.283    7.052
    45    N    -4.952    -3.400    5.006
    46    C    -5.014    -2.088    4.624
    47    N    -5.535    1.251    5.382
    48    H    -5.741    1.225    6.358
    49    H    -5.576    2.131    4.898
    50    N    -5.249    -1.037    5.433
    51    C    -5.251    0.118    4.767
    52    N    -4.983    0.213    3.428
    53    H    -5.011    1.128    3.002
    54    C    -4.711    -0.849    2.579
    55    O    -4.475    -0.660    1.384
    56    C    -4.765    -2.091    3.264
    57    N    -4.584    -3.387    2.796
    58    C    -4.712    -4.133    3.867
    59    H    -4.661    -5.222    3.896
    60    C    -6.549    -3.884    6.830
    61    H    -7.168    -3.160    6.258
    62    O    -6.606    -3.573    8.208
    63    H    -7.490    -3.808    8.528
    64    C    -6.986    -5.316    6.559
    65    H    -7.142    -5.480    5.468
    66    O    -8.098    -5.753    7.360
    67    P    -9.549    -5.864    6.759
    68    O    -9.564    -6.951    5.761
    69    O    -10.516    -5.969    7.877
    70    O    -9.768    -4.498    6.015
    71    C    -10.060    -3.271    6.718
    72    H    -9.242    -3.009    7.426
    73    H    -10.998    -3.372    7.307
    74    C    -10.244    -2.107    5.736
    75    H    -10.542    -1.175    6.270
    76    O    -8.982    -1.847    5.051
    77    C    -9.238    -1.569    3.687
    78    H    -8.762    -0.584    3.498
    79    N    -8.640    -2.581    2.757
    80    C    -8.220    -3.805    3.226
    81    H    -8.384    -3.988    4.287
    82    C    -7.635    -4.706    2.423
    83    H    -7.289    -5.675    2.783
    84    C    -8.477    -2.294    1.404
    85    O    -8.830    -1.196    0.971
    86    N    -7.874    -3.172    0.577
    87    C    -7.445    -4.347    1.056
    88    N    -6.843    -5.181    0.210
    89    H    -6.702    -4.869    -0.734
    90    H    -6.447    -6.052    0.494
    91    C    -10.738    -1.416    3.534
    92    H    -11.072    -1.747    2.538
    93    O    -11.151    -0.074    3.770
    94    H    -10.628    0.531    3.225
    95    C    -11.254    -2.365    4.606
    96    H    -11.127    -3.422    4.281
    97    O    -12.591    -2.086    5.062
    98    P    -13.842    -2.764    4.395
    99    O    -13.962    -4.123    4.967
    100    O    -15.014    -1.880    4.568
    101    O    -13.522    -2.897    2.860
    102    C    -13.714    -1.805    1.930
    103    H    -13.160    -0.899    2.258
    104    H    -14.791    -1.524    1.869
    105    C    -13.239    -2.187    0.513
    106    H    -13.294    -1.336    -0.190
    107    O    -11.843    -2.567    0.519
    108    C    -11.628    -3.652    -0.357
    109    H    -10.884    -3.283    -1.101
    110    N    -11.086    -4.826    0.364
    111    C    -11.259    -4.963    1.723
    112    H    -11.777    -4.142    2.212
    113    C    -10.402    -5.773    -0.364
    114    O    -10.235    -5.685    -1.576
    115    N    -9.920    -6.823    0.375
    116    H    -9.414    -7.525    -0.142
    117    C    -10.036    -7.010    1.738
    118    O    -9.533    -7.994    2.270
    119    C    -10.762    -5.988    2.422
    120    H    -10.869    -6.055    3.503
    121    C    -12.944    -3.950    -1.057
    122    H    -13.106    -5.040    -1.205
    123    O    -12.962    -3.298    -2.307
    124    H    -13.851    -2.934    -2.487
    125    C    -13.973    -3.383    -0.086
    126    H    -14.124    -4.093    0.757
    127    O    -15.227    -2.963    -0.676
    128    P    -16.242    -4.105    -1.097
    129    O    -15.754    -5.413    -0.606
    130    O    -17.593    -3.701    -0.653
    131    O    -16.192    -4.086    -2.674
    132    C    -16.898    -5.099    -3.437
    133    H    -17.732    -5.572    -2.861
    134    H    -16.184    -5.907    -3.707
    135    C    -17.501    -4.547    -4.740
    136    H    -17.927    -5.368    -5.355
    137    O    -18.605    -3.659    -4.416
    138    C    -18.559    -2.510    -5.250
    139    H    -19.563    -2.472    -5.738
    140    N    -18.370    -1.244    -4.487
    141    C    -18.029    -1.288    -3.154
    142    H    -17.856    -2.279    -2.731
    143    C    -17.914    -0.171    -2.429
    144    H    -17.670    -0.192    -1.368
    145    C    -18.579    -0.011    -5.108
    146    O    -18.892    0.014    -6.309
    147    N    -18.459    1.132    -4.387
    148    C    -18.138    1.072    -3.083
    149    N    -18.056    2.201    -2.388
    150    H    -17.683    2.211    -1.457
    151    H    -18.165    3.075    -2.861
    152    C    -17.497    -2.746    -6.311
    153    H    -16.959    -1.811    -6.587
    154    O    -18.092    -3.324    -7.460
    155    H    -17.382    -3.705    -7.997
    156    C    -16.549    -3.725    -5.623
    157    H    -15.862    -3.187    -4.937
    158    O    -15.853    -4.615    -6.511
    159    P    -14.482    -4.372    -7.214
    160    O    -13.406    -4.712    -6.260
    161    O    -14.485    -5.098    -8.504
    162    O    -14.406    -2.842    -7.492
    163    C    -14.932    -2.155    -8.645
    164    H    -16.042    -2.210    -8.647
    165    H    -14.576    -2.631    -9.589
    166    C    -14.558    -0.652    -8.694
    167    H    -15.052    -0.174    -9.566
    168    O    -14.963    0.048    -7.477
    169    C    -13.812    0.333    -6.688
    170    H    -13.630    1.427    -6.784
    171    N    -14.060    -0.027    -5.296
    172    C    -14.585    0.031    -3.164
    173    N    -14.484    -1.298    -3.508
    174    C    -14.153    -1.286    -4.769
    175    H    -13.952    -2.181    -5.353
    176    N    -14.873    2.025    -1.935
    177    C    -14.596    2.668    -3.071
    178    H    -14.603    3.763    -3.003
    179    N    -14.335    2.178    -4.289
    180    C    -14.337    0.834    -4.262
    181    C    -14.880    0.673    -1.945
    182    N    -15.213    0.031    -0.810
    183    H    -15.211    -0.975    -0.765
    184    H    -15.389    0.559    0.020
    185    C    -12.655    -0.422    -7.310
    186    H    -12.619    -1.465    -6.941
    187    O    -11.396    0.148    -7.089
    188    H    -11.360    1.027    -7.487
    189    C    -13.042    -0.399    -8.778
    190    H    -12.574    -1.289    -9.262
    191    O    -12.726    0.849    -9.451
    192    P    -12.184    0.810    -10.931
    193    O    -12.479    -0.515    -11.522
    194    O    -12.712    1.993    -11.643
    195    O    -10.627    0.965    -10.774
    196    C    -9.735    0.406    -11.773
    197    H    -10.218    0.278    -12.771
    198    H    -9.401    -0.598    -11.427
    199    C    -8.480    1.270    -11.959
    200    H    -7.705    0.718    -12.532
    201    O    -8.799    2.459    -12.733
    202    C    -8.091    3.574    -12.203
    203    H    -7.507    3.987    -13.062
    204    N    -9.016    4.612    -11.668
    205    C    -10.329    4.310    -11.364
    206    H    -10.627    3.274    -11.530
    207    C    -8.527    5.888    -11.488
    208    O    -7.362    6.194    -11.730
    209    N    -9.443    6.796    -11.020
    210    H    -9.106    7.741    -10.900
    211    C    -10.777    6.578    -10.743
    212    O    -11.492    7.511    -10.375
    213    C    -11.207    5.224    -10.930
    214    H    -12.249    4.968    -10.743
    215    C    -7.123    3.042    -11.150
    216    H    -6.969    3.764    -10.317
    217    O    -5.873    2.714    -11.733
    218    H    -5.357    2.263    -11.047
    219    C    -7.858    1.800    -10.663
    220    H    -8.690    2.101    -9.990
    221    O    -7.039    0.771    -10.081
    222    P    -6.400    0.933    -8.661
    223    O    -6.487    -0.370    -7.966
    224    O    -5.050    1.503    -8.849
    225    O    -7.287    2.005    -7.915
    226    C    -8.306    1.574    -6.994
    227    H    -7.864    0.997    -6.147
    228    H    -9.032    0.909    -7.520
    229    C    -9.059    2.784    -6.426
    230    H    -9.364    3.486    -7.231
    231    O    -10.270    2.297    -5.793
    232    C    -10.522    2.996    -4.593
    233    H    -11.555    3.404    -4.673
    234    N    -10.456    2.111    -3.425
    235    C    -10.735    1.264    -1.414
    236    N    -10.041    0.309    -2.142
    237    C    -9.904    0.855    -3.328
    238    H    -9.417    0.386    -4.186
    239    N    -11.856    2.418    0.314
    240    C    -12.026    3.415    -0.549
    241    H    -12.558    4.286    -0.149
    242    N    -11.605    3.511    -1.811
    243    C    -10.987    2.380    -2.193
    244    C    -11.216    1.300    -0.089
    245    N    -11.102    0.306    0.797
    246    H    -10.594    -0.532    0.560
    247    H    -11.688    0.289    1.600
    248    C    -9.531    4.124    -4.523
    249    H    -9.242    4.375    -3.483
    250    O    -10.065    5.267    -5.156
    251    H    -9.331    5.885    -5.249
    252    C    -8.350    3.558    -5.307
    253    H    -7.806    2.797    -4.703
    254    O    -7.474    4.557    -5.869
    255    P    -6.243    5.061    -5.028
    256    O    -5.491    3.896    -4.517
    257    O    -5.497    6.040    -5.846
    258    O    -6.882    5.798    -3.794
    259    C    -7.545    7.075    -3.909
    260    H    -8.363    7.042    -4.661
    261    H    -6.821    7.857    -4.233
    262    C    -8.147    7.513    -2.564
    263    H    -8.709    8.467    -2.668
    264    O    -9.090    6.512    -2.078
    265    C    -8.931    6.347    -0.677
    266    H    -9.934    6.515    -0.221
    267    N    -8.487    4.994    -0.351
    268    C    -8.070    3.116    0.697
    269    N    -7.656    2.928    -0.613
    270    C    -7.919    4.069    -1.191
    271    H    -7.707    4.299    -2.234
    272    N    -8.544    2.760    2.991
    273    C    -8.984    4.023    3.013
    274    H    -9.360    4.370    3.985
    275    N    -9.050    4.914    2.013
    276    C    -8.579    4.386    0.872
    277    C    -8.050    2.278    1.826
    278    N    -7.540    1.044    1.803
    279    H    -7.457    0.552    0.932
    280    H    -7.669    0.499    2.619
    281    C    -7.963    7.405    -0.189
    282    H    -7.324    7.057    0.652
    283    O    -8.681    8.558    0.201
    284    H    -8.034    9.264    0.357
    285    C    -7.121    7.660    -1.433
    286    H    -6.393    6.827    -1.572
    287    O    -6.510    8.968    -1.492
    288    P    -5.075    9.176    -0.892
    289    O    -4.313    7.921    -1.056
    290    O    -4.494    10.397    -1.488
    291    O    -5.314    9.430    0.643
    292    C    -4.222    9.228    1.587
    293    H    -3.750    10.208    1.828
    294    H    -3.407    8.583    1.174
    295    C    -4.685    8.567    2.904
    296    H    -5.097    9.323    3.603
    297    O    -5.754    7.602    2.647
    298    C    -5.514    6.418    3.392
    299    H    -6.470    6.198    3.925
    300    N    -5.159    5.255    2.533
    301    C    -4.732    5.441    1.233
    302    H    -4.672    6.474    0.878
    303    C    -4.432    4.398    0.447
    304    H    -4.103    4.521    -0.584
    305    C    -5.250    3.966    3.053
    306    O    -5.632    3.811    4.224
    307    N    -4.922    2.909    2.280
    308    C    -4.553    3.091    1.000
    309    N    -4.298    2.028    0.243
    310    H    -4.400    1.108    0.626
    311    H    -4.008    2.117    -0.712
    312    C    -4.437    6.742    4.407
    313    H    -3.847    5.852    4.706
    314    O    -5.010    7.341    5.555
    315    H    -4.284    7.651    6.110
    316    C    -3.599    7.740    3.623
    317    H    -3.038    7.208    2.821
    318    O    -2.764    8.597    4.434
    319    P    -1.224    8.293    4.569
    320    O    -0.697    7.857    3.259
    321    O    -0.570    9.459    5.199
    322    O    -1.189    7.072    5.561
    323    C    -1.624    7.221    6.931
    324    H    -2.664    7.614    6.988
    325    H    -0.958    7.932    7.471
    326    C    -1.583    5.880    7.677
    327    H    -1.833    6.014    8.751
    328    O    -2.587    4.979    7.117
    329    C    -2.049    3.660    7.064
    330    H    -2.773    3.021    7.621
    331    N    -1.918    3.138    5.675
    332    C    -1.854    4.006    4.611
    333    H    -1.940    5.063    4.854
    334    C    -1.735    3.566    3.352
    335    H    -1.702    4.242    2.500
    336    C    -1.800    1.770    5.451
    337    O    -1.788    0.996    6.420
    338    N    -1.698    1.301    4.186
    339    C    -1.656    2.158    3.151
    340    N    -1.532    1.670    1.919
    341    H    -1.466    0.679    1.782
    342    H    -1.451    2.263    1.116
    343    C    -0.727    3.670    7.818
    344    H    0.006    2.943    7.397
    345    O    -0.951    3.397    9.194
    346    H    -0.126    3.559    9.684
    347    C    -0.260    5.104    7.585
    348    H    0.143    5.218    6.556
    349    O    0.677    5.589    8.563
    350    H    1.514    5.095    8.492
 $END
