!*** FMO 5.3 (Gamess) INPUT generated by Facio 22.1.1.32 ***
 $CONTRL RUNTYP=ENERGY NPRINT=-5 ISPHER=1 MAXIT=200 $END
 $SYSTEM MWORDS=63 MEMDDI=63 $END
 $GDDI NGROUP=1 $END
 $SCF DIRSCF=.TRUE. NPUNCH=0 $END
!*** NumCPU : 2  MemPerNode : 512MB
 $PCM SOLVNT=WATER IEF=-10 ICOMP=2 ICAV=1 IDISP=1 IFMO=-1 $END
 $PCMCAV RADII=SUAHF $END
 $TESCAV NTSALL=60 $END
 $FMOPRP
    NAODIR=200
    NGRFMO(1)=1, 1, 0, 0, 0,   0, 0, 0, 0, 0
    IPIEDA=1
    NPRINT=9
 $END
 $FMO
      SCFTYP(1)=RHF
      MODGRD=10
      MODMUL=0
      MAXCAO=5
      MAXBND=13
      NLAYER=1
      MPLEVL(1)=2
      NFRAG=11
      ICHARG(1)=-1, -1, -1, -1, -1, -1, -1, -1, -1, -1, 0
      FRGNAM(1)=F1, F2, F3, F4, F5, F6, F7, F8, F9, F10, F11
      indat(1)=0
               1   -36   0
               37   -70   0
               71   -101   0
               102   -131   0
               132   -162   0
               163   -195   0
               196   -225   0
               226   -258   0
               259   -291   0
               292   -322   0
               323   -350   0
 $END

 $FMOBND
   -37   36       6-31G*    MINI
   -71   70       6-31G*    MINI
   -102   101       6-31G*    MINI
   -132   131       6-31G*    MINI
   -163   162       6-31G*    MINI
   -196   195       6-31G*    MINI
   -226   225       6-31G*    MINI
   -259   258       6-31G*    MINI
   -292   291       6-31G*    MINI
   -323   322       6-31G*    MINI
 $END
 $FMOHYB
 6-31G*      15   5
   1 0  -0.065034   0.288264   0.000000   0.000000   0.604412
         0.290129   0.000000   0.000000   0.319045  -0.017106
        -0.017106   0.057934   0.000000   0.000000   0.000000
   0 1  -0.065040   0.288293   0.569832   0.000000  -0.201456
         0.290147   0.300783   0.000000  -0.106342   0.049598
        -0.017106  -0.008771   0.000000  -0.027223   0.000000
   0 1  -0.065039   0.288293  -0.284916  -0.493490  -0.201455
         0.290145  -0.150392  -0.260486  -0.106340  -0.000427
         0.032923  -0.008771   0.033353   0.013612   0.023576
   0 1  -0.065039   0.288293  -0.284916   0.493490  -0.201455
         0.290145  -0.150392   0.260486  -0.106340  -0.000427
         0.032923  -0.008771  -0.033353   0.013612  -0.023576
   0 1   1.010938  -0.011975   0.000000   0.000000   0.000000
        -0.054085   0.000000   0.000000  -0.000000  -0.003174
        -0.003174  -0.003174   0.000000   0.000000   0.000000
 MINI         5   5
   1 0  -0.104883   0.308874   0.000000   0.000000   0.521806
   0 1  -0.104883   0.308874   0.491961   0.000000  -0.173934
   0 1  -0.104883   0.308876  -0.245980  -0.426050  -0.173933
   0 1  -0.104883   0.308876  -0.245980   0.426050  -0.173933
   0 1   0.988209   0.063992   0.000000   0.000000   0.000000
 $END
 
 $DATA
 FMO calculation
 C1 
 H.1-1    1
      N31 6
   
 O.1-1    8
      N31 6
      d 1
      1 0.800 1.0
   
 C.1-1    6
      N31 6
      d 1
      1 0.800 1.0
   
 N.1-1    7
      N31 6
      d 1
      1 0.800 1.0
   
 P.1-1   15
      N31 6
      d 1
      1 0.550 1.0
   
 $END
 $FMOXYZ
    1    H    -0.971    -9.183    -0.869
    2    O    -1.208    -8.687    -0.060
    3    C    -1.148    -9.610    1.036
    4    H    -0.116    -10.024    1.115
    5    H    -1.837    -10.458    0.835
    6    C    -1.539    -8.975    2.373
    7    H    -1.601    -9.746    3.168
    8    O    -0.519    -8.018    2.778
    9    C    -1.144    -6.942    3.464
    10    H    -0.673    -6.884    4.472
    11    N    -0.935    -5.666    2.770
    12    C    -1.123    -4.415    3.295
    13    N    -2.034    -2.349    5.927
    14    H    -2.276    -2.997    6.644
    15    H    -2.019    -1.370    6.143
    16    N    -1.543    -4.133    4.544
    17    C    -1.617    -2.821    4.766
    18    N    -1.264    -1.884    3.833
    19    H    -1.322    -0.911    4.093
    20    C    -0.821    -2.147    2.544
    21    O    -0.515    -1.237    1.767
    22    C    -0.770    -3.539    2.286
    23    N    -0.380    -4.224    1.140
    24    C    -0.499    -5.488    1.475
    25    H    -0.279    -6.344    0.832
    26    C    -2.610    -7.283    3.606
    27    H    -3.261    -6.387    3.598
    28    O    -2.818    -8.008    4.802
    29    H    -3.727    -8.330    4.769
    30    C    -2.841    -8.158    2.380
    31    H    -2.841    -7.537    1.454
    32    O    -3.986    -9.040    2.472
    33    P    -5.380    -8.527    1.941
    34    O    -6.349    -9.645    1.984
    35    O    -5.179    -7.871    0.636
    36    O    -5.799    -7.430    2.984
    37    C    -6.138    -7.794    4.343
    38    H    -5.322    -8.370    4.828
    39    H    -7.050    -8.431    4.358
    40    C    -6.415    -6.548    5.194
    41    H    -6.620    -6.821    6.251
    42    O    -5.256    -5.670    5.193
    43    C    -5.686    -4.317    5.182
    44    H    -5.266    -3.848    6.105
    45    N    -5.179    -3.598    4.005
    46    C    -5.145    -2.241    3.830
    47    N    -5.826    0.970    4.954
    48    H    -6.305    0.815    5.815
    49    H    -5.641    1.911    4.658
    50    N    -5.600    -1.320    4.697
    51    C    -5.415    -0.074    4.259
    52    N    -4.822    0.216    3.062
    53    H    -4.692    1.186    2.817
    54    C    -4.344    -0.710    2.149
    55    O    -3.834    -0.344    1.086
    56    C    -4.553    -2.042    2.597
    57    N    -4.242    -3.255    1.993
    58    C    -4.641    -4.150    2.867
    59    H    -4.587    -5.232    2.739
    60    C    -7.197    -4.312    5.263
    61    H    -7.653    -3.489    4.677
    62    O    -7.591    -4.202    6.614
    63    H    -8.520    -4.475    6.659
    64    C    -7.565    -5.676    4.687
    65    H    -7.487    -5.664    3.574
    66    O    -8.818    -6.209    5.165
    67    P    -10.124    -6.103    4.301
    68    O    -11.227    -6.755    5.042
    69    O    -9.823    -6.605    2.944
    70    O    -10.378    -4.567    4.225
    71    C    -10.729    -3.721    5.333
    72    H    -9.873    -3.586    6.023
    73    H    -11.550    -4.184    5.918
    74    C    -11.179    -2.326    4.881
    75    H    -11.652    -1.768    5.720
    76    O    -10.016    -1.552    4.462
    77    C    -10.261    -0.958    3.193
    78    H    -9.976    0.115    3.295
    79    N    -9.447    -1.576    2.106
    80    C    -8.845    -2.791    2.314
    81    H    -8.971    -3.210    3.303
    82    C    -8.111    -3.394    1.378
    83    H    -7.630    -4.355    1.547
    84    C    -9.264    -0.926    0.891
    85    O    -9.786    0.187    0.727
    86    N    -8.514    -1.515    -0.073
    87    C    -7.959    -2.722    0.139
    88    N    -7.231    -3.287    -0.818
    89    H    -7.118    -2.801    -1.684
    90    H    -6.788    -4.176    -0.702
    91    C    -11.757    -1.044    2.939
    92    H    -12.005    -1.117    1.858
    93    O    -12.409    0.076    3.507
    94    H    -13.352    -0.136    3.543
    95    C    -12.120    -2.330    3.670
    96    H    -11.840    -3.185    3.010
    97    O    -13.477    -2.401    4.141
    98    P    -14.465    -3.518    3.655
    99    O    -15.620    -3.568    4.583
    100    O    -13.757    -4.787    3.385
    101    O    -14.933    -2.938    2.286
    102    C    -15.381    -1.574    2.141
    103    H    -14.698    -0.845    2.630
    104    H    -16.388    -1.455    2.598
    105    C    -15.468    -1.204    0.668
    106    H    -16.016    -0.247    0.522
    107    O    -14.128    -1.021    0.151
    108    C    -14.069    -1.513    -1.168
    109    H    -13.777    -0.637    -1.795
    110    N    -13.063    -2.594    -1.305
    111    C    -12.556    -3.281    -0.225
    112    H    -12.974    -2.992    0.742
    113    C    -12.614    -2.839    -2.570
    114    O    -13.024    -2.197    -3.529
    115    N    -11.670    -3.819    -2.669
    116    H    -11.289    -3.915    -3.588
    117    C    -11.091    -4.537    -1.652
    118    O    -10.222    -5.374    -1.898
    119    C    -11.601    -4.217    -0.348
    120    H    -11.190    -4.738    0.514
    121    C    -15.472    -1.949    -1.568
    122    H    -15.457    -2.838    -2.232
    123    O    -16.153    -0.884    -2.197
    124    H    -17.019    -1.203    -2.471
    125    C    -16.097    -2.277    -0.221
    126    H    -15.728    -3.273    0.114
    127    O    -17.534    -2.156    -0.149
    128    P    -18.433    -3.413    -0.400
    129    O    -19.774    -2.934    -0.802
    130    O    -18.372    -4.305    0.777
    131    O    -17.742    -4.109    -1.625
    132    C    -17.316    -5.480    -1.611
    133    H    -18.046    -6.122    -1.064
    134    H    -16.329    -5.561    -1.104
    135    C    -17.188    -6.062    -3.029
    136    H    -16.990    -7.154    -2.956
    137    O    -18.435    -5.880    -3.764
    138    C    -18.219    -5.128    -4.944
    139    H    -18.245    -5.879    -5.767
    140    N    -19.278    -4.089    -5.125
    141    C    -19.504    -3.190    -4.113
    142    H    -18.883    -3.291    -3.238
    143    C    -20.446    -2.245    -4.198
    144    H    -20.646    -1.548    -3.387
    145    C    -19.985    -3.959    -6.318
    146    O    -19.717    -4.716    -7.266
    147    N    -20.970    -3.028    -6.418
    148    C    -21.207    -2.185    -5.396
    149    N    -22.188    -1.291    -5.505
    150    H    -22.743    -1.273    -6.341
    151    H    -22.426    -0.673    -4.758
    152    C    -16.837    -4.525    -4.874
    153    H    -16.893    -3.503    -4.440
    154    O    -16.246    -4.513    -6.162
    155    H    -15.278    -4.494    -6.080
    156    C    -16.082    -5.420    -3.888
    157    H    -15.514    -4.742    -3.206
    158    O    -15.232    -6.420    -4.505
    159    P    -13.708    -6.505    -4.088
    160    O    -13.159    -7.798    -4.561
    161    O    -13.596    -6.216    -2.643
    162    O    -13.064    -5.317    -4.903
    163    C    -12.398    -5.586    -6.157
    164    H    -12.949    -6.355    -6.756
    165    H    -11.368    -5.962    -5.968
    166    C    -12.297    -4.329    -7.025
    167    H    -11.751    -4.550    -7.970
    168    O    -13.642    -3.889    -7.365
    169    C    -13.624    -2.493    -7.592
    170    H    -13.844    -2.389    -8.677
    171    N    -14.663    -1.794    -6.841
    172    C    -16.369    -0.527    -6.287
    173    N    -16.076    -1.286    -5.178
    174    C    -15.050    -2.007    -5.547
    175    H    -14.576    -2.780    -4.942
    176    N    -17.357    1.052    -7.742
    177    C    -16.405    0.713    -8.620
    178    H    -16.438    1.251    -9.574
    179    N    -15.459    -0.229    -8.528
    180    C    -15.490    -0.807    -7.315
    181    C    -17.376    0.424    -6.538
    182    N    -18.339    0.720    -5.648
    183    H    -18.250    0.417    -4.699
    184    H    -18.938    1.501    -5.824
    185    C    -12.226    -1.996    -7.304
    186    H    -12.206    -1.013    -6.785
    187    O    -11.536    -1.930    -8.538
    188    H    -11.580    -1.009    -8.837
    189    C    -11.660    -3.086    -6.397
    190    H    -12.089    -3.014    -5.384
    191    O    -10.213    -3.183    -6.365
    192    P    -9.423    -2.117    -5.502
    193    O    -7.975    -2.436    -5.538
    194    O    -10.032    -2.090    -4.167
    195    O    -9.638    -0.729    -6.214
    196    C    -9.027    -0.477    -7.503
    197    H    -9.172    -1.330    -8.209
    198    H    -7.929    -0.363    -7.381
    199    C    -9.580    0.802    -8.163
    200    H    -9.342    0.813    -9.256
    201    O    -11.031    0.857    -8.037
    202    C    -11.448    2.172    -7.787
    203    H    -11.617    2.622    -8.791
    204    N    -12.672    2.168    -6.944
    205    C    -12.677    1.505    -5.733
    206    H    -11.764    0.946    -5.506
    207    C    -13.778    2.856    -7.382
    208    O    -13.806    3.457    -8.452
    209    N    -14.846    2.832    -6.525
    210    H    -15.668    3.327    -6.834
    211    C    -14.910    2.254    -5.276
    212    O    -15.918    2.393    -4.588
    213    C    -13.737    1.516    -4.907
    214    H    -13.739    0.985    -3.956
    215    C    -10.304    2.895    -7.110
    216    H    -10.421    2.831    -6.008
    217    O    -10.254    4.257    -7.508
    218    H    -9.360    4.587    -7.341
    219    C    -9.051    2.095    -7.524
    220    H    -8.551    1.781    -6.576
    221    O    -8.142    2.789    -8.413
    222    P    -6.581    2.576    -8.317
    223    O    -6.017    2.724    -9.673
    224    O    -6.281    1.320    -7.601
    225    O    -6.089    3.769    -7.434
    226    C    -5.777    5.054    -8.010
    227    H    -6.358    5.264    -8.939
    228    H    -4.695    5.094    -8.277
    229    C    -6.061    6.175    -7.015
    230    H    -5.749    7.163    -7.419
    231    O    -7.509    6.224    -6.740
    232    C    -7.693    6.510    -5.357
    233    H    -8.374    7.391    -5.268
    234    N    -8.244    5.355    -4.631
    235    C    -9.163    3.973    -3.188
    236    N    -8.683    3.195    -4.220
    237    C    -8.150    4.057    -5.034
    238    H    -7.707    3.810    -5.988
    239    N    -10.157    4.656    -1.161
    240    C    -9.795    5.897    -1.491
    241    H    -10.052    6.666    -0.754
    242    N    -9.151    6.330    -2.585
    243    C    -8.878    5.309    -3.411
    244    C    -9.863    3.645    -2.014
    245    N    -10.251    2.388    -1.739
    246    H    -9.995    1.626    -2.332
    247    H    -10.603    2.158    -0.835
    248    C    -6.339    6.856    -4.821
    249    H    -6.252    6.551    -3.766
    250    O    -6.058    8.229    -5.026
    251    H    -5.259    8.420    -4.518
    252    C    -5.416    5.978    -5.632
    253    H    -5.539    4.908    -5.347
    254    O    -4.027    6.389    -5.613
    255    P    -3.087    5.896    -4.433
    256    O    -1.702    6.296    -4.752
    257    O    -3.314    4.453    -4.217
    258    O    -3.549    6.650    -3.130
    259    C    -3.414    8.083    -2.989
    260    H    -3.472    8.604    -3.975
    261    H    -2.411    8.322    -2.568
    262    C    -4.501    8.700    -2.070
    263    H    -4.657    9.769    -2.335
    264    O    -5.775    8.032    -2.228
    265    C    -6.416    7.819    -0.996
    266    H    -7.461    8.182    -1.121
    267    N    -6.452    6.382    -0.643
    268    C    -6.875    4.465    0.363
    269    N    -6.190    4.149    -0.802
    270    C    -5.963    5.311    -1.359
    271    H    -5.425    5.451    -2.297
    272    N    -8.008    4.315    2.436
    273    C    -8.109    5.647    2.387
    274    H    -8.613    6.117    3.239
    275    N    -7.684    6.492    1.443
    276    C    -7.056    5.835    0.461
    277    C    -7.374    3.675    1.422
    278    N    -7.259    2.336    1.470
    279    H    -6.944    1.818    0.672
    280    H    -7.760    1.857    2.184
    281    C    -5.680    8.673    -0.005
    282    H    -5.723    8.271    1.026
    283    O    -6.216    9.984    -0.036
    284    H    -5.598    10.570    0.427
    285    C    -4.262    8.626    -0.574
    286    H    -3.813    7.624    -0.382
    287    O    -3.439    9.734    -0.175
    288    P    -2.033    9.466    0.454
    289    O    -1.374    10.769    0.681
    290    O    -1.306    8.466    -0.352
    291    O    -2.414    8.808    1.825
    292    C    -3.299    9.469    2.756
    293    H    -4.176    9.944    2.253
    294    H    -2.745    10.271    3.299
    295    C    -3.833    8.484    3.796
    296    H    -4.346    9.025    4.621
    297    O    -4.832    7.606    3.192
    298    C    -4.716    6.306    3.769
    299    H    -5.725    6.074    4.192
    300    N    -4.333    5.247    2.791
    301    C    -3.742    5.582    1.593
    302    H    -3.600    6.651    1.420
    303    C    -3.400    4.642    0.698
    304    H    -2.978    4.888    -0.275
    305    C    -4.518    3.904    3.116
    306    O    -5.008    3.607    4.219
    307    N    -4.165    2.947    2.232
    308    C    -3.648    3.279    1.039
    309    N    -3.355    2.305    0.181
    310    H    -3.530    1.354    0.457
    311    H    -3.019    2.479    -0.747
    312    C    -3.722    6.415    4.904
    313    H    -3.172    5.473    5.072
    314    O    -4.385    6.790    6.090
    315    H    -3.701    6.943    6.754
    316    C    -2.809    7.526    4.404
    317    H    -2.179    7.156    3.564
    318    O    -2.056    8.212    5.428
    319    P    -0.587    7.745    5.727
    320    O    0.102    8.783    6.524
    321    O    0.071    7.320    4.474
    322    O    -0.788    6.472    6.613
    323    C    -1.470    6.528    7.883
    324    H    -2.492    6.967    7.802
    325    H    -0.897    7.166    8.599
    326    C    -1.590    5.119    8.475
    327    H    -1.979    5.151    9.515
    328    O    -2.531    4.327    7.692
    329    C    -2.048    2.991    7.584
    330    H    -2.858    2.341    7.988
    331    N    -1.769    2.590    6.172
    332    C    -1.525    3.553    5.223
    333    H    -1.557    4.581    5.575
    334    C    -1.286    3.239    3.944
    335    H    -1.126    3.994    3.178
    336    C    -1.691    1.246    5.816
    337    O    -1.839    0.376    6.688
    338    N    -1.457    0.906    4.528
    339    C    -1.256    1.860    3.601
    340    N    -1.014    1.497    2.344
    341    H    -0.923    0.524    2.115
    342    H    -0.858    2.161    1.613
    343    C    -0.826    2.870    8.482
    344    H    -0.078    2.160    8.070
    345    O    -1.210    2.466    9.788
    346    H    -0.443    2.565    10.377
    347    C    -0.290    4.299    8.457
    348    H    0.251    4.482    7.502
    349    O    0.537    4.646    9.581
    350    H    1.379    4.154    9.539
 $END
