!*** FMO 5.2 (Gamess) INPUT generated by Facio 21.1.1.32 ***
 $CONTRL RUNTYP=OPTFMO NPRINT=-5 ISPHER=-1 MAXIT=50 $END
 $SYSTEM MWORDS=29 $END
 $GDDI NGROUP=1 $END
 $INTGRL NINTIC=-9000000 $END
 $SCF DIRSCF=.FALSE. NPUNCH=0 $END
!*** NumCPU : 2  MemPerNode : 512MB
 $FMOPRP
    NAODIR=210
    NGRFMO(1)=1, 1, 0, 0, 0,   0, 0, 0, 0, 0
    NPRINT=9
 $END
 $FMO
      SCFTYP(1)=RHF
      MODGRD=10
      MODMUL=0
      MAXCAO=5
      MAXBND=34
      NLAYER=1
      NFRAG=32
      ICHARG(1)=-1, -1, -1, -1, -1, -1, -1, -1, -1, -1, 
-1, -1, -1, -1, -1, -1, -1, -1, -1, -1, 
-1, -1, -1, -1, -1, -1, -1, -1, -1, -1, 
-1, 0
      FRGNAM(1)=Frag1, Frag2, Frag3, Frag4, Frag5, Frag6, Frag7, Frag8, Frag9, Frag10, Frag11, Frag12, Frag13, Frag14, Frag15, Frag16, Frag17, Frag18, Frag19, Frag20, Frag21, Frag22, Frag23, Frag24, Frag25, Frag26, Frag27, Frag28, Frag29, Frag30, Frag31, Frag32
      indat(1)=0
               1   -36   0
               37   -69   0
               70   -103   0
               104   -134   0
               135   -167   0
               168   -201   0
               202   -231   0
               232   -261   0
               262   -292   0
               293   -323   0
               324   -354   0
               355   -385   0
               386   -415   0
               416   -449   0
               450   -480   0
               481   -513   0
               514   -543   0
               544   -576   0
               577   -609   0
               610   -643   0
               644   -677   0
               678   -710   0
               711   -740   0
               741   -774   0
               775   -807   0
               808   -840   0
               841   -871   0
               872   -902   0
               903   -936   0
               937   -966   0
               967   -996   0
               997   -1024   0
 $END

 $FMOBND
   -37   36       3-21G    MINI
   -70   69       3-21G    MINI
   -104   103       3-21G    MINI
   -135   134       3-21G    MINI
   -168   167       3-21G    MINI
   -202   201       3-21G    MINI
   -232   231       3-21G    MINI
   -262   261       3-21G    MINI
   -293   292       3-21G    MINI
   -324   323       3-21G    MINI
   -355   354       3-21G    MINI
   -386   385       3-21G    MINI
   -416   415       3-21G    MINI
   -450   449       3-21G    MINI
   -481   480       3-21G    MINI
   -514   513       3-21G    MINI
   -544   543       3-21G    MINI
   -577   576       3-21G    MINI
   -610   609       3-21G    MINI
   -644   643       3-21G    MINI
   -678   677       3-21G    MINI
   -711   710       3-21G    MINI
   -741   740       3-21G    MINI
   -775   774       3-21G    MINI
   -808   807       3-21G    MINI
   -841   840       3-21G    MINI
   -872   871       3-21G    MINI
   -903   902       3-21G    MINI
   -937   936       3-21G    MINI
   -967   966       3-21G    MINI
   -997   996       3-21G    MINI
 $END
 $FMOHYB
 3-21G        9   5
   1 0  -0.070459   0.164841   0.000000   0.000000   0.502116
         0.466939   0.000000   0.000000   0.418036
   0 1  -0.070465   0.164857   0.473392   0.000000  -0.167359
         0.466967   0.394111   0.000000  -0.139327
   0 1  -0.070465   0.164857  -0.236695  -0.409969  -0.167359
         0.466967  -0.197055  -0.341311  -0.139327
   0 1  -0.070465   0.164857  -0.236695   0.409969  -0.167359
         0.466967  -0.197055   0.341311  -0.139327
   0 1   1.006716   0.074826   0.000000   0.000000   0.000000
        -0.143830   0.000000   0.000000  -0.000003
 MINI         5   5
   1 0  -0.104883   0.308874   0.000000   0.000000   0.521806
   0 1  -0.104883   0.308874   0.491961   0.000000  -0.173934
   0 1  -0.104883   0.308876  -0.245980  -0.426050  -0.173933
   0 1  -0.104883   0.308876  -0.245980   0.426050  -0.173933
   0 1   0.988209   0.063992   0.000000   0.000000   0.000000
 $END

 $DATA
 FMO calculation : XXNAMEXX
 C1 
 C.1-1    6
      N21 3
   
 O.1-1    8
      N21 3
   
 N.1-1    7
      N21 3
   
 H.1-1    1
      N21 3
   
 P.1-1   15
      N21 3
   
 $END
 $FMOXYZ
    1    H    6.428    -22.148    6.582
    2    O    6.227    -21.841    5.652
    3    C    7.446    -21.803    4.899
    4    H    7.801    -22.733    4.808
    5    H    8.049    -21.107    5.290
    6    C    7.213    -21.342    3.465
    7    H    8.104    -21.237    3.022
    8    O    6.473    -22.334    2.781
    9    C    5.927    -21.715    1.602
    10    H    6.552    -21.919    0.848
    11    N    4.594    -22.311    1.329
    12    C    3.926    -22.317    0.122
    13    N    3.815    -21.543    -3.263
    14    H    3.234    -21.598    -4.087
    15    H    4.725    -21.121    -3.381
    16    N    4.392    -21.821    -1.049
    17    C    3.512    -21.965    -2.043
    18    N    2.280    -22.548    -1.896
    19    H    1.681    -22.608    -2.732
    20    C    1.777    -23.061    -0.716
    21    O    0.655    -23.560    -0.695
    22    C    2.705    -22.915    0.354
    23    N    2.595    -23.295    1.689
    24    C    3.728    -22.918    2.197
    25    H    3.745    -23.157    3.168
    26    C    5.940    -20.203    1.866
    27    H    4.989    -19.894    1.837
    28    O    6.753    -19.523    0.904
    29    H    6.791    -19.938    0.039
    30    C    6.480    -20.015    3.282
    31    H    5.719    -19.971    3.930
    32    O    7.375    -18.883    3.404
    33    P    6.919    -17.365    3.767
    34    O    8.142    -16.535    3.834
    35    O    5.999    -17.334    4.934
    36    O    6.108    -16.848    2.474
    37    C    6.782    -16.657    1.229
    38    H    7.305    -17.482    1.012
    39    H    7.271    -15.785    1.254
    40    C    5.790    -16.514    0.091
    41    H    6.423    -16.449    -0.680
    42    O    4.985    -17.703    -0.060
    43    C    3.882    -17.311    -0.891
    44    H    4.153    -17.485    -1.838
    45    N    2.740    -18.188    -0.534
    46    C    0.916    -19.419    -0.642
    47    N    1.257    -19.350    0.706
    48    C    2.331    -18.618    0.699
    49    H    2.658    -18.511    1.638
    50    N    -0.178    -19.913    -2.655
    51    C    0.756    -19.204    -3.290
    52    H    0.776    -19.069    -4.281
    53    N    1.793    -18.570    -2.745
    54    C    1.811    -18.721    -1.404
    55    C    -0.133    -20.046    -1.319
    56    N    -1.070    -20.759    -0.701
    57    H    -1.800    -21.189    -1.251
    58    H    -1.030    -20.855    0.304
    59    C    3.709    -15.793    -0.690
    60    H    2.925    -15.682    -0.079
    61    O    3.593    -15.119    -1.942
    62    H    3.190    -15.635    -2.644
    63    C    4.958    -15.256    0.002
    64    H    4.723    -14.955    0.926
    65    O    5.777    -14.328    -0.746
    66    P    5.224    -12.913    -1.280
    67    O    6.367    -12.253    -1.940
    68    O    4.648    -12.162    -0.138
    69    O    4.084    -13.138    -2.424
    70    C    4.298    -13.181    -3.849
    71    H    4.923    -13.932    -4.062
    72    H    4.540    -12.265    -4.170
    73    C    3.013    -13.525    -4.598
    74    H    3.257    -13.716    -5.549
    75    O    2.466    -14.706    -4.012
    76    C    1.114    -14.870    -4.473
    77    H    1.112    -15.500    -5.249
    78    N    0.318    -15.390    -3.338
    79    C    -0.991    -15.807    -3.392
    80    N    -3.893    -16.393    -5.207
    81    H    -4.846    -16.716    -5.124
    82    H    -3.589    -16.119    -6.131
    83    N    -1.771    -15.843    -4.499
    84    C    -2.998    -16.289    -4.235
    85    N    -3.422    -16.672    -2.988
    86    H    -4.392    -17.007    -2.899
    87    C    -2.651    -16.644    -1.842
    88    O    -3.133    -17.007    -0.773
    89    C    -1.337    -16.167    -2.107
    90    N    -0.258    -15.985    -1.245
    91    C    0.673    -15.530    -2.027
    92    H    1.499    -15.366    -1.488
    93    C    0.772    -13.455    -4.975
    94    H    -0.049    -13.186    -4.472
    95    O    0.714    -13.412    -6.404
    96    H    0.433    -14.229    -6.823
    97    C    1.897    -12.502    -4.628
    98    H    1.774    -12.127    -3.709
    99    O    2.094    -11.659    -5.774
    100    P    1.124    -10.413    -6.076
    101    O    1.506    -9.797    -7.371
    102    O    1.359    -9.530    -4.918
    103    O    -0.462    -10.817    -6.100
    104    C    -1.266    -10.939    -7.290
    105    H    -0.907    -11.686    -7.850
    106    H    -1.359    -10.038    -7.714
    107    C    -2.702    -11.358    -6.977
    108    H    -3.161    -11.501    -7.854
    109    O    -2.716    -12.579    -6.241
    110    C    -3.948    -12.630    -5.504
    111    H    -4.521    -13.310    -5.963
    112    N    -3.615    -13.005    -4.116
    113    C    -2.381    -12.751    -3.592
    114    H    -1.568    -12.349    -4.014
    115    C    -2.106    -13.050    -2.311
    116    H    -1.288    -12.952    -1.744
    117    C    -4.621    -13.577    -3.354
    118    O    -5.719    -13.809    -3.851
    119    N    -4.352    -13.879    -2.056
    120    C    -3.147    -13.633    -1.529
    121    N    -2.924    -13.909    -0.249
    122    H    -3.673    -14.301    0.303
    123    H    -2.021    -13.731    0.167
    124    C    -4.621    -11.255    -5.612
    125    H    -4.831    -10.939    -4.687
    126    O    -5.708    -11.260    -6.547
    127    H    -6.218    -12.073    -6.572
    128    C    -3.542    -10.369    -6.204
    129    H    -2.994    -9.989    -5.459
    130    O    -4.184    -9.689    -7.290
    131    P    -5.443    -8.724    -7.064
    132    O    -6.007    -8.140    -8.316
    133    O    -4.639    -7.752    -6.368
    134    O    -6.585    -9.073    -5.942
    135    C    -7.981    -9.251    -6.255
    136    H    -8.096    -10.111    -6.752
    137    H    -8.329    -8.415    -6.679
    138    C    -8.850    -9.424    -5.011
    139    H    -9.780    -9.623    -5.319
    140    O    -8.368    -10.544    -4.189
    141    C    -8.847    -10.304    -2.854
    142    H    -9.603    -10.942    -2.703
    143    N    -7.715    -10.546    -1.936
    144    C    -6.518    -11.045    -0.165
    145    N    -5.608    -10.801    -1.191
    146    C    -6.373    -10.512    -2.200
    147    H    -5.801    -10.316    -2.996
    148    N    -7.464    -11.562    1.914
    149    C    -8.666    -11.381    1.368
    150    H    -9.526    -11.484    1.868
    151    N    -8.934    -11.044    0.109
    152    C    -7.801    -10.890    -0.606
    153    C    -6.356    -11.403    1.176
    154    N    -5.166    -11.590    1.738
    155    H    -5.120    -11.849    2.713
    156    H    -4.335    -11.469    1.177
    157    C    -9.388    -8.872    -2.816
    158    H    -8.946    -8.415    -2.044
    159    O    -10.818    -8.845    -2.818
    160    H    -11.238    -9.582    -2.369
    161    C    -8.943    -8.210    -4.102
    162    H    -8.029    -7.823    -3.981
    163    O    -10.033    -7.351    -4.444
    164    P    -9.981    -5.846    -3.881
    165    O    -11.179    -5.128    -4.363
    166    O    -8.626    -5.326    -4.199
    167    O    -10.098    -5.998    -2.273
    168    C    -11.315    -6.045    -1.501
    169    H    -11.890    -6.787    -1.845
    170    H    -11.709    -5.127    -1.459
    171    C    -11.099    -6.411    -0.030
    172    H    -11.935    -6.739    0.410
    173    O    -10.136    -7.456    -0.031
    174    C    -9.554    -7.559    1.282
    175    H    -9.969    -8.344    1.742
    176    N    -8.090    -7.737    1.145
    177    C    -7.199    -7.985    2.167
    178    N    -6.547    -8.500    5.540
    179    H    -5.806    -8.681    6.202
    180    H    -7.480    -8.423    5.919
    181    N    -7.506    -8.116    3.479
    182    C    -6.427    -8.353    4.229
    183    N    -5.155    -8.453    3.728
    184    H    -4.395    -8.637    4.398
    185    C    -4.812    -8.326    2.393
    186    O    -3.640    -8.444    2.047
    187    C    -5.954    -8.071    1.583
    188    N    -6.047    -7.879    0.207
    189    C    -7.317    -7.690    0.020
    190    H    -7.484    -7.541    -0.955
    191    C    -9.997    -6.275    1.989
    192    H    -9.190    -5.876    2.425
    193    O    -11.055    -6.525    2.922
    194    H    -11.030    -7.388    3.342
    195    C    -10.464    -5.352    0.871
    196    H    -9.680    -4.950    0.398
    197    O    -11.358    -4.360    1.426
    198    P    -10.862    -2.881    1.871
    199    O    -12.046    -2.076    2.260
    200    O    -9.939    -2.365    0.826
    201    O    -9.987    -3.138    3.205
    202    C    -10.567    -3.343    4.502
    203    H    -11.175    -4.136    4.465
    204    H    -10.945    -2.477    4.830
    205    C    -9.512    -3.718    5.544
    206    H    -9.952    -3.967    6.407
    207    O    -8.781    -4.823    5.066
    208    C    -7.458    -4.820    5.639
    209    H    -7.378    -5.626    6.226
    210    N    -6.479    -4.819    4.527
    211    C    -6.854    -4.437    3.268
    212    H    -7.749    -4.143    2.932
    213    C    -5.179    -5.201    4.806
    214    O    -4.817    -5.546    5.925
    215    N    -4.300    -5.168    3.744
    216    H    -3.326    -5.447    3.932
    217    C    -4.595    -4.797    2.449
    218    O    -3.725    -4.804    1.585
    219    C    -5.971    -4.414    2.245
    220    H    -6.099    -4.159    1.287
    221    C    -7.421    -3.569    6.506
    222    H    -6.516    -3.152    6.421
    223    O    -7.792    -3.837    7.863
    224    H    -7.524    -4.697    8.194
    225    C    -8.444    -2.666    5.846
    226    H    -8.086    -2.308    4.983
    227    O    -8.818    -1.674    6.813
    228    P    -8.051    -0.251    6.865
    229    O    -8.676    0.573    7.924
    230    O    -7.943    0.271    5.480
    231    O    -6.562    -0.641    7.351
    232    C    -6.248    -0.979    8.709
    233    H    -6.798    -1.768    8.984
    234    H    -6.300    -0.153    9.270
    235    C    -4.807    -1.456    8.896
    236    H    -4.649    -1.796    9.823
    237    O    -4.493    -2.475    7.974
    238    C    -3.068    -2.493    7.736
    239    H    -2.704    -3.308    8.187
    240    N    -2.879    -2.491    6.269
    241    C    -3.892    -2.102    5.434
    242    H    -4.818    -1.796    5.653
    243    C    -1.648    -2.883    5.778
    244    O    -0.730    -3.238    6.510
    245    N    -1.511    -2.859    4.408
    246    H    -0.601    -3.149    4.022
    247    C    -2.475    -2.484    3.496
    248    O    -2.232    -2.497    2.295
    249    C    -3.730    -2.090    4.092
    250    H    -4.370    -1.838    3.366
    251    C    -2.509    -1.249    8.429
    252    H    -1.876    -0.784    7.810
    253    O    -1.944    -1.542    9.709
    254    H    -1.489    -2.385    9.768
    255    C    -3.764    -0.406    8.577
    256    H    -3.981    0.011    7.694
    257    O    -3.600    0.447    9.708
    258    P    -3.007    1.919    9.479
    259    O    -2.938    2.569    10.807
    260    O    -3.760    2.523    8.357
    261    O    -1.523    1.581    8.960
    262    C    -0.560    0.932    9.804
    263    H    -0.918    0.040    10.080
    264    H    -0.277    1.567    10.523
    265    C    0.735    0.601    9.072
    266    H    1.419    0.108    9.610
    267    O    0.427    -0.164    7.889
    268    C    1.501    -0.074    6.933
    269    H    2.042    -0.914    6.974
    270    N    0.892    0.143    5.600
    271    C    -0.382    0.616    5.477
    272    H    -1.051    0.864    6.178
    273    C    -0.924    0.818    4.263
    274    H    -1.817    1.148    3.958
    275    C    1.667    -0.142    4.485
    276    O    2.816    -0.561    4.618
    277    N    1.127    0.060    3.254
    278    C    -0.122    0.524    3.120
    279    N    -0.617    0.717    1.903
    280    H    -0.038    0.509    1.102
    281    H    -1.556    1.066    1.778
    282    C    2.333    1.084    7.497
    283    H    2.578    1.688    6.738
    284    O    3.492    0.616    8.199
    285    H    3.875    -0.194    7.854
    286    C    1.365    1.815    8.421
    287    H    0.669    2.297    7.888
    288    O    2.005    2.630    9.411
    289    P    2.215    4.217    9.254
    290    O    3.035    4.683    10.400
    291    O    0.890    4.814    8.976
    292    O    3.073    4.272    7.898
    293    C    4.284    3.513    7.850
    294    H    4.090    2.573    8.130
    295    H    5.000    4.010    8.341
    296    C    4.790    3.402    6.424
    297    H    5.649    2.900    6.320
    298    O    3.785    2.766    5.645
    299    C    3.911    3.212    4.281
    300    H    4.175    2.427    3.721
    301    N    2.597    3.773    3.883
    302    C    1.679    4.133    4.828
    303    H    1.731    4.091    5.826
    304    C    0.484    4.634    4.473
    305    H    -0.308    4.950    4.995
    306    C    2.326    3.915    2.526
    307    O    3.167    3.595    1.691
    308    N    1.114    4.422    2.159
    309    C    0.209    4.777    3.080
    310    N    -0.966    5.263    2.694
    311    H    -1.155    5.356    1.706
    312    H    -1.660    5.536    3.375
    313    C    5.075    4.205    4.327
    314    H    4.906    4.944    3.674
    315    O    6.329    3.555    4.092
    316    H    6.299    2.833    3.460
    317    C    4.931    4.751    5.742
    318    H    4.077    5.261    5.849
    319    O    6.084    5.442    6.253
    320    P    6.367    7.026    6.140
    321    O    7.695    7.291    6.748
    322    O    5.182    7.785    6.599
    323    O    6.487    7.216    4.556
    324    C    7.435    6.376    3.903
    325    H    7.270    5.427    4.173
    326    H    8.352    6.750    4.043
    327    C    7.220    6.405    2.406
    328    H    7.941    5.887    1.945
    329    O    5.946    5.915    1.976
    330    C    5.627    6.621    0.765
    331    H    5.607    5.938    0.035
    332    N    4.335    7.284    1.038
    333    C    3.930    7.535    2.317
    334    H    4.391    7.368    3.188
    335    C    2.732    8.097    2.557
    336    H    2.251    8.358    3.394
    337    C    3.539    7.601    -0.054
    338    O    3.936    7.375    -1.194
    339    N    2.324    8.171    0.180
    340    C    1.914    8.419    1.432
    341    N    0.723    8.979    1.626
    342    H    0.153    9.205    0.823
    343    H    0.392    9.176    2.560
    344    C    6.764    7.604    0.495
    345    H    6.388    8.467    0.157
    346    O    7.782    7.063    -0.352
    347    H    7.463    6.490    -1.053
    348    C    7.283    7.810    1.903
    349    H    6.638    8.371    2.422
    350    O    8.693    7.934    1.811
    351    P    9.243    9.333    1.357
    352    O    10.681    9.060    1.192
    353    O    8.611    10.249    2.344
    354    O    8.536    9.483    -0.086
    355    C    8.957    8.846    -1.311
    356    H    8.794    7.862    -1.239
    357    H    9.882    9.152    -1.536
    358    C    8.126    9.267    -2.526
    359    H    8.367    8.801    -3.378
    360    O    6.726    9.100    -2.284
    361    C    6.003    10.081    -3.051
    362    H    5.566    9.588    -3.803
    363    N    5.057    10.722    -2.115
    364    C    5.272    10.671    -0.770
    365    H    6.029    10.277    -0.249
    366    C    4.386    11.206    0.084
    367    H    4.349    11.273    1.081
    368    C    3.932    11.333    -2.650
    369    O    3.770    11.377    -3.868
    370    N    3.029    11.878    -1.790
    371    C    3.227    11.828    -0.467
    372    N    2.325    12.360    0.349
    373    H    1.504    12.794    -0.048
    374    H    2.456    12.333    1.350
    375    C    7.027    11.057    -3.625
    376    H    6.722    11.995    -3.459
    377    O    7.358    10.790    -4.991
    378    H    6.625    10.491    -5.535
    379    C    8.223    10.761    -2.737
    380    H    8.089    11.223    -1.860
    381    O    9.424    11.008    -3.447
    382    P    10.158    12.364    -3.059
    383    O    11.452    12.371    -3.770
    384    O    10.077    12.461    -1.587
    385    O    9.114    13.387    -3.725
    386    C    8.842    13.272    -5.127
    387    H    8.509    12.349    -5.319
    388    H    9.634    13.601    -5.640
    389    C    7.706    14.178    -5.573
    390    H    7.498    14.177    -6.551
    391    O    6.540    13.845    -4.855
    392    C    5.685    15.007    -4.863
    393    H    4.981    14.836    -5.553
    394    N    5.061    15.124    -3.523
    395    C    5.634    14.537    -2.426
    396    H    6.457    13.973    -2.367
    397    C    3.896    15.860    -3.408
    398    O    3.354    16.393    -4.371
    399    N    3.372    15.980    -2.136
    400    H    2.510    16.534    -2.033
    401    C    3.890    15.429    -0.983
    402    O    3.329    15.597    0.097
    403    C    5.101    14.668    -1.190
    404    H    5.412    14.306    -0.311
    405    C    6.537    16.202    -5.304
    406    H    6.415    16.958    -4.661
    407    O    6.161    16.643    -6.621
    408    H    5.227    16.557    -6.826
    409    C    7.946    15.609    -5.119
    410    H    8.182    15.607    -4.147
    411    O    9.078    16.234    -5.774
    412    P    10.281    17.056    -5.068
    413    O    11.192    17.601    -6.130
    414    O    10.765    16.174    -3.985
    415    O    9.442    18.255    -4.395
    416    C    8.731    19.128    -5.273
    417    H    8.171    18.580    -5.894
    418    H    9.374    19.780    -5.675
    419    C    7.745    19.970    -4.472
    420    H    7.313    20.689    -5.017
    421    O    6.739    19.101    -3.973
    422    C    6.196    19.662    -2.756
    423    H    5.240    19.892    -2.938
    424    N    6.322    18.669    -1.665
    425    C    5.567    18.611    -0.511
    426    N    2.948    19.792    1.444
    427    H    2.468    19.655    2.322
    428    H    2.595    20.527    0.847
    429    N    4.521    19.410    -0.200
    430    C    3.991    19.111    0.990
    431    N    4.457    18.108    1.802
    432    H    3.975    17.963    2.700
    433    C    5.522    17.278    1.509
    434    O    5.857    16.413    2.309
    435    C    6.092    17.586    0.245
    436    N    7.164    16.996    -0.417
    437    C    7.241    17.672    -1.519
    438    H    7.994    17.312    -2.070
    439    C    6.975    20.945    -2.506
    440    H    7.132    21.056    -1.525
    441    O    6.280    22.087    -3.037
    442    H    5.323    22.042    -2.978
    443    C    8.305    20.596    -3.188
    444    H    8.788    19.893    -2.667
    445    O    9.264    21.672    -3.303
    446    P    10.519    21.939    -2.323
    447    O    11.209    23.174    -2.798
    448    O    11.238    20.643    -2.314
    449    O    9.819    22.189    -0.891
    450    C    10.640    22.128    0.272
    451    H    11.303    22.876    0.242
    452    H    10.988    21.196    0.376
    453    C    9.808    22.384    1.524
    454    H    10.356    22.161    2.330
    455    O    9.461    23.765    1.567
    456    C    8.037    23.933    1.449
    457    H    7.757    24.498    2.225
    458    N    7.767    24.602    0.154
    459    C    8.133    24.020    -1.027
    460    H    8.579    23.142    -1.202
    461    C    7.905    24.636    -2.200
    462    H    8.092    24.389    -3.151
    463    C    7.145    25.844    0.179
    464    O    6.818    26.350    1.249
    465    N    6.911    26.474    -1.007
    466    C    7.268    25.910    -2.168
    467    N    7.030    26.555    -3.307
    468    H    6.583    27.460    -3.271
    469    H    7.291    26.148    -4.194
    470    C    7.384    22.553    1.576
    471    H    6.863    22.394    0.737
    472    O    6.580    22.438    2.754
    473    H    6.164    23.254    3.042
    474    C    8.532    21.555    1.643
    475    H    8.455    20.960    0.843
    476    O    8.494    20.861    2.902
    477    P    7.332    19.776    3.218
    478    O    7.830    18.858    4.268
    479    O    6.846    19.214    1.935
    480    O    6.133    20.662    3.860
    481    C    6.220    21.309    5.151
    482    H    6.926    22.016    5.114
    483    H    6.295    20.609    5.861
    484    C    4.956    22.089    5.552
    485    H    5.022    22.411    6.496
    486    O    4.874    23.218    4.680
    487    C    3.574    23.298    4.090
    488    H    3.090    24.021    4.583
    489    N    3.710    23.632    2.658
    490    C    3.627    24.699    0.741
    491    N    4.371    23.543    0.511
    492    C    4.375    22.964    1.672
    493    H    4.887    22.108    1.607
    494    N    2.507    26.735    0.458
    495    C    2.165    26.680    1.744
    496    H    1.614    27.376    2.204
    497    N    2.479    25.728    2.619
    498    C    3.218    24.758    2.042
    499    C    3.246    25.757    -0.087
    500    N    3.616    25.851    -1.361
    501    H    3.332    26.660    -1.895
    502    H    4.172    25.111    -1.765
    503    C    2.864    21.981    4.325
    504    H    2.966    21.434    3.494
    505    O    1.508    22.187    4.722
    506    H    1.088    22.962    4.342
    507    C    3.627    21.308    5.458
    508    H    3.821    20.368    5.178
    509    O    2.843    21.398    6.666
    510    P    1.384    20.707    6.857
    511    O    1.207    20.422    8.303
    512    O    1.256    19.596    5.881
    513    O    0.319    21.855    6.453
    514    C    -0.815    22.141    7.290
    515    H    -0.491    22.404    8.199
    516    H    -1.466    21.385    7.225
    517    C    -1.586    23.364    6.783
    518    H    -2.433    23.438    7.310
    519    O    -0.799    24.545    6.995
    520    C    -0.648    25.248    5.755
    521    H    -1.359    25.951    5.727
    522    N    0.709    25.878    5.716
    523    C    1.745    25.339    6.441
    524    H    1.749    24.546    7.051
    525    C    0.908    27.004    4.918
    526    O    0.020    27.516    4.248
    527    N    2.186    27.523    4.910
    528    H    2.347    28.357    4.328
    529    C    3.273    27.038    5.604
    530    O    4.368    27.583    5.505
    531    C    2.989    25.873    6.405
    532    H    3.826    25.587    6.871
    533    C    -0.918    24.219    4.648
    534    H    -0.096    23.669    4.501
    535    O    -1.417    24.853    3.462
    536    H    -1.033    25.712    3.269
    537    C    -1.988    23.348    5.313
    538    H    -1.899    22.416    4.961
    539    O    -3.246    24.005    5.109
    540    P    -4.215    23.461    3.941
    541    O    -5.518    24.148    4.079
    542    O    -4.161    21.980    3.945
    543    O    -3.513    23.996    2.584
    544    C    -3.553    25.370    2.148
    545    H    -3.024    25.930    2.786
    546    H    -4.503    25.629    1.974
    547    C    -2.856    25.587    0.799
    548    H    -2.940    26.537    0.497
    549    O    -1.451    25.244    0.890
    550    C    -0.984    25.060    -0.448
    551    H    -0.568    25.927    -0.722
    552    N    -0.003    23.963    -0.454
    553    C    1.659    22.650    -1.017
    554    N    1.187    22.175    0.206
    555    C    0.213    22.990    0.480
    556    H    -0.195    22.727    1.354
    557    N    2.884    22.926    -2.994
    558    C    2.109    23.970    -3.282
    559    H    2.204    24.525    -4.108
    560    N    1.108    24.447    -2.555
    561    C    0.938    23.733    -1.425
    562    C    2.690    22.233    -1.862
    563    N    3.472    21.196    -1.596
    564    H    4.199    20.949    -2.253
    565    H    3.323    20.677    -0.743
    566    C    -2.202    24.788    -1.337
    567    H    -2.076    23.904    -1.787
    568    O    -2.433    25.856    -2.267
    569    H    -1.640    26.287    -2.594
    570    C    -3.341    24.672    -0.321
    571    H    -3.378    23.732    0.019
    572    O    -4.526    25.116    -0.994
    573    P    -5.542    24.023    -1.606
    574    O    -6.668    24.743    -2.248
    575    O    -5.786    23.022    -0.541
    576    O    -4.668    23.295    -2.752
    577    C    -4.399    23.877    -4.030
    578    H    -3.832    24.691    -3.904
    579    H    -5.259    23.978    -4.530
    580    C    -3.552    22.953    -4.909
    581    H    -3.468    23.373    -5.813
    582    O    -2.244    22.909    -4.285
    583    C    -1.588    21.678    -4.664
    584    H    -0.755    21.940    -5.152
    585    N    -1.182    20.915    -3.461
    586    C    -0.272    19.430    -2.101
    587    N    -1.251    20.088    -1.362
    588    C    -1.737    20.935    -2.215
    589    H    -2.460    21.465    -1.772
    590    N    1.455    17.979    -2.740
    591    C    1.417    18.538    -3.951
    592    H    2.011    18.269    -4.709
    593    N    0.613    19.518    -4.358
    594    C    -0.220    19.926    -3.375
    595    C    0.621    18.402    -1.777
    596    N    0.684    17.851    -0.567
    597    H    1.361    17.122    -0.396
    598    H    0.053    18.175    0.152
    599    C    -2.525    20.933    -5.634
    600    H    -2.471    19.947    -5.479
    601    O    -2.144    21.276    -6.976
    602    H    -1.199    21.364    -7.119
    603    C    -3.887    21.459    -5.089
    604    H    -4.068    21.055    -4.192
    605    O    -5.243    21.099    -5.524
    606    P    -6.237    19.799    -5.358
    607    O    -7.405    19.954    -6.297
    608    O    -6.401    19.702    -3.901
    609    O    -5.385    18.514    -5.846
    610    C    -4.947    18.445    -7.188
    611    H    -4.369    19.237    -7.383
    612    H    -5.736    18.284    -7.780
    613    C    -4.073    17.220    -7.257
    614    H    -3.804    17.246    -8.220
    615    O    -2.946    17.572    -6.449
    616    C    -2.177    16.376    -6.246
    617    H    -1.300    16.514    -6.707
    618    N    -1.869    16.160    -4.808
    619    C    -0.922    15.304    -4.270
    620    N    1.690    13.034    -4.683