!*** FMO 5.3 (Gamess) INPUT generated by Facio 22.1.1.32 ***
 $CONTRL RUNTYP=ENERGY NPRINT=-5 ISPHER=1 MAXIT=200 $END
 $SYSTEM MWORDS=63 MEMDDI=63 $END
 $GDDI NGROUP=1 $END
 $SCF DIRSCF=.TRUE. NPUNCH=0 $END
!*** NumCPU : 2  MemPerNode : 512MB
 $PCM SOLVNT=WATER IEF=-10 ICOMP=2 ICAV=1 IDISP=1 IFMO=-1 $END
 $PCMCAV RADII=SUAHF $END
 $TESCAV NTSALL=60 $END
 $FMOPRP
    NAODIR=200
    NGRFMO(1)=1, 1, 0, 0, 0,   0, 0, 0, 0, 0
    IPIEDA=1
    NPRINT=9
 $END
 $FMO
      SCFTYP(1)=RHF
      MODGRD=10
      MODMUL=0
      MAXCAO=5
      MAXBND=13
      NLAYER=1
      MPLEVL(1)=2
      NFRAG=11
      ICHARG(1)=-1, -1, -1, -1, 0, -1, -1, -1, -1, -1, 0
      FRGNAM(1)=F1, F2, F3, F4, F5, F6, F7, F8, F9, F10, F11
      indat(1)=0
               1   -35   0
               36   -66   0
               67   -100   0
               101   -134   0
               135   -166   0
               167   -196   0
               197   -227   0
               228   -260   0
               261   -293   0
               294   -327   0
               328   -354   0
 $END

 $FMOBND
   -36   35       6-31G*    MINI
   -67   66       6-31G*    MINI
   -101   100       6-31G*    MINI
   -135   134       6-31G*    MINI
   -167   166       6-31G*    MINI
   -197   196       6-31G*    MINI
   -228   227       6-31G*    MINI
   -261   260       6-31G*    MINI
   -294   293       6-31G*    MINI
   -328   327       6-31G*    MINI
 $END
 $FMOHYB
 6-31G*      15   5
   1 0  -0.065034   0.288264   0.000000   0.000000   0.604412
         0.290129   0.000000   0.000000   0.319045  -0.017106
        -0.017106   0.057934   0.000000   0.000000   0.000000
   0 1  -0.065040   0.288293   0.569832   0.000000  -0.201456
         0.290147   0.300783   0.000000  -0.106342   0.049598
        -0.017106  -0.008771   0.000000  -0.027223   0.000000
   0 1  -0.065039   0.288293  -0.284916  -0.493490  -0.201455
         0.290145  -0.150392  -0.260486  -0.106340  -0.000427
         0.032923  -0.008771   0.033353   0.013612   0.023576
   0 1  -0.065039   0.288293  -0.284916   0.493490  -0.201455
         0.290145  -0.150392   0.260486  -0.106340  -0.000427
         0.032923  -0.008771  -0.033353   0.013612  -0.023576
   0 1   1.010938  -0.011975   0.000000   0.000000   0.000000
        -0.054085   0.000000   0.000000  -0.000000  -0.003174
        -0.003174  -0.003174   0.000000   0.000000   0.000000
 MINI         5   5
   1 0  -0.104883   0.308874   0.000000   0.000000   0.521806
   0 1  -0.104883   0.308874   0.491961   0.000000  -0.173934
   0 1  -0.104883   0.308876  -0.245980  -0.426050  -0.173933
   0 1  -0.104883   0.308876  -0.245980   0.426050  -0.173933
   0 1   0.988209   0.063992   0.000000   0.000000   0.000000
 $END
 
 $DATA
 FMO calculation
 C1 
 H.1-1    1
      N31 6
   
 O.1-1    8
      N31 6
      d 1
      1 0.800 1.0
   
 C.1-1    6
      N31 6
      d 1
      1 0.800 1.0
   
 N.1-1    7
      N31 6
      d 1
      1 0.800 1.0
   
 P.1-1   15
      N31 6
      d 1
      1 0.550 1.0
   
 $END
 $FMOXYZ
    1    H    0.590    -3.395    3.290
    2    O    0.232    -3.198    2.404
    3    C    -0.014    -4.466    1.773
    4    H    -0.686    -5.076    2.418
    5    H    0.950    -5.014    1.677
    6    C    -0.651    -4.346    0.383
    7    H    -0.789    -5.351    -0.075
    8    O    -1.974    -3.736    0.493
    9    C    -2.181    -2.869    -0.613
    10    H    -3.115    -3.215    -1.112
    11    N    -2.364    -1.478    -0.180
    12    C    -2.940    0.643    -0.074
    13    N    -2.362    0.339    1.152
    14    C    -2.037    -0.929    1.038
    15    H    -1.564    -1.534    1.816
    16    N    -3.985    1.801    -1.855
    17    C    -3.871    0.666    -2.555
    18    H    -4.271    0.702    -3.575
    19    N    -3.411    -0.528    -2.163
    20    C    -2.943    -0.466    -0.904
    21    C    -3.508    1.829    -0.585
    22    N    -3.587    2.975    0.115
    23    H    -3.252    3.046    1.061
    24    H    -3.960    3.803    -0.313
    25    C    -1.015    -3.046    -1.561
    26    H    -0.765    -2.115    -2.110
    27    O    -1.307    -4.085    -2.474
    28    H    -0.519    -4.209    -3.019
    29    C    0.104    -3.448    -0.608
    30    H    0.442    -2.557    -0.026
    31    O    1.194    -4.187    -1.222
    32    P    2.496    -3.387    -1.625
    33    O    2.855    -2.478    -0.519
    34    O    3.527    -4.375    -2.024
    35    O    2.058    -2.540    -2.886
    36    C    1.648    -3.234    -4.091
    37    H    0.923    -4.049    -3.872
    38    H    2.532    -3.683    -4.593
    39    C    0.999    -2.291    -5.110
    40    H    0.682    -2.854    -6.016
    41    O    -0.190    -1.683    -4.541
    42    C    -0.299    -0.346    -5.010
    43    H    -1.287    -0.289    -5.529
    44    N    -0.272    0.654    -3.908
    45    C    0.288    0.335    -2.691
    46    H    0.705    -0.670    -2.607
    47    C    0.287    1.207    -1.674
    48    H    0.704    0.968    -0.698
    49    C    -0.777    1.932    -4.118
    50    O    -1.240    2.228    -5.231
    51    N    -0.786    2.823    -3.105
    52    C    -0.285    2.490    -1.906
    53    N    -0.335    3.387    -0.922
    54    H    -0.760    4.275    -1.119
    55    H    -0.035    3.185    0.014
    56    C    0.806    -0.129    -6.027
    57    H    1.197    0.906    -6.010
    58    O    0.353    -0.460    -7.328
    59    H    1.136    -0.547    -7.893
    60    C    1.865    -1.112    -5.552
    61    H    2.377    -0.734    -4.636
    62    O    2.776    -1.535    -6.585
    63    P    4.191    -0.869    -6.707
    64    O    5.001    -1.276    -5.541
    65    O    4.729    -1.197    -8.047
    66    O    3.937    0.676    -6.638
    67    C    3.499    1.403    -7.812
    68    H    2.547    0.987    -8.213
    69    H    4.265    1.345    -8.620
    70    C    3.261    2.884    -7.479
    71    H    2.848    3.437    -8.349
    72    O    2.302    2.994    -6.391
    73    C    2.685    4.031    -5.514
    74    H    1.806    4.704    -5.487
    75    N    2.915    3.534    -4.148
    76    C    2.674    4.199    -2.968
    77    N    1.744    7.050    -1.229
    78    H    1.568    7.295    -0.278
    79    H    1.498    7.705    -1.950
    80    N    2.184    5.452    -2.838
    81    C    2.119    5.830    -1.562
    82    N    2.434    5.011    -0.510
    83    H    2.313    5.361    0.426
    84    C    2.885    3.703    -0.615
    85    O    3.129    3.027    0.389
    86    C    3.018    3.304    -1.970
    87    N    3.454    2.101    -2.507
    88    C    3.375    2.283    -3.801
    89    H    3.622    1.538    -4.556
    90    C    3.889    4.740    -6.127
    91    H    4.614    5.100    -5.366
    92    O    3.442    5.828    -6.922
    93    H    3.233    6.585    -6.360
    94    C    4.505    3.627    -6.980
    95    H    5.030    2.924    -6.295
    96    O    5.315    4.077    -8.103
    97    P    6.709    3.400    -8.392
    98    O    7.185    2.725    -7.166
    99    O    6.660    2.583    -9.630
    100    O    7.712    4.587    -8.658
    101    C    7.482    5.601    -9.658
    102    H    6.464    5.537    -10.109
    103    H    8.220    5.479    -10.480
    104    C    7.657    7.008    -9.084
    105    H    7.320    7.773    -9.817
    106    O    6.847    7.160    -7.886
    107    C    7.559    7.926    -6.936
    108    H    6.891    8.764    -6.633
    109    N    7.911    7.131    -5.745
    110    C    8.259    7.632    -4.523
    111    N    8.720    10.345    -2.418
    112    H    8.560    11.125    -3.021
    113    H    8.931    10.506    -1.449
    114    N    8.341    8.935    -4.202
    115    C    8.609    9.126    -2.915
    116    N    8.806    8.096    -2.033
    117    H    9.027    8.319    -1.074
    118    C    8.751    6.741    -2.341
    119    O    8.946    5.882    -1.476
    120    C    8.469    6.531    -3.715
    121    N    8.288    5.349    -4.426
    122    C    7.948    5.759    -5.621
    123    H    7.680    5.112    -6.448
    124    C    8.778    8.476    -7.639
    125    H    9.623    8.646    -6.945
    126    O    8.442    9.693    -8.279
    127    H    9.218    9.963    -8.784
    128    C    9.083    7.371    -8.646
    129    H    9.500    6.473    -8.137
    130    O    9.862    7.774    -9.796
    131    P    11.436    7.720    -9.751
    132    O    11.884    6.370    -9.334
    133    O    11.957    8.209    -11.048
    134    O    11.811    8.762    -8.627
    135    C    11.675    10.177    -8.910
    136    H    10.642    10.430    -9.228
    137    H    12.357    10.483    -9.741
    138    C    12.011    11.035    -7.688
    139    H    11.875    12.116    -7.921
    140    O    11.131    10.715    -6.573
    141    C    11.871    10.770    -5.364
    142    H    11.345    11.495    -4.701
    143    N    11.904    9.458    -4.706
    144    C    12.068    7.847    -3.216
    145    N    11.733    7.234    -4.414
    146    C    11.649    8.227    -5.263
    147    H    11.413    8.125    -6.323
    148    N    12.653    8.225    -0.954
    149    C    12.735    9.521    -1.271
    150    H    13.022    10.190    -0.451
    151    N    12.517    10.116    -2.449
    152    C    12.180    9.217    -3.384
    153    C    12.306    7.339    -1.921
    154    N    12.207    6.035    -1.606
    155    H    11.905    5.352    -2.275
    156    H    12.356    5.728    -0.663
    157    C    13.259    11.298    -5.695
    158    H    14.046    10.856    -5.049
    159    O    13.276    12.712    -5.571
    160    H    14.093    13.050    -5.973
    161    C    13.423    10.834    -7.140
    162    H    13.657    9.749    -7.183
    163    O    14.366    11.596    -7.912
    164    H    15.264    11.494    -7.543
    165    H    13.592    5.401    8.203
    166    O    13.526    6.122    7.546
    167    C    14.164    7.277    8.112
    168    H    15.233    7.039    8.301
    169    H    13.687    7.516    9.091
    170    C    14.094    8.519    7.213
    171    H    14.502    9.408    7.740
    172    O    14.901    8.314    6.013
    173    C    14.244    8.894    4.896
    174    H    14.977    9.607    4.445
    175    N    13.833    7.864    3.892
    176    C    13.723    6.532    4.238
    177    H    13.983    6.288    5.268
    178    C    13.552    8.278    2.609
    179    O    13.606    9.454    2.268
    180    N    13.208    7.276    1.737
    181    H    13.022    7.573    0.786
    182    C    13.144    5.924    1.995
    183    O    12.875    5.135    1.089
    184    C    13.404    5.572    3.357
    185    H    13.372    4.524    3.645
    186    C    13.061    9.681    5.439
    187    H    12.219    9.714    4.722
    188    O    13.451    11.002    5.770
    189    H    12.666    11.447    6.116
    190    C    12.701    8.867    6.676
    191    H    12.230    7.907    6.371
    192    O    11.946    9.569    7.687
    193    P    10.374    9.469    7.692
    194    O    9.958    8.075    7.427
    195    O    9.847    10.083    8.934
    196    O    9.949    10.343    6.460
    197    C    10.115    11.777    6.450
    198    H    11.170    12.062    6.672
    199    H    9.468    12.246    7.227
    200    C    9.728    12.367    5.082
    201    H    9.835    13.473    5.083
    202    O    10.621    11.849    4.050
    203    C    9.880    11.634    2.852
    204    H    10.405    12.230    2.071
    205    N    9.847    10.207    2.423
    206    C    10.090    9.208    3.334
    207    H    10.296    9.535    4.352
    208    C    10.097    7.918    2.975
    209    H    10.330    7.120    3.679
    210    C    9.534    9.876    1.106
    211    O    9.295    10.781    0.292
    212    N    9.502    8.577    0.732
    213    C    9.800    7.611    1.617
    214    N    9.807    6.347    1.204
    215    H    9.561    6.153    0.250
    216    H    9.999    5.580    1.816
    217    C    8.491    12.205    3.065
    218    H    7.712    11.648    2.499
    219    O    8.457    13.574    2.702
    220    H    7.583    13.913    2.952
    221    C    8.315    12.019    4.572
    222    H    8.145    10.943    4.805
    223    O    7.332    12.878    5.196
    224    P    5.799    12.515    5.063
    225    O    5.581    11.124    5.518
    226    O    5.029    13.570    5.756
    227    O    5.485    12.629    3.522
    228    C    4.337    11.916    2.996
    229    H    3.392    12.308    3.442
    230    H    4.406    10.828    3.230
    231    C    4.238    12.062    1.469
    232    H    4.241    13.135    1.176
    233    O    5.391    11.423    0.842
    234    C    4.983    10.749    -0.338
    235    H    5.611    11.152    -1.165
    236    N    5.203    9.299    -0.220
    237    C    5.468    7.163    -0.672
    238    N    5.593    7.282    0.708
    239    C    5.434    8.567    0.922
    240    H    5.481    9.047    1.903
    241    N    5.341    6.279    -2.862
    242    C    5.080    7.522    -3.268
    243    H    4.930    7.639    -4.345
    244    N    5.028    8.653    -2.555
    245    C    5.219    8.396    -1.252
    246    C    5.551    6.057    -1.543
    247    N    5.827    4.810    -1.127
    248    H    6.074    4.601    -0.178
    249    H    5.953    4.096    -1.814
    250    C    3.521    11.087    -0.590
    251    H    2.963    10.236    -1.039
    252    O    3.404    12.225    -1.424
    253    H    2.496    12.551    -1.336
    254    C    3.023    11.380    0.819
    255    H    2.907    10.418    1.371
    256    O    1.852    12.241    0.866
    257    P    0.467    11.615    1.291
    258    O    0.567    10.147    1.141
    259    O    0.096    12.119    2.631
    260    O    -0.557    12.132    0.215
    261    C    -0.833    13.518    -0.080
    262    H    -0.067    14.206    0.350
    263    H    -1.822    13.800    0.350
    264    C    -0.929    13.770    -1.593
    265    H    -1.039    14.857    -1.805
    266    O    0.299    13.328    -2.247
    267    C    -0.027    12.746    -3.504
    268    H    0.555    13.308    -4.271
    269    N    0.350    11.335    -3.565
    270    C    0.928    9.357    -4.308
    271    N    0.996    9.280    -2.927
    272    C    0.623    10.473    -2.529
    273    H    0.547    10.794    -1.489
    274    N    1.070    8.818    -6.609
    275    C    0.655    10.065    -6.846
    276    H    0.557    10.324    -7.905
    277    N    0.361    11.041    -5.978
    278    C    0.520    10.612    -4.715
    279    C    1.210    8.425    -5.322
    280    N    1.600    7.168    -5.099
    281    H    1.778    6.795    -4.177
    282    H    1.497    6.525    -5.855
    283    C    -1.504    12.954    -3.753
    284    H    -1.955    12.107    -4.307
    285    O    -1.713    14.163    -4.461
    286    H    -2.662    14.352    -4.432
    287    C    -2.054    13.022    -2.335
    288    H    -2.096    12.001    -1.889
    289    O    -3.299    13.742    -2.238
    290    P    -4.645    13.048    -1.821
    291    O    -4.395    12.167    -0.663
    292    O    -5.682    14.090    -1.655
    293    O    -5.014    12.160    -3.066
    294    C    -5.254    12.715    -4.379
    295    H    -4.544    13.538    -4.623
    296    H    -6.287    13.136    -4.436
    297    C    -5.131    11.644    -5.470
    298    H    -5.369    12.071    -6.470
    299    O    -3.756    11.154    -5.534
    300    C    -3.762    9.747    -5.719
    301    H    -3.092    9.529    -6.583
    302    N    -3.263    9.032    -4.526
    303    C    -2.777    7.752    -4.485
    304    N    -1.912    4.813    -6.097
    305    H    -2.210    4.979    -7.037
    306    H    -1.595    3.896    -5.838
    307    N    -2.673    6.915    -5.530
    308    C    -2.115    5.754    -5.194
    309    N    -1.728    5.448    -3.916
    310    H    -1.338    4.535    -3.736
    311    C    -1.843    6.280    -2.811
    312    O    -1.474    5.914    -1.692
    313    C    -2.422    7.528    -3.167
    314    N    -2.696    8.641    -2.387
    315    C    -3.189    9.507    -3.236
    316    H    -3.507    10.515    -2.980
    317    C    -5.181    9.357    -6.066
    318    H    -5.423    8.320    -5.762
    319    O    -5.385    9.501    -7.459
    320    H    -6.325    9.360    -7.615
    321    C    -5.985    10.383    -5.272
    322    H    -5.952    10.140    -4.185
    323    O    -7.327    10.619    -5.757
    324    P    -8.537    9.856    -5.099
    325    O    -8.410    9.904    -3.625
    326    O    -9.798    10.372    -5.672
    327    O    -8.335    8.372    -5.581
    328    C    -8.469    8.031    -6.982
    329    H    -7.811    8.657    -7.623
    330    H    -9.517    8.197    -7.319
    331    C    -8.122    6.554    -7.236
    332    H    -8.274    6.289    -8.305
    333    O    -6.721    6.301    -6.923
    334    C    -6.595    5.027    -6.302
    335    H    -5.872    4.454    -6.928
    336    N    -6.082    5.141    -4.903
    337    C    -6.179    6.320    -4.196
    338    H    -6.659    7.139    -4.725
    339    C    -5.511    4.028    -4.329
    340    O    -5.419    2.955    -4.917
    341    N    -5.049    4.207    -3.050
    342    H    -4.649    3.384    -2.614
    343    C    -5.121    5.350    -2.282
    344    O    -4.700    5.341    -1.127
    345    C    -5.715    6.469    -2.949
    346    H    -5.799    7.418    -2.421
    347    C    -7.961    4.350    -6.368
    348    H    -8.156    3.711    -5.478
    349    O    -8.076    3.571    -7.550
    350    H    -9.006    3.314    -7.667
    351    C    -8.895    5.556    -6.370
    352    H    -8.974    5.981    -5.347
    353    O    -10.201    5.301    -6.918
    354    H    -10.697    4.704    -6.330
 $END
