!*** FMO 5.3 (Gamess) INPUT generated by Facio 22.1.1.32 ***
 $CONTRL RUNTYP=ENERGY NPRINT=-5 ISPHER=1 MAXIT=200 $END
 $SYSTEM MWORDS=63 MEMDDI=63 $END
 $GDDI NGROUP=1 $END
 $SCF DIRSCF=.TRUE. NPUNCH=0 $END
!*** NumCPU : 2  MemPerNode : 512MB
 $PCM SOLVNT=WATER IEF=-10 ICOMP=2 ICAV=1 IDISP=1 IFMO=-1 $END
 $PCMCAV RADII=SUAHF $END
 $TESCAV NTSALL=60 $END
 $FMOPRP
    NAODIR=200
    NGRFMO(1)=1, 1, 0, 0, 0,   0, 0, 0, 0, 0
    IPIEDA=1
    NPRINT=9
 $END
 $FMO
      SCFTYP(1)=RHF
      MODGRD=10
      MODMUL=0
      MAXCAO=5
      MAXBND=13
      NLAYER=1
      MPLEVL(1)=2
      NFRAG=11
      ICHARG(1)=-1, -1, -1, -1, 0, -1, -1, -1, -1, -1, 0
      FRGNAM(1)=F1, F2, F3, F4, F5, F6, F7, F8, F9, F10, F11
      indat(1)=0
               1   -35   0
               36   -66   0
               67   -100   0
               101   -134   0
               135   -166   0
               167   -196   0
               197   -227   0
               228   -260   0
               261   -293   0
               294   -327   0
               328   -354   0
 $END

 $FMOBND
   -36   35       6-31G*    MINI
   -67   66       6-31G*    MINI
   -101   100       6-31G*    MINI
   -135   134       6-31G*    MINI
   -167   166       6-31G*    MINI
   -197   196       6-31G*    MINI
   -228   227       6-31G*    MINI
   -261   260       6-31G*    MINI
   -294   293       6-31G*    MINI
   -328   327       6-31G*    MINI
 $END
 $FMOHYB
 6-31G*      15   5
   1 0  -0.065034   0.288264   0.000000   0.000000   0.604412
         0.290129   0.000000   0.000000   0.319045  -0.017106
        -0.017106   0.057934   0.000000   0.000000   0.000000
   0 1  -0.065040   0.288293   0.569832   0.000000  -0.201456
         0.290147   0.300783   0.000000  -0.106342   0.049598
        -0.017106  -0.008771   0.000000  -0.027223   0.000000
   0 1  -0.065039   0.288293  -0.284916  -0.493490  -0.201455
         0.290145  -0.150392  -0.260486  -0.106340  -0.000427
         0.032923  -0.008771   0.033353   0.013612   0.023576
   0 1  -0.065039   0.288293  -0.284916   0.493490  -0.201455
         0.290145  -0.150392   0.260486  -0.106340  -0.000427
         0.032923  -0.008771  -0.033353   0.013612  -0.023576
   0 1   1.010938  -0.011975   0.000000   0.000000   0.000000
        -0.054085   0.000000   0.000000  -0.000000  -0.003174
        -0.003174  -0.003174   0.000000   0.000000   0.000000
 MINI         5   5
   1 0  -0.104883   0.308874   0.000000   0.000000   0.521806
   0 1  -0.104883   0.308874   0.491961   0.000000  -0.173934
   0 1  -0.104883   0.308876  -0.245980  -0.426050  -0.173933
   0 1  -0.104883   0.308876  -0.245980   0.426050  -0.173933
   0 1   0.988209   0.063992   0.000000   0.000000   0.000000
 $END
 
 $DATA
 FMO calculation
 C1 
 H.1-1    1
      N31 6
   
 O.1-1    8
      N31 6
      d 1
      1 0.800 1.0
   
 C.1-1    6
      N31 6
      d 1
      1 0.800 1.0
   
 N.1-1    7
      N31 6
      d 1
      1 0.800 1.0
   
 P.1-1   15
      N31 6
      d 1
      1 0.550 1.0
   
 $END
 $FMOXYZ
    1    H    2.532    -2.569    3.696
    2    O    2.040    -2.533    2.856
    3    C    1.742    -3.888    2.489
    4    H    1.235    -4.392    3.342
    5    H    2.691    -4.432    2.281
    6    C    0.840    -3.981    1.255
    7    H    0.648    -5.041    0.980
    8    O    -0.449    -3.359    1.540
    9    C    -0.907    -2.679    0.382
    10    H    -1.918    -3.092    0.148
    11    N    -1.040    -1.239    0.624
    12    C    -1.666    0.867    0.520
    13    N    -0.845    0.762    1.634
    14    C    -0.501    -0.505    1.656
    15    H    0.139    -0.974    2.408
    16    N    -3.119    1.716    -1.146
    17    C    -3.111    0.486    -1.669
    18    H    -3.721    0.362    -2.571
    19    N    -2.499    -0.619    -1.226
    20    C    -1.789    -0.356    -0.116
    21    C    -2.383    1.950    -0.030
    22    N    -2.371    3.184    0.500
    23    H    -1.865    3.386    1.342
    24    H    -2.791    3.953    0.009
    25    C    0.051    -3.003    -0.741
    26    H    0.142    -2.182    -1.482
    27    O    -0.392    -4.182    -1.378
    28    H    0.324    -4.474    -1.956
    29    C    1.361    -3.238    0.014
    30    H    1.773    -2.266    0.375
    31    O    2.353    -4.050    -0.675
    32    P    3.376    -3.302    -1.632
    33    O    4.040    -2.223    -0.868
    34    O    4.271    -4.313    -2.236
    35    O    2.482    -2.676    -2.762
    36    C    1.850    -3.521    -3.757
    37    H    1.163    -4.256    -3.287
    38    H    2.605    -4.111    -4.330
    39    C    1.028    -2.700    -4.762
    40    H    0.504    -3.372    -5.477
    41    O    0.001    -1.930    -4.074
    42    C    -0.138    -0.664    -4.710
    43    H    -1.209    -0.603    -5.022
    44    N    0.164    0.477    -3.803
    45    C    0.906    0.284    -2.661
    46    H    1.261    -0.732    -2.489
    47    C    1.155    1.294    -1.813
    48    H    1.714    1.159    -0.891
    49    C    -0.289    1.752    -4.123
    50    O    -0.939    1.924    -5.167
    51    N    -0.043    2.779    -3.284
    52    C    0.646    2.581    -2.150
    53    N    0.856    3.606    -1.330
    54    H    0.526    4.517    -1.600
    55    H    1.442    3.540    -0.527
    56    C    0.736    -0.670    -5.952
    57    H    1.182    0.326    -6.175
    58    O    -0.017    -1.122    -7.065
    59    H    0.613    -1.295    -7.782
    60    C    1.822    -1.667    -5.567
    61    H    2.539    -1.195    -4.856
    62    O    2.474    -2.311    -6.684
    63    P    3.777    -1.665    -7.296
    64    O    4.790    -1.566    -6.212
    65    O    4.153    -2.468    -8.479
    66    O    3.325    -0.243    -7.776
    67    C    4.321    0.753    -8.115
    68    H    5.000    0.381    -8.920
    69    H    4.953    0.980    -7.224
    70    C    3.685    2.074    -8.603
    71    H    3.298    1.961    -9.636
    72    O    2.545    2.445    -7.766
    73    C    2.567    3.838    -7.497
    74    H    1.559    4.203    -7.795
    75    N    2.797    4.161    -6.072
    76    C    3.327    3.385    -5.058
    77    N    4.628    0.361    -4.001
    78    H    5.080    -0.021    -3.197
    79    H    4.600    -0.176    -4.848
    80    N    3.746    2.112    -5.163
    81    C    4.206    1.613    -4.037
    82    N    4.256    2.332    -2.871
    83    H    4.666    1.900    -2.057
    84    C    3.854    3.660    -2.723
    85    O    3.940    4.214    -1.619
    86    C    3.335    4.190    -3.941
    87    N    2.816    5.443    -4.238
    88    C    2.509    5.381    -5.506
    89    H    2.067    6.199    -6.080
    90    C    3.621    4.458    -8.387
    91    H    4.124    5.335    -7.924
    92    O    3.040    4.842    -9.620
    93    H    3.762    4.959    -10.257
    94    C    4.605    3.308    -8.548
    95    H    5.200    3.208    -7.607
    96    O    5.412    3.400    -9.744
    97    P    6.977    3.512    -9.645
    98    O    7.462    2.589    -8.599
    99    O    7.539    3.359    -11.004
    100    O    7.217    4.990    -9.156
    101    C    7.011    6.092    -10.071
    102    H    5.964    6.095    -10.451
    103    H    7.703    6.017    -10.942
    104    C    7.262    7.443    -9.390
    105    H    7.124    8.283    -10.107
    106    O    6.291    7.626    -8.322
    107    C    6.925    8.222    -7.201
    108    H    6.324    9.122    -6.930
    109    N    6.956    7.295    -6.057
    110    C    7.233    7.621    -4.757
    111    N    8.137    9.969    -2.373
    112    H    8.170    10.819    -2.902
    113    H    8.301    9.996    -1.385
    114    N    7.545    8.851    -4.300
    115    C    7.783    8.852    -2.991
    116    N    7.694    7.729    -2.210
    117    H    7.837    7.822    -1.218
    118    C    7.319    6.461    -2.646
    119    O    7.250    5.509    -1.863
    120    C    7.121    6.436    -4.050
    121    N    6.802    5.376    -4.894
    122    C    6.706    5.939    -6.075
    123    H    6.440    5.424    -6.998
    124    C    8.313    8.651    -7.640
    125    H    9.054    8.624    -6.814
    126    O    8.263    9.956    -8.189
    127    H    9.130    10.127    -8.580
    128    C    8.629    7.605    -8.704
    129    H    8.859    6.628    -8.215
    130    O    9.621    8.009    -9.676
    131    P    11.100    7.479    -9.537
    132    O    11.087    6.040    -9.206
    133    O    11.861    7.877    -10.742
    134    O    11.646    8.273    -8.291
    135    C    11.938    9.682    -8.431
    136    H    11.046    10.246    -8.787
    137    H    12.756    9.841    -9.174
    138    C    12.399    10.284    -7.099
    139    H    12.636    11.364    -7.211
    140    O    11.339    10.174    -6.106
    141    C    11.920    9.889    -4.842
    142    H    11.581    10.693    -4.150
    143    N    11.453    8.596    -4.332
    144    C    10.922    6.914    -3.019
    145    N    10.524    6.549    -4.298
    146    C    10.861    7.576    -5.039
    147    H    10.711    7.653    -6.118
    148    N    11.340    6.901    -0.690
    149    C    11.856    8.124    -0.855
    150    H    12.245    8.596    0.054
    151    N    11.994    8.839    -1.978
    152    C    11.493    8.174    -3.029
    153    C    10.846    6.252    -1.774
    154    N    10.311    5.027    -1.613
    155    H    9.891    4.532    -2.376
    156    H    10.219    4.632    -0.695
    157    C    13.433    9.956    -4.993
    158    H    13.954    9.233    -4.330
    159    O    13.879    11.274    -4.717
    160    H    14.805    11.355    -5.001
    161    C    13.609    9.585    -6.462
    162    H    13.500    8.486    -6.602
    163    O    14.834    10.057    -7.053
    164    H    15.589    9.578    -6.668
    165    H    10.356    3.228    8.127
    166    O    10.476    4.037    7.597
    167    C    11.401    4.867    8.316
    168    H    12.306    4.272    8.570
    169    H    10.921    5.193    9.266
    170    C    11.831    6.120    7.541
    171    H    12.432    6.792    8.189
    172    O    12.675    5.752    6.404
    173    C    12.359    6.591    5.301
    174    H    13.321    7.060    4.985
    175    N    11.767    5.827    4.165
    176    C    11.218    4.576    4.356
    177    H    11.246    4.199    5.379
    178    C    11.788    6.400    2.914
    179    O    12.260    7.515    2.705
    180    N    11.248    5.634    1.915
    181    H    11.276    6.046    0.989
    182    C    10.728    4.360    2.022
    183    O    10.321    3.773    1.021
    184    C    10.717    3.840    3.355
    185    H    10.311    2.847    3.535
    186    C    11.427    7.671    5.817
    187    H    10.732    8.032    5.034
    188    O    12.179    8.760    6.317
    189    H    11.541    9.400    6.655
    190    C    10.684    6.938    6.929
    191    H    9.959    6.212    6.492
    192    O    10.089    7.780    7.944
    193    P    8.607    8.292    7.769
    194    O    7.732    7.147    7.442
    195    O    8.236    9.099    8.951
    196    O    8.692    9.236    6.514
    197    C    9.330    10.537    6.619
    198    H    10.371    10.457    7.018
    199    H    8.764    11.189    7.326
    200    C    9.381    11.265    5.260
    201    H    9.915    12.239    5.346
    202    O    10.106    10.467    4.278
    203    C    9.469    10.597    3.004
    204    H    10.253    10.985    2.312
    205    N    8.953    9.308    2.464
    206    C    8.707    8.259    3.315
    207    H    8.933    8.439    4.366
    208    C    8.254    7.082    2.862
    209    H    8.102    6.229    3.518
    210    C    8.626    9.188    1.114
    211    O    8.752    10.168    0.366
    212    N    8.189    8.004    0.635
    213    C    8.023    6.960    1.463
    214    N    7.626    5.793    0.961
    215    H    7.445    5.732    -0.025
    216    H    7.436    4.998    1.537
    217    C    8.378    11.634    3.139
    218    H    7.501    11.429    2.489
    219    O    8.887    12.921    2.855
    220    H    8.178    13.534    3.083
    221    C    8.011    11.503    4.608
    222    H    7.426    10.573    4.770
    223    O    7.386    12.672    5.177
    224    P    5.819    12.786    5.181
    225    O    5.251    11.461    5.511
    226    O    5.439    13.912    6.061
    227    O    5.451    13.103    3.687
    228    C    5.826    14.326    3.019
    229    H    6.915    14.530    3.123
    230    H    5.287    15.189    3.472
    231    C    5.466    14.276    1.522
    232    H    5.775    15.214    1.006
    233    O    6.165    13.175    0.877
    234    C    5.315    12.573    -0.085
    235    H    5.844    12.653    -1.065
    236    N    5.084    11.160    0.231
    237    C    4.733    8.999    0.046
    238    N    4.883    9.252    1.404
    239    C    5.082    10.547    1.463
    240    H    5.259    11.113    2.379
    241    N    4.455    7.917    -2.031
    242    C    4.495    9.124    -2.584
    243    H    4.391    9.136    -3.675
    244    N    4.713    10.312    -2.012
    245    C    4.837    10.172    -0.682
    246    C    4.557    7.809    -0.687
    247    N    4.488    6.586    -0.142
    248    H    4.405    6.442    0.842
    249    H    4.210    5.845    -0.766
    250    C    4.023    13.365    -0.149
    251    H    3.132    12.718    -0.305
    252    O    4.075    14.337    -1.176
    253    H    3.237    14.823    -1.126
    254    C    3.980    14.007    1.235
    255    H    3.644    13.257    1.987
    256    O    3.227    15.237    1.329
    257    P    1.655    15.160    1.271
    258    O    1.218    13.816    1.729
    259    O    1.079    16.321    1.969
    260    O    1.317    15.294    -0.263
    261    C    -0.022    14.944    -0.730
    262    H    -0.586    15.872    -0.974
    263    H    -0.630    14.421    0.053
    264    C    0.004    14.049    -1.996
    265    H    0.186    14.671    -2.900
    266    O    1.114    13.108    -1.919
    267    C    0.719    11.840    -2.405
    268    H    1.464    11.558    -3.183
    269    N    0.745    10.845    -1.326
    270    C    0.918    8.975    -0.184
    271    N    0.762    9.984    0.757
    272    C    0.668    11.072    0.032
    273    H    0.550    12.082    0.429
    274    N    1.272    6.868    -1.181
    275    C    1.225    7.508    -2.349
    276    H    1.317    6.869    -3.225
    277    N    1.014    8.804    -2.624
    278    C    0.899    9.491    -1.473
    279    C    1.120    7.587    -0.053
    280    N    1.156    6.948    1.129
    281    H    1.001    7.408    2.006
    282    H    1.224    5.952    1.115
    283    C    -0.649    11.989    -3.038
    284    H    -1.267    11.075    -2.928
    285    O    -0.523    12.320    -4.413
    286    H    -1.398    12.578    -4.741
    287    C    -1.228    13.144    -2.223
    288    H    -1.512    12.782    -1.208
    289    O    -2.293    13.872    -2.879
    290    P    -3.791    13.451    -2.612
    291    O    -3.825    12.303    -1.678
    292    O    -4.545    14.657    -2.220
    293    O    -4.308    12.982    -4.018
    294    C    -5.456    12.104    -4.157
    295    H    -6.379    12.698    -4.351
    296    H    -5.647    11.519    -3.225
    297    C    -5.309    11.080    -5.303
    298    H    -5.661    11.511    -6.266
    299    O    -3.911    10.702    -5.496
    300    C    -3.820    9.303    -5.692
    301    H    -3.206    9.139    -6.606
    302    N    -3.179    8.652    -4.544
    303    C    -2.662    7.387    -4.528
    304    N    -2.056    4.356    -6.103
    305    H    -2.447    4.482    -7.014
    306    H    -1.657    3.471    -5.849
    307    N    -2.651    6.525    -5.564
    308    C    -2.121    5.348    -5.234
    309    N    -1.656    5.065    -3.979
    310    H    -1.194    4.182    -3.822
    311    C    -1.662    5.930    -2.893
    312    O    -1.251    5.575    -1.789
    313    C    -2.204    7.194    -3.240
    314    N    -2.411    8.330    -2.462
    315    C    -2.992    9.172    -3.280
    316    H    -3.298    10.192    -3.026
    317    C    -5.226    8.786    -5.919
    318    H    -5.352    7.732    -5.589
    319    O    -5.577    8.902    -7.288
    320    H    -6.521    8.708    -7.368
    321    C    -6.031    9.742    -5.055
    322    H    -5.875    9.493    -3.977
    323    O    -7.424    9.849    -5.424
    324    P    -8.534    9.200    -4.513
    325    O    -8.210    9.443    -3.093
    326    O    -9.869    9.643    -4.971
    327    O    -8.370    7.657    -4.803
    328    C    -8.702    7.112    -6.102
    329    H    -8.134    7.622    -6.914
    330    H    -9.790    7.246    -6.310
    331    C    -8.400    5.605    -6.182
    332    H    -8.769    5.181    -7.141
    333    O    -6.958    5.381    -6.154
    334    C    -6.674    4.219    -5.384
    335    H    -6.072    3.550    -6.044
    336    N    -5.905    4.553    -4.147
    337    C    -5.903    5.830    -3.627
    338    H    -6.455    6.570    -4.203
    339    C    -5.204    3.545    -3.526
    340    O    -5.193    2.391    -3.951
    341    N    -4.530    3.916    -2.393
    342    H    -3.999    3.179    -1.939
    343    C    -4.530    5.155    -1.787
    344    O    -3.944    5.317    -0.719
    345    C    -5.249    6.163    -2.507
    346    H    -5.250    7.180    -2.122
    347    C    -8.006    3.543    -5.068
    348    H    -7.983    3.037    -4.078
    349    O    -8.340    2.595    -6.075
    350    H    -9.270    2.329    -5.958
    351    C    -8.953    4.739    -5.041
    352    H    -8.833    5.300    -4.089
    353    O    -10.335    4.410    -5.274
    354    H    -10.686    3.895    -4.527
 $END
