!*** FMO 5.3 (Gamess) INPUT generated by Facio 22.1.1.32 ***
 $CONTRL RUNTYP=ENERGY NPRINT=-5 ISPHER=1 MAXIT=200 $END
 $SYSTEM MWORDS=63 MEMDDI=63 $END
 $GDDI NGROUP=1 $END
 $SCF DIRSCF=.TRUE. NPUNCH=0 $END
!*** NumCPU : 2  MemPerNode : 512MB
 $PCM SOLVNT=WATER IEF=-10 ICOMP=2 ICAV=1 IDISP=1 IFMO=-1 $END
 $PCMCAV RADII=SUAHF $END
 $TESCAV NTSALL=60 $END
 $FMOPRP
    NAODIR=200
    NGRFMO(1)=1, 1, 0, 0, 0,   0, 0, 0, 0, 0
    IPIEDA=1
    NPRINT=9
 $END
 $FMO
      SCFTYP(1)=RHF
      MODGRD=10
      MODMUL=0
      MAXCAO=5
      MAXBND=13
      NLAYER=1
      MPLEVL(1)=2
      NFRAG=11
      ICHARG(1)=-1, -1, -1, -1, -1, -1, -1, -1, -1, -1, 0
      FRGNAM(1)=F1, F2, F3, F4, F5, F6, F7, F8, F9, F10, F11
      indat(1)=0
               1   -35   0
               36   -66   0
               67   -97   0
               98   -127   0
               128   -157   0
               158   -188   0
               189   -219   0
               220   -250   0
               251   -284   0
               285   -318   0
               319   -345   0
 $END

 $FMOBND
   -36   35       6-31G*    MINI
   -67   66       6-31G*    MINI
   -98   97       6-31G*    MINI
   -128   127       6-31G*    MINI
   -158   157       6-31G*    MINI
   -189   188       6-31G*    MINI
   -220   219       6-31G*    MINI
   -251   250       6-31G*    MINI
   -285   284       6-31G*    MINI
   -319   318       6-31G*    MINI
 $END
 $FMOHYB
 6-31G*      15   5
   1 0  -0.065034   0.288264   0.000000   0.000000   0.604412
         0.290129   0.000000   0.000000   0.319045  -0.017106
        -0.017106   0.057934   0.000000   0.000000   0.000000
   0 1  -0.065040   0.288293   0.569832   0.000000  -0.201456
         0.290147   0.300783   0.000000  -0.106342   0.049598
        -0.017106  -0.008771   0.000000  -0.027223   0.000000
   0 1  -0.065039   0.288293  -0.284916  -0.493490  -0.201455
         0.290145  -0.150392  -0.260486  -0.106340  -0.000427
         0.032923  -0.008771   0.033353   0.013612   0.023576
   0 1  -0.065039   0.288293  -0.284916   0.493490  -0.201455
         0.290145  -0.150392   0.260486  -0.106340  -0.000427
         0.032923  -0.008771  -0.033353   0.013612  -0.023576
   0 1   1.010938  -0.011975   0.000000   0.000000   0.000000
        -0.054085   0.000000   0.000000  -0.000000  -0.003174
        -0.003174  -0.003174   0.000000   0.000000   0.000000
 MINI         5   5
   1 0  -0.104883   0.308874   0.000000   0.000000   0.521806
   0 1  -0.104883   0.308874   0.491961   0.000000  -0.173934
   0 1  -0.104883   0.308876  -0.245980  -0.426050  -0.173933
   0 1  -0.104883   0.308876  -0.245980   0.426050  -0.173933
   0 1   0.988209   0.063992   0.000000   0.000000   0.000000
 $END
 
 $DATA
 FMO calculation
 C1 
 H.1-1    1
      N31 6
   
 O.1-1    8
      N31 6
      d 1
      1 0.800 1.0
   
 C.1-1    6
      N31 6
      d 1
      1 0.800 1.0
   
 N.1-1    7
      N31 6
      d 1
      1 0.800 1.0
   
 P.1-1   15
      N31 6
      d 1
      1 0.550 1.0
   
 $END
 $FMOXYZ
    1    H    7.157    0.045    11.624
    2    O    6.667    -0.073    10.789
    3    C    5.357    0.476    10.993
    4    H    5.452    1.575    11.135
    5    H    4.921    0.048    11.923
    6    C    4.401    0.204    9.829
    7    H    3.394    0.633    10.032
    8    O    4.907    0.829    8.613
    9    C    4.642    -0.022    7.510
    10    H    4.056    0.579    6.777
    11    N    5.883    -0.474    6.877
    12    C    7.353    -1.224    5.424
    13    N    8.072    -0.896    6.568
    14    C    7.157    -0.448    7.398
    15    H    7.347    -0.084    8.411
    16    N    6.773    -1.942    3.241
    17    C    5.505    -1.683    3.578
    18    H    4.762    -1.884    2.797
    19    N    5.018    -1.189    4.721
    20    C    6.004    -0.977    5.607
    21    C    7.746    -1.722    4.161
    22    N    9.025    -1.982    3.830
    23    H    9.779    -1.813    4.474
    24    H    9.255    -2.378    2.938
    25    C    3.791    -1.170    8.010
    26    H    3.966    -2.114    7.455
    27    O    2.427    -0.816    7.925
    28    H    1.926    -1.549    8.304
    29    C    4.239    -1.278    9.462
    30    H    5.252    -1.739    9.521
    31    O    3.288    -1.900    10.355
    32    P    3.376    -3.445    10.637
    33    O    4.785    -3.802    10.913
    34    O    2.382    -3.788    11.679
    35    O    2.948    -4.087    9.265
    36    C    1.578    -3.986    8.806
    37    H    1.231    -2.928    8.773
    38    H    0.900    -4.529    9.503
    39    C    1.401    -4.602    7.411
    40    H    0.347    -4.521    7.069
    41    O    2.228    -3.900    6.438
    42    C    2.755    -4.844    5.512
    43    H    2.404    -4.492    4.512
    44    N    4.246    -4.885    5.513
    45    C    4.946    -4.502    6.634
    46    H    4.346    -4.173    7.481
    47    C    6.284    -4.494    6.656
    48    H    6.851    -4.154    7.521
    49    C    4.937    -5.343    4.395
    50    O    4.298    -5.737    3.407
    51    N    6.291    -5.347    4.400
    52    C    6.967    -4.912    5.478
    53    N    8.299    -4.880    5.442
    54    H    8.778    -5.191    4.618
    55    H    8.843    -4.580    6.224
    56    C    2.115    -6.190    5.809
    57    H    2.785    -7.048    5.589
    58    O    0.911    -6.318    5.074
    59    H    0.482    -7.139    5.362
    60    C    1.837    -6.068    7.304
    61    H    2.787    -6.155    7.878
    62    O    0.791    -6.926    7.818
    63    P    1.151    -8.419    8.173
    64    O    2.553    -8.473    8.646
    65    O    0.113    -8.954    9.081
    66    O    1.043    -9.207    6.817
    67    C    1.651    -10.528    6.705
    68    H    0.975    -11.308    7.129
    69    H    2.620    -10.582    7.261
    70    C    1.965    -10.887    5.239
    71    H    1.044    -11.167    4.688
    72    O    2.514    -9.714    4.568
    73    C    3.642    -10.074    3.800
    74    H    3.465    -9.639    2.788
    75    N    4.911    -9.522    4.352
    76    C    4.955    -8.996    5.630
    77    H    4.023    -9.022    6.203
    78    C    6.083    -8.472    6.127
    79    H    6.138    -8.046    7.127
    80    C    6.060    -9.515    3.566
    81    O    6.017    -9.982    2.418
    82    N    7.207    -9.004    4.060
    83    C    7.239    -8.481    5.296
    84    N    8.381    -7.978    5.747
    85    H    9.211    -8.059    5.188
    86    H    8.465    -7.558    6.651
    87    C    3.642    -11.584    3.700
    88    H    4.662    -12.007    3.575
    89    O    2.818    -11.992    2.622
    90    H    2.683    -12.943    2.715
    91    C    3.038    -11.979    5.043
    92    H    3.788    -11.842    5.856
    93    O    2.427    -13.288    5.065
    94    P    3.265    -14.551    5.501
    95    O    3.773    -14.305    6.865
    96    O    2.422    -15.753    5.317
    97    O    4.489    -14.600    4.516
    98    C    4.354    -15.047    3.149
    99    H    3.674    -14.378    2.579
    100    H    3.932    -16.077    3.110
    101    C    5.708    -15.064    2.426
    102    H    5.593    -15.372    1.366
    103    O    6.294    -13.727    2.420
    104    C    7.694    -13.821    2.625
    105    H    8.155    -13.302    1.753
    106    N    8.129    -13.158    3.893
    107    C    7.223    -12.851    4.881
    108    H    6.198    -13.154    4.682
    109    C    9.444    -12.775    4.014
    110    O    10.258    -12.945    3.115
    111    N    9.773    -12.157    5.192
    112    H    10.743    -11.905    5.323
    113    C    8.916    -11.800    6.208
    114    O    9.344    -11.200    7.191
    115    C    7.555    -12.190    5.999
    116    H    6.819    -11.949    6.763
    117    C    8.054    -15.301    2.574
    118    H    8.888    -15.554    3.255
    119    O    8.370    -15.689    1.243
    120    H    9.054    -15.103    0.888
    121    C    6.772    -15.957    3.067
    122    H    6.672    -15.833    4.169
    123    O    6.595    -17.320    2.635
    124    P    6.835    -18.527    3.604
    125    O    5.880    -18.437    4.733
    126    O    6.803    -19.779    2.817
    127    O    8.285    -18.325    4.177
    128    C    9.460    -18.472    3.361
    129    H    9.359    -17.852    2.445
    130    H    9.581    -19.535    3.054
    131    C    10.741    -18.043    4.106
    132    H    11.646    -18.221    3.487
    133    O    10.701    -16.617    4.394
    134    C    11.239    -16.362    5.679
    135    H    12.071    -15.635    5.519
    136    N    10.212    -15.767    6.590
    137    C    8.868    -15.994    6.387
    138    H    8.625    -16.602    5.522
    139    C    10.634    -14.973    7.632
    140    O    11.824    -14.748    7.849
    141    N    9.633    -14.440    8.403
    142    H    9.928    -13.857    9.167
    143    C    8.274    -14.609    8.244
    144    O    7.488    -14.038    8.996
    145    C    7.908    -15.453    7.149
    146    H    6.852    -15.616    6.944
    147    C    11.821    -17.677    6.190
    148    H    11.721    -17.779    7.292
    149    O    13.184    -17.772    5.821
    150    H    13.486    -18.667    6.042
    151    C    10.961    -18.710    5.458
    152    H    9.954    -18.763    5.934
    153    O    11.572    -20.008    5.257
    154    P    11.229    -21.170    6.262
    155    O    12.302    -21.251    7.275
    156    O    9.857    -20.984    6.785
    157    O    11.258    -22.489    5.397
    158    C    10.395    -22.669    4.258
    159    H    10.101    -21.703    3.785
    160    H    9.466    -23.193    4.584
    161    C    11.085    -23.534    3.206
    162    H    11.390    -24.517    3.630
    163    O    10.124    -23.795    2.149
    164    C    10.768    -23.709    0.883
    165    H    10.559    -24.683    0.376
    166    N    10.235    -22.604    0.037
    167    C    9.458    -21.614    0.600
    168    H    9.258    -21.698    1.670
    169    C    8.940    -20.629    -0.141
    170    H    8.296    -19.862    0.288
    171    C    10.528    -22.560    -1.327
    172    O    11.245    -23.443    -1.824
    173    N    10.015    -21.567    -2.089
    174    C    9.217    -20.636    -1.538
    175    N    8.664    -19.713    -2.319
    176    H    8.084    -18.988    -1.952
    177    H    8.885    -19.704    -3.293
    178    C    12.257    -23.591    1.131
    179    H    12.769    -22.962    0.369
    180    O    12.854    -24.876    1.164
    181    H    13.787    -24.702    1.357
    182    C    12.303    -22.903    2.502
    183    H    12.095    -21.817    2.398
    184    O    13.473    -23.115    3.306
    185    P    14.972    -23.004    2.880
    186    O    15.715    -24.061    3.595
    187    O    15.095    -23.119    1.414
    188    O    15.496    -21.627    3.458
    189    C    15.397    -20.300    2.926
    190    H    16.064    -19.636    3.521
    191    H    14.364    -19.908    3.055
    192    C    15.845    -20.220    1.466
    193    H    16.705    -20.901    1.287
    194    O    14.738    -20.669    0.653
    195    C    14.643    -19.926    -0.520
    196    H    14.646    -20.679    -1.340
    197    N    13.384    -19.151    -0.577
    198    C    12.660    -18.926    0.570
    199    H    13.079    -19.312    1.502
    200    C    11.503    -18.268    0.534
    201    H    10.939    -18.056    1.428
    202    C    12.895    -18.719    -1.805
    203    O    13.536    -18.994    -2.831
    204    N    11.726    -18.030    -1.857
    205    C    11.030    -17.811    -0.725
    206    N    9.863    -17.176    -0.778
    207    H    9.318    -16.963    0.037
    208    H    9.539    -16.835    -1.664
    209    C    15.898    -19.091    -0.609
    210    H    15.723    -18.148    -1.147
    211    O    16.928    -19.826    -1.253
    212    H    17.109    -20.618    -0.723
    213    C    16.210    -18.856    0.867
    214    H    15.494    -18.121    1.300
    215    O    17.594    -18.540    1.118
    216    P    17.989    -17.130    1.688
    217    O    17.169    -16.896    2.892
    218    O    19.459    -17.080    1.860
    219    O    17.538    -16.085    0.595
    220    C    18.215    -15.982    -0.679
    221    H    18.499    -16.988    -1.074
    222    H    19.147    -15.384    -0.565
    223    C    17.343    -15.300    -1.751
    224    H    17.858    -15.331    -2.735
    225    O    16.089    -16.030    -1.900
    226    C    15.016    -15.125    -2.089
    227    H    14.499    -15.454    -3.019
    228    N    14.029    -15.121    -0.963
    229    C    14.331    -15.732    0.232
    230    H    15.311    -16.200    0.292
    231    C    13.454    -15.773    1.240
    232    H    13.660    -16.283    2.180
    233    C    12.791    -14.496    -1.124
    234    O    12.520    -13.963    -2.210
    235    N    11.910    -14.492    -0.098
    236    C    12.203    -15.133    1.041
    237    N    11.286    -15.194    1.988
    238    H    10.664    -14.412    2.041
    239    H    11.401    -15.714    2.838
    240    C    15.628    -13.765    -2.316
    241    H    14.940    -12.985    -1.950
    242    O    15.889    -13.542    -3.690
    243    H    16.443    -12.748    -3.755
    244    C    16.916    -13.841    -1.499
    245    H    16.685    -13.750    -0.412
    246    O    17.930    -12.914    -1.957
    247    P    18.717    -11.981    -0.963
    248    O    19.427    -12.804    0.039
    249    O    19.575    -11.060    -1.745
    250    O    17.654    -11.101    -0.197
    251    C    16.922    -10.038    -0.856
    252    H    17.482    -9.594    -1.710
    253    H    16.765    -9.210    -0.127
    254    C    15.546    -10.487    -1.358
    255    H    15.667    -11.132    -2.247
    256    O    14.873    -11.267    -0.328
    257    C    13.490    -10.987    -0.358
    258    H    12.950    -11.954    -0.460
    259    N    13.083    -10.337    0.884
    260    C    11.804    -10.162    1.335
    261    N    8.387    -10.603    0.974
    262    H    8.313    -11.061    0.089
    263    H    7.549    -10.395    1.485
    264    N    10.678    -10.546    0.705
    265    C    9.589    -10.285    1.420
    266    N    9.626    -9.681    2.649
    267    H    8.753    -9.519    3.125
    268    C    10.771    -9.260    3.312
    269    O    10.726    -8.722    4.422
    270    C    11.937    -9.538    2.561
    271    N    13.271    -9.309    2.868
    272    C    13.920    -9.800    1.842
    273    H    15.007    -9.817    1.726
    274    C    13.224    -10.132    -1.576
    275    H    12.376    -9.436    -1.425
    276    O    12.960    -10.944    -2.699
    277    H    12.806    -10.348    -3.439
    278    C    14.547    -9.389    -1.737
    279    H    14.651    -8.587    -0.969
    280    O    14.817    -8.932    -3.085
    281    P    14.334    -7.494    -3.513
    282    O    14.726    -6.568    -2.434
    283    O    14.834    -7.214    -4.880
    284    O    12.765    -7.588    -3.537
    285    C    12.056    -8.265    -4.596
    286    H    12.393    -9.324    -4.698
    287    H    12.239    -7.767    -5.576
    288    C    10.544    -8.262    -4.339
    289    H    10.009    -8.822    -5.139
    290    O    10.255    -8.918    -3.071
    291    C    9.182    -8.243    -2.429
    292    H    8.397    -9.008    -2.223
    293    N    9.606    -7.635    -1.155
    294    C    8.784    -7.230    -0.137
    295    N    5.605    -6.816    1.171
    296    H    5.022    -7.176    0.447
    297    H    5.188    -6.451    2.008
    298    N    7.443    -7.296    -0.134
    299    C    6.913    -6.850    1.001
    300    N    7.665    -6.378    2.043
    301    H    7.182    -6.064    2.871
    302    C    9.050    -6.305    2.076
    303    O    9.642    -5.876    3.070
    304    C    9.622    -6.762    0.857
    305    N    10.951    -6.843    0.460
    306    C    10.892    -7.361    -0.744
    307    H    11.747    -7.567    -1.388
    308    C    8.646    -7.217    -3.404
    309    H    8.227    -6.329    -2.894
    310    O    7.650    -7.803    -4.218
    311    H    7.381    -7.138    -4.864
    312    C    9.897    -6.876    -4.211
    313    H    10.596    -6.260    -3.597
    314    O    9.649    -6.325    -5.530
    315    P    9.672    -4.758    -5.705
    316    O    10.823    -4.201    -4.962
    317    O    9.618    -4.439    -7.148
    318    O    8.335    -4.295    -5.019
    319    C    7.051    -4.670    -5.570
    320    H    6.956    -5.773    -5.677
    321    H    6.912    -4.226    -6.581
    322    C    5.897    -4.174    -4.689
    323    H    4.916    -4.394    -5.161
    324    O    5.922    -4.855    -3.399
    325    C    5.575    -3.927    -2.376
    326    H    4.703    -4.379    -1.847
    327    N    6.694    -3.713    -1.413
    328    C    7.995    -3.987    -1.771
    329    H    8.129    -4.361    -2.782
    330    C    6.402    -3.224    -0.160
    331    O    5.259    -2.933    0.189
    332    N    7.480    -3.084    0.673
    333    H    7.272    -2.696    1.587
    334    C    8.804    -3.342    0.383
    335    O    9.669    -3.143    1.232
    336    C    9.032    -3.845    -0.937
    337    H    10.045    -4.103    -1.237
    338    C    5.131    -2.640    -3.058
    339    H    5.386    -1.742    -2.456
    340    O    3.733    -2.682    -3.304
    341    H    3.489    -1.930    -3.870
    342    C    5.944    -2.682    -4.343
    343    H    7.001    -2.399    -4.138
    344    O    5.405    -1.893    -5.418
    345    H    5.434    -0.947    -5.183
 $END
