!*** FMO 5.3 (Gamess) INPUT generated by Facio 22.1.1.32 ***
 $CONTRL RUNTYP=ENERGY NPRINT=-5 ISPHER=1 MAXIT=200 $END
 $SYSTEM MWORDS=63 MEMDDI=63 $END
 $GDDI NGROUP=1 $END
 $SCF DIRSCF=.TRUE. NPUNCH=0 $END
!*** NumCPU : 2  MemPerNode : 512MB
 $PCM SOLVNT=WATER IEF=-10 ICOMP=2 ICAV=1 IDISP=1 IFMO=-1 $END
 $PCMCAV RADII=SUAHF $END
 $TESCAV NTSALL=60 $END
 $FMOPRP
    NAODIR=200
    NGRFMO(1)=1, 1, 0, 0, 0,   0, 0, 0, 0, 0
    IPIEDA=1
    NPRINT=9
 $END
 $FMO
      SCFTYP(1)=RHF
      MODGRD=10
      MODMUL=0
      MAXCAO=5
      MAXBND=13
      NLAYER=1
      MPLEVL(1)=2
      NFRAG=11
      ICHARG(1)=-1, -1, -1, -1, -1, -1, -1, -1, -1, -1, 0
      FRGNAM(1)=F1, F2, F3, F4, F5, F6, F7, F8, F9, F10, F11
      indat(1)=0
               1   -35   0
               36   -66   0
               67   -97   0
               98   -127   0
               128   -157   0
               158   -188   0
               189   -219   0
               220   -250   0
               251   -284   0
               285   -318   0
               319   -345   0
 $END

 $FMOBND
   -36   35       6-31G*    MINI
   -67   66       6-31G*    MINI
   -98   97       6-31G*    MINI
   -128   127       6-31G*    MINI
   -158   157       6-31G*    MINI
   -189   188       6-31G*    MINI
   -220   219       6-31G*    MINI
   -251   250       6-31G*    MINI
   -285   284       6-31G*    MINI
   -319   318       6-31G*    MINI
 $END
 $FMOHYB
 6-31G*      15   5
   1 0  -0.065034   0.288264   0.000000   0.000000   0.604412
         0.290129   0.000000   0.000000   0.319045  -0.017106
        -0.017106   0.057934   0.000000   0.000000   0.000000
   0 1  -0.065040   0.288293   0.569832   0.000000  -0.201456
         0.290147   0.300783   0.000000  -0.106342   0.049598
        -0.017106  -0.008771   0.000000  -0.027223   0.000000
   0 1  -0.065039   0.288293  -0.284916  -0.493490  -0.201455
         0.290145  -0.150392  -0.260486  -0.106340  -0.000427
         0.032923  -0.008771   0.033353   0.013612   0.023576
   0 1  -0.065039   0.288293  -0.284916   0.493490  -0.201455
         0.290145  -0.150392   0.260486  -0.106340  -0.000427
         0.032923  -0.008771  -0.033353   0.013612  -0.023576
   0 1   1.010938  -0.011975   0.000000   0.000000   0.000000
        -0.054085   0.000000   0.000000  -0.000000  -0.003174
        -0.003174  -0.003174   0.000000   0.000000   0.000000
 MINI         5   5
   1 0  -0.104883   0.308874   0.000000   0.000000   0.521806
   0 1  -0.104883   0.308874   0.491961   0.000000  -0.173934
   0 1  -0.104883   0.308876  -0.245980  -0.426050  -0.173933
   0 1  -0.104883   0.308876  -0.245980   0.426050  -0.173933
   0 1   0.988209   0.063992   0.000000   0.000000   0.000000
 $END
 
 $DATA
 FMO calculation
 C1 
 H.1-1    1
      N31 6
   
 O.1-1    8
      N31 6
      d 1
      1 0.800 1.0
   
 C.1-1    6
      N31 6
      d 1
      1 0.800 1.0
   
 N.1-1    7
      N31 6
      d 1
      1 0.800 1.0
   
 P.1-1   15
      N31 6
      d 1
      1 0.550 1.0
   
 $END
 $FMOXYZ
    1    H    10.871    -0.075    11.491
    2    O    10.122    -0.251    10.891
    3    C    8.926    -0.174    11.680
    4    H    8.893    0.817    12.187
    5    H    8.962    -0.960    12.466
    6    C    7.627    -0.361    10.877
    7    H    6.749    -0.031    11.475
    8    O    7.644    0.427    9.650
    9    C    7.107    -0.347    8.593
    10    H    6.285    0.259    8.145
    11    N    8.117    -0.625    7.570
    12    C    9.092    -1.133    5.671
    13    N    10.118    -0.870    6.569
    14    C    9.487    -0.575    7.680
    15    H    9.970    -0.288    8.614
    16    N    7.882    -1.649    3.700
    17    C    6.776    -1.488    4.428
    18    H    5.836    -1.641    3.890
    19    N    6.651    -1.150    5.712
    20    C    7.857    -0.986    6.278
    21    C    9.090    -1.484    4.307
    22    N    10.215    -1.648    3.590
    23    H    11.129    -1.443    3.946
    24    H    10.098    -1.920    2.630
    25    C    6.527    -1.615    9.182
    26    H    6.632    -2.486    8.498
    27    O    5.163    -1.433    9.503
    28    H    4.866    -2.289    9.841
    29    C    7.374    -1.807    10.438
    30    H    8.367    -2.239    10.180
    31    O    6.734    -2.513    11.517
    32    P    6.632    -4.078    11.569
    33    O    5.838    -4.449    12.760
    34    O    8.001    -4.631    11.473
    35    O    5.835    -4.480    10.276
    36    C    4.394    -4.519    10.193
    37    H    3.949    -3.546    10.496
    38    H    3.987    -5.298    10.879
    39    C    3.903    -4.838    8.764
    40    H    2.822    -4.595    8.655
    41    O    4.621    -4.050    7.779
    42    C    4.893    -4.842    6.636
    43    H    4.399    -4.306    5.792
    44    N    6.352    -4.965    6.365
    45    C    7.245    -4.998    7.404
    46    H    6.820    -4.910    8.396
    47    C    8.562    -5.100    7.199
    48    H    9.277    -5.114    8.020
    49    C    6.814    -5.092    5.062
    50    O    5.988    -5.084    4.138
    51    N    8.146    -5.225    4.825
    52    C    9.015    -5.217    5.855
    53    N    10.324    -5.327    5.621
    54    H    10.683    -5.394    4.695
    55    H    10.982    -5.331    6.377
    56    C    4.216    -6.193    6.819
    57    H    4.831    -7.022    6.412
    58    O    2.941    -6.216    6.205
    59    H    2.594    -7.117    6.313
    60    C    4.112    -6.296    8.342
    61    H    5.090    -6.610    8.775
    62    O    3.014    -7.082    8.845
    63    P    3.070    -8.647    8.859
    64    O    1.896    -9.146    9.607
    65    O    4.406    -9.064    9.326
    66    O    2.931    -9.038    7.345
    67    C    1.672    -9.288    6.689
    68    H    1.071    -8.350    6.633
    69    H    1.084    -10.037    7.262
    70    C    1.833    -9.826    5.245
    71    H    0.849    -9.812    4.729
    72    O    2.721    -8.962    4.478
    73    C    3.566    -9.754    3.648
    74    H    3.388    -9.387    2.610
    75    N    5.004    -9.582    3.989
    76    C    5.353    -9.408    5.304
    77    H    4.535    -9.401    6.004
    78    C    6.617    -9.218    5.685
    79    H    6.895    -9.043    6.723
    80    C    6.003    -9.666    3.024
    81    O    5.692    -9.910    1.846
    82    N    7.289    -9.475    3.385
    83    C    7.608    -9.239    4.672
    84    N    8.875    -9.034    4.998
    85    H    9.536    -9.195    4.258
    86    H    9.193    -9.010    5.947
    87    C    3.108    -11.202    3.734
    88    H    3.958    -11.916    3.704
    89    O    2.213    -11.500    2.680
    90    H    1.859    -12.383    2.861
    91    C    2.411    -11.248    5.093
    92    H    3.175    -11.353    5.895
    93    O    1.352    -12.232    5.180
    94    P    1.536    -13.574    5.970
    95    O    0.225    -14.256    6.050
    96    O    2.219    -13.279    7.248
    97    O    2.509    -14.435    5.087
    98    C    2.069    -15.217    3.956
    99    H    1.318    -14.659    3.352
    100    H    1.596    -16.160    4.313
    101    C    3.215    -15.608    2.997
    102    H    2.801    -15.998    2.044
    103    O    4.026    -14.449    2.671
    104    C    5.391    -14.820    2.587
    105    H    5.708    -14.536    1.553
    106    N    6.209    -14.107    3.609
    107    C    5.661    -13.729    4.808
    108    H    4.619    -13.986    4.938
    109    C    7.514    -13.809    3.314
    110    O    8.018    -14.106    2.238
    111    N    8.205    -13.151    4.306
    112    H    9.165    -12.930    4.113
    113    C    7.707    -12.720    5.518
    114    O    8.425    -12.104    6.302
    115    C    6.334    -13.046    5.739
    116    H    5.861    -12.727    6.664
    117    C    5.473    -16.334    2.730
    118    H    6.376    -16.651    3.294
    119    O    5.469    -16.960    1.459
    120    H    5.448    -17.910    1.634
    121    C    4.204    -16.660    3.517
    122    H    4.358    -16.434    4.599
    123    O    3.674    -17.982    3.270
    124    P    3.823    -19.140    4.314
    125    O    2.927    -20.255    3.941
    126    O    3.690    -18.585    5.675
    127    O    5.293    -19.630    4.107
    128    C    5.775    -20.227    2.888
    129    H    5.380    -19.714    1.979
    130    H    5.447    -21.291    2.840
    131    C    7.311    -20.201    2.822
    132    H    7.673    -20.648    1.869
    133    O    7.802    -18.823    2.857
    134    C    8.984    -18.769    3.652
    135    H    9.783    -18.332    3.012
    136    N    8.794    -17.920    4.875
    137    C    7.561    -17.853    5.469
    138    H    6.793    -18.402    4.957
    139    C    9.830    -17.146    5.356
    140    O    10.932    -17.102    4.829
    141    N    9.531    -16.384    6.459
    142    H    10.312    -15.887    6.861
    143    C    8.314    -16.276    7.096
    144    O    8.176    -15.520    8.055
    145    C    7.281    -17.076    6.521
    146    H    6.276    -17.014    6.930
    147    C    9.364    -20.213    3.956
    148    H    9.926    -20.312    4.909
    149    O    10.096    -20.764    2.883
    150    H    10.317    -21.660    3.164
    151    C    8.021    -20.908    3.991
    152    H    7.468    -20.655    4.921
    153    O    8.061    -22.338    3.752
    154    P    8.715    -23.298    4.816
    155    O    8.001    -24.587    4.701
    156    O    8.704    -22.650    6.146
    157    O    10.201    -23.466    4.302
    158    C    11.350    -23.362    5.176
    159    H    11.349    -24.224    5.886
    160    H    11.311    -22.420    5.780
    161    C    12.710    -23.354    4.414
    162    H    13.543    -23.636    5.091
    163    O    12.709    -24.294    3.292
    164    C    13.307    -23.684    2.143
    165    H    14.158    -24.351    1.874
    166    N    12.367    -23.594    0.987
    167    C    11.028    -23.424    1.222
    168    H    10.739    -23.376    2.255
    169    C    10.134    -23.336    0.234
    170    H    9.069    -23.209    0.423
    171    C    12.824    -23.664    -0.327
    172    O    14.038    -23.823    -0.533
    173    N    11.936    -23.573    -1.351
    174    C    10.621    -23.424    -1.096
    175    N    9.759    -23.351    -2.108
    176    H    10.099    -23.454    -3.046
    177    H    8.775    -23.241    -1.962
    178    C    13.874    -22.327    2.544
    179    H    13.699    -21.551    1.765
    180    O    15.257    -22.404    2.826
    181    H    15.520    -21.562    3.228
    182    C    13.061    -21.998    3.787
    183    H    12.095    -21.602    3.444
    184    O    13.712    -21.139    4.754
    185    P    13.473    -19.582    4.668
    186    O    13.461    -19.052    6.047
    187    O    12.306    -19.345    3.816
    188    O    14.741    -19.053    3.917
    189    C    16.031    -19.014    4.551
    190    H    16.317    -20.031    4.913
    191    H    16.024    -18.311    5.424
    192    C    17.106    -18.554    3.560
    193    H    18.119    -18.631    4.005
    194    O    17.079    -19.409    2.371
    195    C    17.299    -18.614    1.214
    196    H    18.168    -19.065    0.678
    197    N    16.121    -18.564    0.284
    198    C    14.923    -19.121    0.654
    199    H    14.856    -19.495    1.675
    200    C    13.875    -19.145    -0.177
    201    H    12.927    -19.592    0.104
    202    C    16.254    -18.038    -1.002
    203    O    17.369    -17.641    -1.373
    204    N    15.191    -18.019    -1.852
    205    C    14.026    -18.571    -1.469
    206    N    12.999    -18.591    -2.319
    207    H    13.106    -18.176    -3.223
    208    H    12.103    -18.950    -2.062
    209    C    17.694    -17.244    1.719
    210    H    17.365    -16.490    1.029
    211    O    19.095    -17.117    1.878
    212    H    19.252    -16.260    2.297
    213    C    16.942    -17.122    3.032
    214    H    15.855    -16.946    2.863
    215    O    17.523    -16.181    3.952
    216    P    17.133    -14.661    4.034
    217    O    18.296    -13.928    4.583
    218    O    15.863    -14.557    4.782
    219    O    16.879    -14.162    2.560
    220    C    17.952    -13.816    1.653
    221    H    18.801    -14.528    1.737
    222    H    18.345    -12.805    1.896
    223    C    17.512    -13.789    0.174
    224    H    18.381    -13.872    -0.512
    225    O    16.616    -14.890    -0.118
    226    C    15.554    -14.500    -0.919
    227    H    15.582    -15.187    -1.795
    228    N    14.220    -14.625    -0.263
    229    C    14.129    -14.848    1.089
    230    H    15.070    -14.998    1.611
    231    C    12.947    -14.941    1.702
    232    H    12.853    -15.125    2.771
    233    C    13.057    -14.558    -1.024
    234    O    13.160    -14.425    -2.255
    235    N    11.842    -14.655    -0.431
    236    C    11.777    -14.840    0.902
    237    N    10.598    -14.974    1.490
    238    H    9.762    -14.873    0.955
    239    H    10.510    -15.235    2.446
    240    C    15.875    -13.102    -1.340
    241    H    14.973    -12.488    -1.332
    242    O    16.544    -13.126    -2.592
    243    H    15.906    -13.398    -3.269
    244    C    16.725    -12.554    -0.204
    245    H    16.088    -12.301    0.674
    246    O    17.615    -11.476    -0.556
    247    P    17.112    -9.991    -0.714
    248    O    18.159    -9.225    -1.427
    249    O    16.756    -9.499    0.634
    250    O    15.809    -10.004    -1.598
    251    C    15.825    -10.153    -3.035
    252    H    16.613    -10.865    -3.363
    253    H    16.070    -9.176    -3.495
    254    C    14.469    -10.606    -3.647
    255    H    14.632    -11.081    -4.641
    256    O    13.773    -11.573    -2.824
    257    C    12.419    -11.240    -2.634
    258    H    11.830    -12.160    -2.852
    259    N    12.132    -10.818    -1.245
    260    C    10.896    -10.663    -0.665
    261    N    7.432    -10.825    -0.820
    262    H    7.271    -11.141    -1.754
    263    H    6.657    -10.662    -0.215
    264    N    9.703    -10.880    -1.252
    265    C    8.681    -10.660    -0.419
    266    N    8.844    -10.256    0.885
    267    H    8.029    -10.084    1.452
    268    C    10.067    -10.020    1.505
    269    O    10.187    -9.657    2.679
    270    C    11.150    -10.263    0.634
    271    N    12.511    -10.183    0.876
    272    C    13.049    -10.532    -0.260
    273    H    14.114    -10.630    -0.421
    274    C    12.113    -10.176    -3.642
    275    H    11.359    -9.468    -3.253
    276    O    11.671    -10.765    -4.851
    277    H    11.742    -10.077    -5.526
    278    C    13.463    -9.480    -3.812
    279    H    13.638    -8.781    -2.960
    280    O    13.651    -8.881    -5.103
    281    P    13.785    -7.340    -5.295
    282    O    13.935    -7.092    -6.751
    283    O    14.836    -6.796    -4.409
    284    O    12.379    -6.810    -4.820
    285    C    11.242    -6.995    -5.704
    286    H    11.284    -7.976    -6.241
    287    H    11.255    -6.198    -6.477
    288    C    9.890    -6.936    -4.964
    289    H    9.087    -7.348    -5.608
    290    O    9.931    -7.752    -3.765
    291    C    9.275    -7.096    -2.700
    292    H    8.508    -7.810    -2.324
    293    N    10.199    -6.773    -1.595
    294    C    9.812    -6.525    -0.307
    295    N    7.299    -6.192    2.014
    296    H    6.483    -6.392    1.478
    297    H    7.192    -5.843    2.949
    298    N    8.549    -6.532    0.137
    299    C    8.468    -6.234    1.425
    300    N    9.555    -5.948    2.211
    301    H    9.376    -5.706    3.170
    302    C    10.878    -5.942    1.782
    303    O    11.803    -5.679    2.559
    304    C    10.972    -6.259    0.394
    305    N    12.079    -6.345    -0.443
    306    C    11.573    -6.653    -1.616
    307    H    12.149    -6.826    -2.526
    308    C    8.585    -5.867    -3.267
    309    H    8.607    -5.023    -2.548
    310    O    7.241    -6.157    -3.611
    311    H    6.851    -5.362    -4.007
    312    C    9.440    -5.551    -4.493
    313    H    10.372    -5.029    -4.179
    314    O    8.742    -4.885    -5.569
    315    P    8.786    -3.329    -5.745
    316    O    8.666    -3.035    -7.187
    317    O    9.970    -2.786    -5.048
    318    O    7.495    -2.823    -5.007
    319    C    6.192    -2.872    -5.623
    320    H    6.049    -3.816    -6.199
    321    H    6.089    -2.018    -6.333
    322    C    5.045    -2.798    -4.588
    323    H    4.085    -3.102    -5.063
    324    O    5.277    -3.711    -3.469
    325    C    4.886    -3.078    -2.248
    326    H    4.137    -3.763    -1.782
    327    N    6.048    -2.878    -1.324
    328    C    7.333    -2.861    -1.810
    329    H    7.434    -3.103    -2.858
    330    C    5.812    -2.691    0.022
    331    O    4.677    -2.667    0.486
    332    N    6.944    -2.540    0.799
    333    H    6.818    -2.399    1.787
    334    C    8.257    -2.566    0.365
    335    O    9.191    -2.489    1.156
    336    C    8.413    -2.712    -1.039
    337    H    9.422    -2.766    -1.442
    338    C    4.192    -1.764    -2.606
    339    H    4.412    -0.976    -1.853
    340    O    2.786    -1.950    -2.705
    341    H    2.384    -1.142    -3.064
    342    C    4.836    -1.421    -3.947
    343    H    5.840    -0.969    -3.795
    344    O    4.025    -0.598    -4.805
    345    H    3.852    0.261    -4.381
 $END
