!*** FMO 5.3 (Gamess) INPUT generated by Facio 22.1.1.32 ***
 $CONTRL RUNTYP=ENERGY NPRINT=-5 ISPHER=1 MAXIT=200 $END
 $SYSTEM MWORDS=63 MEMDDI=63 $END
 $GDDI NGROUP=1 $END
 $SCF DIRSCF=.TRUE. NPUNCH=0 $END
!*** NumCPU : 2  MemPerNode : 512MB
 $PCM SOLVNT=WATER IEF=-10 ICOMP=2 ICAV=1 IDISP=1 IFMO=-1 $END
 $PCMCAV RADII=SUAHF $END
 $TESCAV NTSALL=60 $END
 $FMOPRP
    NAODIR=200
    NGRFMO(1)=1, 1, 0, 0, 0,   0, 0, 0, 0, 0
    IPIEDA=1
    NPRINT=9
 $END
 $FMO
      SCFTYP(1)=RHF
      MODGRD=10
      MODMUL=0
      MAXCAO=5
      MAXBND=10
      NLAYER=1
      MPLEVL(1)=2
      NFRAG=8
      ICHARG(1)=-1, -1, -1, -1, -1, -1, -1, 0
      FRGNAM(1)=F1, F2, F3, F4, F5, F6, F7, F8
      indat(1)=0
               1   -36   0
               37   -67   0
               68   -97   0
               98   -127   0
               128   -160   0
               161   -191   0
               192   -225   0
               226   -253   0
 $END

 $FMOBND
   -37   36       6-31G*    MINI
   -68   67       6-31G*    MINI
   -98   97       6-31G*    MINI
   -128   127       6-31G*    MINI
   -161   160       6-31G*    MINI
   -192   191       6-31G*    MINI
   -226   225       6-31G*    MINI
 $END
 $FMOHYB
 6-31G*      15   5
   1 0  -0.065034   0.288264   0.000000   0.000000   0.604412
         0.290129   0.000000   0.000000   0.319045  -0.017106
        -0.017106   0.057934   0.000000   0.000000   0.000000
   0 1  -0.065040   0.288293   0.569832   0.000000  -0.201456
         0.290147   0.300783   0.000000  -0.106342   0.049598
        -0.017106  -0.008771   0.000000  -0.027223   0.000000
   0 1  -0.065039   0.288293  -0.284916  -0.493490  -0.201455
         0.290145  -0.150392  -0.260486  -0.106340  -0.000427
         0.032923  -0.008771   0.033353   0.013612   0.023576
   0 1  -0.065039   0.288293  -0.284916   0.493490  -0.201455
         0.290145  -0.150392   0.260486  -0.106340  -0.000427
         0.032923  -0.008771  -0.033353   0.013612  -0.023576
   0 1   1.010938  -0.011975   0.000000   0.000000   0.000000
        -0.054085   0.000000   0.000000  -0.000000  -0.003174
        -0.003174  -0.003174   0.000000   0.000000   0.000000
 MINI         5   5
   1 0  -0.104883   0.308874   0.000000   0.000000   0.521806
   0 1  -0.104883   0.308874   0.491961   0.000000  -0.173934
   0 1  -0.104883   0.308876  -0.245980  -0.426050  -0.173933
   0 1  -0.104883   0.308876  -0.245980   0.426050  -0.173933
   0 1   0.988209   0.063992   0.000000   0.000000   0.000000
 $END
 
 $DATA
 FMO calculation
 C1 
 H.1-1    1
      N31 6
   
 O.1-1    8
      N31 6
      d 1
      1 0.800 1.0
   
 C.1-1    6
      N31 6
      d 1
      1 0.800 1.0
   
 N.1-1    7
      N31 6
      d 1
      1 0.800 1.0
   
 P.1-1   15
      N31 6
      d 1
      1 0.550 1.0
   
 $END
 $FMOXYZ
    1    H    0.470    -7.541    7.049
    2    O    0.157    -6.857    7.671
    3    C    1.257    -6.559    8.541
    4    H    2.154    -6.312    7.929
    5    H    1.494    -7.460    9.149
    6    C    0.963    -5.390    9.485
    7    H    1.817    -5.203    10.170
    8    O    0.752    -4.170    8.714
    9    C    -0.285    -3.416    9.324
    10    H    0.130    -2.404    9.523
    11    N    -1.450    -3.282    8.435
    12    C    -2.445    -2.349    8.552
    13    N    -3.874    0.325    10.218
    14    H    -3.260    0.457    10.990
    15    H    -4.684    0.911    10.132
    16    N    -2.539    -1.412    9.512
    17    C    -3.609    -0.636    9.356
    18    N    -4.483    -0.763    8.308
    19    H    -5.268    -0.132    8.266
    20    C    -4.399    -1.704    7.290
    21    O    -5.227    -1.745    6.373
    22    C    -3.287    -2.568    7.476
    23    N    -2.846    -3.642    6.713
    24    C    -1.750    -4.038    7.320
    25    H    -1.106    -4.861    6.997
    26    C    -0.627    -4.081    10.636
    27    H    -1.690    -3.945    10.918
    28    O    0.208    -3.576    11.662
    29    H    -0.045    -4.052    12.462
    30    C    -0.314    -5.539    10.328
    31    H    -1.096    -5.972    9.660
    32    O    -0.046    -6.361    11.483
    33    P    -1.230    -7.137    12.177
    34    O    -2.011    -7.856    11.151
    35    O    -0.646    -7.950    13.264
    36    O    -2.123    -5.993    12.796
    37    C    -1.650    -5.251    13.946
    38    H    -0.649    -4.798    13.761
    39    H    -1.547    -5.925    14.827
    40    C    -2.624    -4.123    14.320
    41    H    -2.229    -3.532    15.177
    42    O    -2.789    -3.218    13.189
    43    C    -4.127    -2.738    13.152
    44    H    -4.047    -1.629    13.237
    45    N    -4.837    -3.073    11.880
    46    C    -4.368    -4.081    11.070
    47    H    -3.496    -4.624    11.440
    48    C    -4.956    -4.367    9.900
    49    H    -4.588    -5.146    9.233
    50    C    -5.981    -2.370    11.508
    51    O    -6.413    -1.478    12.253
    52    N    -6.595    -2.650    10.337
    53    C    -6.113    -3.616    9.539
    54    N    -6.734    -3.878    8.392
    55    H    -7.596    -3.408    8.166
    56    H    -6.408    -4.576    7.758
    57    C    -4.831    -3.271    14.383
    58    H    -5.892    -3.478    14.188
    59    O    -4.712    -2.358    15.461
    60    H    -4.965    -2.827    16.271
    61    C    -4.059    -4.559    14.649
    62    H    -4.329    -5.337    13.899
    63    O    -4.151    -5.025    16.010
    64    P    -5.006    -6.296    16.376
    65    O    -4.420    -7.469    15.695
    66    O    -5.109    -6.371    17.850
    67    O    -6.433    -6.027    15.774
    68    C    -7.329    -5.036    16.318
    69    H    -6.807    -4.069    16.500
    70    H    -7.741    -5.388    17.292
    71    C    -8.513    -4.770    15.368
    72    H    -9.204    -4.023    15.811
    73    O    -8.034    -4.200    14.109
    74    C    -8.781    -4.729    13.024
    75    H    -9.165    -3.849    12.457
    76    N    -7.954    -5.588    12.120
    77    C    -6.775    -6.156    12.546
    78    H    -6.479    -5.899    13.558
    79    C    -8.417    -5.812    10.840
    80    O    -9.468    -5.339    10.426
    81    N    -7.603    -6.597    10.061
    82    H    -7.934    -6.765    9.121
    83    C    -6.404    -7.181    10.415
    84    O    -5.772    -7.850    9.599
    85    C    -5.998    -6.916    11.760
    86    H    -5.050    -7.323    12.106
    87    C    -9.939    -5.495    13.627
    88    H    -10.244    -6.348    12.985
    89    O    -11.040    -4.626    13.838
    90    H    -11.339    -4.289    12.972
    91    C    -9.336    -5.983    14.939
    92    H    -8.597    -6.792    14.740
    93    O    -10.302    -6.312    15.959
    94    P    -10.598    -7.819    16.304
    95    O    -9.537    -8.709    15.773
    96    O    -10.845    -7.902    17.760
    97    O    -11.951    -8.160    15.569
    98    C    -12.089    -8.121    14.133
    99    H    -11.284    -8.701    13.626
    100    H    -12.043    -7.069    13.782
    101    C    -13.447    -8.658    13.656
    102    H    -13.524    -9.756    13.824
    103    O    -14.526    -8.025    14.417
    104    C    -15.568    -7.625    13.539
    105    H    -16.507    -8.045    13.973
    106    N    -15.693    -6.136    13.449
    107    C    -14.801    -5.297    14.091
    108    H    -14.000    -5.786    14.652
    109    C    -16.770    -5.616    12.760
    110    O    -17.610    -6.317    12.204
    111    N    -16.845    -4.250    12.746
    112    H    -17.672    -3.873    12.309
    113    C    -16.035    -3.359    13.413
    114    O    -16.295    -2.159    13.399
    115    C    -14.934    -3.961    14.098
    116    H    -14.254    -3.320    14.660
    117    C    -15.294    -8.281    12.196
    118    H    -15.664    -7.681    11.337
    119    O    -15.870    -9.578    12.159
    120    H    -15.501    -10.034    11.385
    121    C    -13.775    -8.338    12.182
    122    H    -13.380    -7.314    11.973
    123    O    -13.250    -9.356    11.296
    124    P    -12.149    -8.996    10.234
    125    O    -11.181    -8.080    10.870
    126    O    -11.608    -10.253    9.673
    127    O    -12.958    -8.273    9.094
    128    C    -12.313    -7.354    8.176
    129    H    -12.032    -7.896    7.246
    130    H    -11.385    -6.899    8.603
    131    C    -13.252    -6.207    7.774
    132    H    -14.029    -6.569    7.069
    133    O    -13.956    -5.706    8.947
    134    C    -14.135    -4.313    8.832
    135    H    -15.235    -4.143    8.891
    136    N    -13.483    -3.612    9.929
    137    C    -12.994    -2.153    11.492
    138    N    -12.070    -3.187    11.621
    139    C    -12.400    -4.026    10.668
    140    H    -11.896    -4.975    10.455
    141    N    -14.239    -0.170    11.851
    142    C    -14.990    -0.543    10.809
    143    H    -15.796    0.148    10.537
    144    N    -14.897    -1.639    10.047
    145    C    -13.871    -2.408    10.452
    146    C    -13.207    -0.967    12.227
    147    N    -12.451    -0.593    13.277
    148    H    -11.677    -1.136    13.603
    149    H    -12.629    0.289    13.718
    150    C    -13.631    -3.887    7.471
    151    H    -13.186    -2.872    7.470
    152    O    -14.692    -3.944    6.538
    153    H    -14.291    -3.879    5.663
    154    C    -12.584    -4.951    7.184
    155    H    -11.667    -4.760    7.792
    156    O    -12.319    -5.136    5.778
    157    P    -10.985    -4.616    5.125
    158    O    -9.919    -4.628    6.139
    159    O    -10.732    -5.425    3.915
    160    O    -11.308    -3.138    4.690
    161    C    -12.491    -2.775    3.957
    162    H    -13.402    -3.089    4.509
    163    H    -12.500    -3.275    2.964
    164    C    -12.548    -1.247    3.794
    165    H    -12.267    -0.734    4.733
    166    O    -11.689    -0.791    2.716
    167    C    -12.441    -0.693    1.503
    168    H    -12.421    0.385    1.226
    169    N    -11.838    -1.516    0.396
    170    C    -10.634    -2.162    0.623
    171    H    -10.203    -2.069    1.623
    172    C    -10.024    -2.876    -0.329
    173    H    -9.075    -3.380    -0.155
    174    C    -12.396    -1.570    -0.887
    175    O    -13.426    -0.927    -1.140
    176    N    -11.806    -2.311    -1.851
    177    C    -10.652    -2.952    -1.601
    178    N    -10.083    -3.653    -2.580
    179    H    -10.546    -3.697    -3.468
    180    H    -9.203    -4.114    -2.461
    181    C    -13.877    -1.087    1.861
    182    H    -14.028    -2.177    1.699
    183    O    -14.874    -0.353    1.177
    184    H    -14.778    0.574    1.442
    185    C    -13.921    -0.762    3.350
    186    H    -14.699    -1.408    3.825
    187    O    -14.099    0.644    3.648
    188    P    -15.237    1.175    4.580
    189    O    -16.111    2.033    3.753
    190    O    -15.873    0.053    5.306
    191    O    -14.459    2.086    5.604
    192    C    -15.213    2.957    6.489
    193    H    -16.235    2.568    6.710
    194    H    -15.331    3.958    6.015
    195    C    -14.521    3.134    7.849
    196    H    -15.101    3.813    8.506
    197    O    -14.444    1.849    8.530
    198    C    -13.182    1.740    9.178
    199    H    -13.375    1.507    10.245
    200    N    -12.364    0.669    8.594
    201    C    -11.223    0.120    9.124
    202    N    -8.852    -0.076    11.656
    203    H    -9.136    0.636    12.293
    204    H    -8.008    -0.587    11.838
    205    N    -10.639    0.470    10.285
    206    C    -9.556    -0.263    10.551
    207    N    -9.088    -1.233    9.707
    208    H    -8.265    -1.753    9.972
    209    C    -9.654    -1.594    8.497
    210    O    -9.134    -2.470    7.809
    211    C    -10.817    -0.834    8.216
    212    N    -11.685    -0.891    7.142
    213    C    -12.597    0.007    7.411
    214    H    -13.471    0.228    6.793
    215    C    -12.506    3.087    9.097
    216    H    -11.401    3.009    9.066
    217    O    -12.893    3.875    10.203
    218    H    -12.539    4.760    10.055
    219    C    -13.071    3.633    7.792
    220    H    -12.602    3.100    6.932
    221    O    -13.042    5.080    7.664
    222    P    -11.861    5.707    6.825
    223    O    -11.624    4.878    5.624
    224    O    -12.129    7.144    6.600
    225    O    -10.634    5.555    7.800
    226    C    -10.626    6.226    9.083
    227    H    -11.533    5.988    9.684
    228    H    -10.604    7.329    8.941
    229    C    -9.388    5.842    9.905
    230    H    -9.352    6.407    10.861
    231    O    -9.426    4.425    10.235
    232    C    -8.108    3.890    10.157
    233    H    -7.905    3.438    11.157
    234    N    -7.977    2.840    9.108
    235    C    -8.890    2.769    8.083
    236    H    -9.702    3.493    8.112
    237    C    -8.801    1.837    7.129
    238    H    -9.532    1.755    6.330
    239    C    -6.904    1.955    9.131
    240    O    -6.059    2.056    10.032
    241    N    -6.792    1.008    8.172
    242    C    -7.706    0.931    7.190
    243    N    -7.575    -0.010    6.261
    244    H    -6.818    -0.664    6.327
    245    H    -8.238    -0.127    5.521
    246    C    -7.153    5.055    9.929
    247    H    -6.280    4.766    9.308
    248    O    -6.713    5.571    11.176
    249    H    -6.257    6.419    11.027
    250    C    -8.051    6.033    9.180
    251    H    -8.176    5.712    8.123
    252    O    -7.627    7.405    9.257
    253    H    -6.798    7.521    8.761
 $END
