!*** FMO 5.3 (Gamess) INPUT generated by Facio 22.1.1.32 ***
 $CONTRL RUNTYP=ENERGY NPRINT=-5 ISPHER=1 MAXIT=200 $END
 $SYSTEM MWORDS=63 MEMDDI=63 $END
 $GDDI NGROUP=1 $END
 $SCF DIRSCF=.TRUE. NPUNCH=0 $END
!*** NumCPU : 2  MemPerNode : 512MB
 $PCM SOLVNT=WATER IEF=-10 ICOMP=2 ICAV=1 IDISP=1 IFMO=-1 $END
 $PCMCAV RADII=SUAHF $END
 $TESCAV NTSALL=60 $END
 $FMOPRP
    NAODIR=200
    NGRFMO(1)=1, 1, 0, 0, 0,   0, 0, 0, 0, 0
    IPIEDA=1
    NPRINT=9
 $END
 $FMO
      SCFTYP(1)=RHF
      MODGRD=10
      MODMUL=0
      MAXCAO=5
      MAXBND=15
      NLAYER=1
      MPLEVL(1)=2
      NFRAG=13
      ICHARG(1)=-1, -1, -1, -1, -1, 0, -1, -1, -1, -1, -1, -1, 0
      FRGNAM(1)=F1, F2, F3, F4, F5, F6, F7, F8, F9, F10, F11, F12, F13
      indat(1)=0
               1   -33   0
               34   -67   0
               68   -101   0
               102   -135   0
               136   -169   0
               170   -202   0
               203   -233   0
               234   -264   0
               265   -294   0
               295   -327   0
               328   -357   0
               358   -388   0
               389   -419   0
 $END

 $FMOBND
   -34   33       6-31G*    MINI
   -68   67       6-31G*    MINI
   -102   101       6-31G*    MINI
   -136   135       6-31G*    MINI
   -170   169       6-31G*    MINI
   -203   202       6-31G*    MINI
   -234   233       6-31G*    MINI
   -265   264       6-31G*    MINI
   -295   294       6-31G*    MINI
   -328   327       6-31G*    MINI
   -358   357       6-31G*    MINI
   -389   388       6-31G*    MINI
 $END
 $FMOHYB
 6-31G*      15   5
   1 0  -0.065034   0.288264   0.000000   0.000000   0.604412
         0.290129   0.000000   0.000000   0.319045  -0.017106
        -0.017106   0.057934   0.000000   0.000000   0.000000
   0 1  -0.065040   0.288293   0.569832   0.000000  -0.201456
         0.290147   0.300783   0.000000  -0.106342   0.049598
        -0.017106  -0.008771   0.000000  -0.027223   0.000000
   0 1  -0.065039   0.288293  -0.284916  -0.493490  -0.201455
         0.290145  -0.150392  -0.260486  -0.106340  -0.000427
         0.032923  -0.008771   0.033353   0.013612   0.023576
   0 1  -0.065039   0.288293  -0.284916   0.493490  -0.201455
         0.290145  -0.150392   0.260486  -0.106340  -0.000427
         0.032923  -0.008771  -0.033353   0.013612  -0.023576
   0 1   1.010938  -0.011975   0.000000   0.000000   0.000000
        -0.054085   0.000000   0.000000  -0.000000  -0.003174
        -0.003174  -0.003174   0.000000   0.000000   0.000000
 MINI         5   5
   1 0  -0.104883   0.308874   0.000000   0.000000   0.521806
   0 1  -0.104883   0.308874   0.491961   0.000000  -0.173934
   0 1  -0.104883   0.308876  -0.245980  -0.426050  -0.173933
   0 1  -0.104883   0.308876  -0.245980   0.426050  -0.173933
   0 1   0.988209   0.063992   0.000000   0.000000   0.000000
 $END
 
 $DATA
 FMO calculation
 C1 
 H.1-1    1
      N31 6
   
 O.1-1    8
      N31 6
      d 1
      1 0.800 1.0
   
 C.1-1    6
      N31 6
      d 1
      1 0.800 1.0
   
 N.1-1    7
      N31 6
      d 1
      1 0.800 1.0
   
 P.1-1   15
      N31 6
      d 1
      1 0.550 1.0
   
 $END
 $FMOXYZ
    1    H    10.305    11.910    -9.025
    2    O    9.417    12.318    -9.091
    3    C    9.588    13.733    -8.939
    4    H    10.322    14.098    -9.692
    5    H    10.001    13.931    -7.926
    6    C    8.278    14.513    -9.082
    7    H    8.433    15.594    -8.871
    8    O    7.790    14.405    -10.452
    9    C    6.374    14.269    -10.430
    10    H    5.983    15.091    -11.073
    11    N    5.905    12.967    -10.977
    12    C    6.772    11.900    -11.075
    13    H    7.795    12.075    -10.741
    14    C    6.378    10.726    -11.585
    15    H    7.053    9.879    -11.694
    16    C    4.581    12.818    -11.381
    17    O    3.803    13.779    -11.269
    18    N    4.171    11.647    -11.919
    19    C    5.027    10.614    -12.020
    20    N    4.603    9.475    -12.562
    21    H    3.646    9.386    -12.850
    22    H    5.212    8.692    -12.674
    23    C    5.915    14.504    -9.008
    24    H    4.995    13.939    -8.760
    25    O    5.694    15.884    -8.801
    26    H    5.427    15.983    -7.879
    27    C    7.114    14.004    -8.212
    28    H    7.149    12.890    -8.233
    29    O    7.233    14.545    -6.877
    30    P    6.561    13.800    -5.666
    31    O    6.952    12.375    -5.710
    32    O    6.898    14.536    -4.431
    33    O    5.019    13.945    -5.955
    34    C    4.396    15.245    -5.783
    35    H    4.918    16.032    -6.372
    36    H    4.431    15.557    -4.713
    37    C    2.924    15.223    -6.219
    38    H    2.469    16.232    -6.141
    39    O    2.812    14.804    -7.610
    40    C    1.676    13.957    -7.747
    41    H    1.038    14.413    -8.538
    42    N    2.051    12.601    -8.173
    43    C    1.217    11.683    -8.750
    44    N    -1.939    10.762    -9.845
    45    H    -2.489    11.565    -9.625
    46    H    -2.381    9.956    -10.251
    47    N    -0.091    11.856    -9.006
    48    C    -0.649    10.784    -9.557
    49    N    0.058    9.652    -9.866
    50    H    -0.432    8.892    -10.313
    51    C    1.413    9.449    -9.635
    52    O    1.966    8.394    -9.958
    53    C    2.003    10.576    -9.005
    54    N    3.306    10.784    -8.573
    55    C    3.286    11.999    -8.078
    56    H    4.139    12.516    -7.639
    57    C    0.926    13.965    -6.431
    58    H    0.415    13.000    -6.220
    59    O    -0.021    15.017    -6.416
    60    H    -0.370    15.072    -5.512
    61    C    2.053    14.227    -5.440
    62    H    2.669    13.309    -5.300
    63    O    1.640    14.814    -4.186
    64    P    1.089    13.865    -3.054
    65    O    1.996    12.703    -2.930
    66    O    0.871    14.682    -1.841
    67    O    -0.310    13.390    -3.597
    68    C    -0.948    12.219    -3.031
    69    H    -1.271    12.421    -1.983
    70    H    -0.250    11.350    -3.027
    71    C    -2.186    11.811    -3.848
    72    H    -2.946    12.623    -3.814
    73    O    -1.815    11.639    -5.250
    74    C    -2.503    10.525    -5.793
    75    H    -3.023    10.887    -6.709
    76    N    -1.563    9.450    -6.169
    77    C    -1.850    8.344    -6.926
    78    N    -4.128    6.401    -8.676
    79    H    -4.163    5.543    -9.182
    80    H    -4.956    6.968    -8.627
    81    N    -3.051    8.035    -7.446
    82    C    -3.030    6.893    -8.130
    83    N    -1.900    6.146    -8.310
    84    H    -1.967    5.307    -8.858
    85    C    -0.641    6.460    -7.818
    86    O    0.309    5.711    -8.062
    87    C    -0.656    7.655    -7.048
    88    N    0.369    8.307    -6.366
    89    C    -0.220    9.369    -5.860
    90    H    0.268    10.135    -5.251
    91    C    -3.532    10.080    -4.770
    92    H    -3.718    8.988    -4.810
    93    O    -4.754    10.769    -4.965
    94    H    -5.318    10.538    -4.216
    95    C    -2.865    10.485    -3.459
    96    H    -2.037    9.778    -3.216
    97    O    -3.784    10.695    -2.359
    98    P    -4.016    9.550    -1.302
    99    O    -2.717    8.897    -1.040
    100    O    -4.718    10.132    -0.135
    101    O    -4.942    8.513    -2.034
    102    C    -6.319    8.792    -2.364
    103    H    -6.418    9.744    -2.938
    104    H    -6.928    8.887    -1.437
    105    C    -6.913    7.658    -3.216
    106    H    -7.972    7.872    -3.478
    107    O    -6.161    7.563    -4.459
    108    C    -6.001    6.199    -4.817
    109    H    -6.403    6.097    -5.850
    110    N    -4.584    5.798    -4.820
    111    C    -4.042    4.696    -5.431
    112    N    -4.391    1.792    -7.287
    113    H    -3.824    1.046    -7.633
    114    H    -5.377    1.762    -7.453
    115    N    -4.719    3.769    -6.135
    116    C    -3.915    2.812    -6.603
    117    N    -2.557    2.814    -6.427
    118    H    -2.031    2.055    -6.828
    119    C    -1.834    3.767    -5.727
    120    O    -0.606    3.678    -5.637
    121    C    -2.681    4.775    -5.193
    122    N    -2.376    5.894    -4.433
    123    C    -3.538    6.465    -4.230
    124    H    -3.702    7.375    -3.652
    125    C    -6.839    5.375    -3.866
    126    H    -6.396    4.378    -3.664
    127    O    -8.146    5.222    -4.391
    128    H    -8.674    4.813    -3.693
    129    C    -6.837    6.242    -2.609
    130    H    -5.856    6.167    -2.086
    131    O    -7.958    6.016    -1.727
    132    P    -7.852    4.973    -0.553
    133    O    -6.676    5.307    0.280
    134    O    -9.148    4.957    0.165
    135    O    -7.582    3.596    -1.257
    136    C    -8.625    2.855    -1.922
    137    H    -9.110    3.465    -2.716
    138    H    -9.422    2.556    -1.205
    139    C    -8.068    1.580    -2.567
    140    H    -8.878    1.019    -3.086
    141    O    -7.065    1.921    -3.564
    142    C    -6.032    0.952    -3.535
    143    H    -5.948    0.546    -4.566
    144    N    -4.740    1.549    -3.152
    145    C    -3.500    1.012    -3.382
    146    N    -1.510    -1.572    -4.555
    147    H    -2.181    -2.244    -4.861
    148    H    -0.539    -1.827    -4.552
    149    N    -3.247    -0.166    -3.979
    150    C    -1.945    -0.436    -4.043
    151    N    -0.981    0.432    -3.603
    152    H    -0.017    0.147    -3.676
    153    C    -1.209    1.659    -2.993
    154    O    -0.269    2.372    -2.629
    155    C    -2.598    1.934    -2.887
    156    N    -3.259    3.024    -2.336
    157    C    -4.529    2.746    -2.502
    158    H    -5.363    3.379    -2.192
    159    C    -6.466    -0.153    -2.591
    160    H    -5.608    -0.628    -2.074
    161    O    -7.190    -1.140    -3.301
    162    H    -7.513    -1.769    -2.645
    163    C    -7.358    0.612    -1.618
    164    H    -6.730    1.243    -0.949
    165    O    -8.338    -0.185    -0.907
    166    P    -7.966    -0.676    0.549
    167    O    -7.348    0.424    1.324
    168    O    -9.158    -1.321    1.140
    169    O    -6.867    -1.774    0.292
    170    C    -7.265    -3.040    -0.285
    171    H    -7.758    -2.903    -1.276
    172    H    -7.986    -3.566    0.383
    173    C    -6.061    -3.963    -0.483
    174    H    -6.373    -4.937    -0.922
    175    O    -5.123    -3.343    -1.407
    176    C    -3.798    -3.618    -0.982
    177    H    -3.285    -4.118    -1.832
    178    N    -3.072    -2.380    -0.660
    179    C    -1.714    -2.240    -0.578
    180    N    1.460    -3.610    -0.751
    181    H    1.270    -4.573    -0.933
    182    H    2.412    -3.306    -0.657
    183    N    -0.811    -3.219    -0.748
    184    C    0.441    -2.781    -0.629
    185    N    0.753    -1.476    -0.352
    186    H    1.726    -1.229    -0.262
    187    C    -0.157    -0.446    -0.155
    188    O    0.219    0.704    0.094
    189    C    -1.496    -0.908    -0.276
    190    N    -2.699    -0.223    -0.162
    191    C    -3.607    -1.140    -0.394
    192    H    -4.686    -0.984    -0.367
    193    C    -3.875    -4.575    0.197
    194    H    -3.066    -4.396    0.939
    195    O    -3.815    -5.913    -0.275
    196    H    -4.039    -6.516    0.457
    197    C    -5.241    -4.234    0.785
    198    H    -5.193    -3.292    1.370
    199    O    -5.832    -5.294    1.561
    200    H    -5.349    -5.399    2.400
    201    H    10.103    1.076    -0.320
    202    O    9.420    0.418    -0.563
    203    C    10.043    -0.872    -0.464
    204    H    10.482    -0.983    0.554
    205    H    10.877    -0.925    -1.199
    206    C    9.086    -2.040    -0.732
    207    H    9.642    -3.004    -0.752
    208    O    8.091    -2.133    0.334
    209    C    6.832    -2.471    -0.236
    210    H    6.486    -3.386    0.302
    211    N    5.814    -1.394    -0.072
    212    C    6.203    -0.102    0.209
    213    H    7.277    0.067    0.310
    214    C    5.306    0.875    0.388
    215    H    5.601    1.889    0.651
    216    C    4.460    -1.686    -0.212
    217    O    4.117    -2.848    -0.471
    218    N    3.540    -0.708    -0.049
    219    C    3.927    0.541    0.266
    220    N    2.996    1.472    0.473
    221    H    2.027    1.236    0.366
    222    H    3.239    2.409    0.731
    223    C    7.075    -2.826    -1.690
    224    H    6.202    -2.600    -2.334
    225    O    7.411    -4.195    -1.811
    226    H    7.593    -4.351    -2.746
    227    C    8.263    -1.928    -2.024
    228    H    7.928    -0.867    -2.099
    229    O    9.064    -2.351    -3.155
    230    P    8.723    -1.759    -4.582
    231    O    8.575    -0.292    -4.474
    232    O    9.707    -2.253    -5.571
    233    O    7.321    -2.395    -4.905
    234    C    7.228    -3.810    -5.187
    235    H    7.674    -4.416    -4.367
    236    H    7.784    -4.059    -6.121
    237    C    5.771    -4.255    -5.376
    238    H    5.722    -5.351    -5.551
    239    O    4.983    -3.977    -4.178
    240    C    3.682    -3.532    -4.571
    241    H    2.963    -4.222    -4.070
    242    N    3.380    -2.132    -4.152
    243    C    4.399    -1.265    -3.837
    244    H    5.406    -1.672    -3.915
    245    C    4.156    -0.011    -3.434
    246    H    4.952    0.668    -3.134
    247    C    2.060    -1.687    -4.102
    248    O    1.146    -2.472    -4.400
    249    N    1.794    -0.418    -3.715
    250    C    2.796    0.406    -3.363
    251    N    2.500    1.632    -2.938
    252    H    1.541    1.909    -2.844
    253    H    3.207    2.303    -2.716
    254    C    3.569    -3.720    -6.070
    255    H    2.916    -2.960    -6.550
    256    O    3.094    -5.023    -6.367
    257    H    3.170    -5.127    -7.323
    258    C    5.016    -3.546    -6.507
    259    H    5.313    -2.472    -6.459
    260    O    5.338    -4.167    -7.767
    261    P    5.262    -3.328    -9.090
    262    O    5.957    -2.041    -8.882
    263    O    5.744    -4.174    -10.202
    264    O    3.742    -3.013    -9.282
    265    C    2.766    -4.003    -9.655
    266    H    2.806    -4.886    -8.978
    267    H    2.961    -4.356    -10.692
    268    C    1.339    -3.428    -9.600
    269    H    0.587    -4.232    -9.760
    270    O    1.075    -2.836    -8.284
    271    C    0.278    -1.665    -8.423
    272    H    -0.647    -1.859    -7.830
    273    N    0.974    -0.433    -7.910
    274    C    2.348    -0.354    -7.926
    275    H    2.856    -1.234    -8.308
    276    C    0.224    0.616    -7.413
    277    O    -1.004    0.593    -7.376
    278    N    0.950    1.693    -6.955
    279    H    0.440    2.447    -6.517
    280    C    2.321    1.800    -6.875
    281    O    2.833    2.784    -6.346
    282    C    3.031    0.692    -7.438
    283    H    4.118    0.698    -7.408
    284    C    -0.088    -1.553    -9.893
    285    H    -0.139    -0.502    -10.230
    286    O    -1.332    -2.182    -10.136
    287    H    -1.537    -2.032    -11.071
    288    C    1.060    -2.287    -10.584
    289    H    1.975    -1.643    -10.580
    290    O    0.721    -2.812    -11.892
    291    P    1.625    -2.430    -13.121
    292    O    1.660    -0.951    -13.225
    293    O    2.926    -3.116    -13.008
    294    O    0.839    -3.060    -14.337
    295    C    0.961    -2.437    -15.639
    296    H    2.025    -2.224    -15.895
    297    H    0.401    -1.473    -15.649
    298    C    0.383    -3.316    -16.760
    299    H    0.352    -2.754    -17.718
    300    O    1.247    -4.469    -16.979
    301    C    0.456    -5.626    -17.210
    302    H    0.801    -6.062    -18.179
    303    N    0.647    -6.623    -16.148
    304    C    0.674    -8.500    -15.000
    305    N    1.338    -7.557    -14.217
    306    C    1.287    -6.460    -14.939
    307    H    1.704    -5.491    -14.650
    308    N    -0.314    -10.515    -15.775
    309    C    -0.685    -9.822    -16.857
    310    H    -1.251    -10.388    -17.607
    311    N    -0.437    -8.546    -17.174
    312    C    0.246    -7.935    -16.189
    313    C    0.393    -9.872    -14.809
    314    N    0.798    -10.569    -13.730
    315    H    1.256    -10.122    -12.954
    316    H    0.511    -11.525    -13.617
    317    C    -0.989    -5.182    -17.345
    318    H    -1.703    -5.932    -16.942
    319    O    -1.293    -4.928    -18.705
    320    H    -2.143    -4.457    -18.742
    321    C    -1.008    -3.912    -16.500
    322    H    -1.022    -4.204    -15.424
    323    O    -2.050    -2.971    -16.865
    324    P    -3.116    -2.490    -15.805
    325    O    -4.396    -2.259    -16.505
    326    O    -3.170    -3.470    -14.696
    327    O    -2.570    -1.094    -15.324
    328    C    -1.972    -0.848    -14.041
    329    H    -1.008    -0.314    -14.187
    330    H    -1.721    -1.791    -13.502
    331    C    -2.889    0.016    -13.166
    332    H    -3.897    -0.437    -13.068
    333    O    -2.305    0.066    -11.834
    334    C    -2.438    1.373    -11.285
    335    H    -2.973    1.240    -10.315
    336    N    -1.107    2.019    -11.044
    337    C    0.039    1.539    -11.655
    338    H    -0.087    0.663    -12.298
    339    C    -1.037    3.085    -10.170
    340    O    -2.025    3.559    -9.612
    341    N    0.222    3.587    -9.958
    342    H    0.313    4.353    -9.304
    343    C    1.407    3.123    -10.486
    344    O    2.469    3.642    -10.155
    345    C    1.259    2.028    -11.395
    346    H    2.151    1.586    -11.836
    347    C    -3.320    2.169    -12.233
    348    H    -3.040    3.240    -12.260
    349    O    -4.680    2.054    -11.865
    350    H    -5.197    2.399    -12.607
    351    C    -3.043    1.491    -13.570
    352    H    -2.031    1.793    -13.933
    353    O    -4.106    1.646    -14.552
    354    P    -3.890    2.679    -15.722
    355    O    -2.441    2.799    -16.002
    356    O    -4.752    2.370    -16.884
    357    O    -4.368    4.039    -15.083
    358    C    -5.760    4.252    -14.747
    359    H    -6.164    3.420    -14.122
    360    H    -6.374    4.306    -15.676
    361    C    -5.970    5.562    -13.973
    362    H    -7.052    5.746    -13.797
    363    O    -5.342    5.458    -12.667
    364    C    -4.787    6.717    -12.309
    365    H    -5.259    6.995    -11.337
    366    N    -3.306    6.652    -12.140
    367    C    -2.586    5.695    -12.818
    368    H    -3.171    4.999    -13.419
    369    C    -1.258    5.591    -12.687
    370    H    -0.684    4.807    -13.174
    371    C    -2.629    7.614    -11.397
    372    O    -3.265    8.553    -10.894
    373    N    -1.293    7.496    -11.211
    374    C    -0.604    6.527    -11.841
    375    N    0.708    6.427    -11.641
    376    H    1.171    7.109    -11.068
    377    H    1.277    5.780    -12.156
    378    C    -5.211    7.723    -13.363
    379    H    -4.452    8.513    -13.523
    380    O    -6.440    8.326    -13.010
    381    H    -6.713    8.860    -13.765
    382    C    -5.359    6.830    -14.589
    383    H    -4.351    6.543    -14.969
    384    O    -6.237    7.348    -15.614
    385    P    -5.615    8.045    -16.880
    386    O    -4.442    7.275    -17.340
    387    O    -6.689    8.279    -17.870
    388    O    -5.113    9.425    -16.304
    389    C    -6.080    10.415    -15.882
    390    H    -6.789    9.998    -15.130
    391    H    -6.681    10.768    -16.754
    392    C    -5.390    11.634    -15.261
    393    H    -6.130    12.425    -15.008
    394    O    -4.731    11.249    -14.020
    395    C    -3.510    11.970    -13.902
    396    H    -3.544    12.510    -12.930
    397    N    -2.352    11.066    -13.898
    398    C    -1.101    11.359    -13.428
    399    N    1.149    13.605    -12.056
    400    H    0.600    14.430    -11.952
    401    H    2.115    13.623    -11.781
    402    N    -0.711    12.533    -12.899
    403    C    0.576    12.527    -12.552
    404    N    1.382    11.426    -12.681
    405    H    2.351    11.513    -12.414
    406    C    1.006    10.204    -13.223
    407    O    1.805    9.266    -13.310
    408    C    -0.354    10.212    -13.624
    409    N    -1.112    9.227    -14.243
    410    C    -2.294    9.779    -14.383
    411    H    -3.168    9.304    -14.831
    412    C    -3.447    12.973    -15.045
    413    H    -2.407    13.134    -15.400
    414    O    -4.017    14.210    -14.641
    415    H    -4.095    14.795    -15.413
    416    C    -4.275    12.260    -16.109
    417    H    -3.683    11.440    -16.573
    418    O    -4.826    13.126    -17.115
    419    H    -4.114    13.511    -17.654
 $END
