!*** FMO 5.3 (Gamess) INPUT generated by Facio 22.1.1.32 ***
 $CONTRL RUNTYP=ENERGY NPRINT=-5 ISPHER=1 MAXIT=200 $END
 $SYSTEM MWORDS=63 MEMDDI=63 $END
 $GDDI NGROUP=1 $END
 $SCF DIRSCF=.TRUE. NPUNCH=0 $END
!*** NumCPU : 2  MemPerNode : 512MB
 $PCM SOLVNT=WATER IEF=-10 ICOMP=2 ICAV=1 IDISP=1 IFMO=-1 $END
 $PCMCAV RADII=SUAHF $END
 $TESCAV NTSALL=60 $END
 $FMOPRP
    NAODIR=200
    NGRFMO(1)=1, 1, 0, 0, 0,   0, 0, 0, 0, 0
    IPIEDA=1
    NPRINT=9
 $END
 $FMO
      SCFTYP(1)=RHF
      MODGRD=10
      MODMUL=0
      MAXCAO=5
      MAXBND=15
      NLAYER=1
      MPLEVL(1)=2
      NFRAG=13
      ICHARG(1)=-1, -1, -1, -1, -1, 0, -1, -1, -1, -1, -1, -1, 0
      FRGNAM(1)=F1, F2, F3, F4, F5, F6, F7, F8, F9, F10, F11, F12, F13
      indat(1)=0
               1   -33   0
               34   -67   0
               68   -101   0
               102   -135   0
               136   -169   0
               170   -202   0
               203   -233   0
               234   -264   0
               265   -294   0
               295   -327   0
               328   -357   0
               358   -388   0
               389   -419   0
 $END

 $FMOBND
   -34   33       6-31G*    MINI
   -68   67       6-31G*    MINI
   -102   101       6-31G*    MINI
   -136   135       6-31G*    MINI
   -170   169       6-31G*    MINI
   -203   202       6-31G*    MINI
   -234   233       6-31G*    MINI
   -265   264       6-31G*    MINI
   -295   294       6-31G*    MINI
   -328   327       6-31G*    MINI
   -358   357       6-31G*    MINI
   -389   388       6-31G*    MINI
 $END
 $FMOHYB
 6-31G*      15   5
   1 0  -0.065034   0.288264   0.000000   0.000000   0.604412
         0.290129   0.000000   0.000000   0.319045  -0.017106
        -0.017106   0.057934   0.000000   0.000000   0.000000
   0 1  -0.065040   0.288293   0.569832   0.000000  -0.201456
         0.290147   0.300783   0.000000  -0.106342   0.049598
        -0.017106  -0.008771   0.000000  -0.027223   0.000000
   0 1  -0.065039   0.288293  -0.284916  -0.493490  -0.201455
         0.290145  -0.150392  -0.260486  -0.106340  -0.000427
         0.032923  -0.008771   0.033353   0.013612   0.023576
   0 1  -0.065039   0.288293  -0.284916   0.493490  -0.201455
         0.290145  -0.150392   0.260486  -0.106340  -0.000427
         0.032923  -0.008771  -0.033353   0.013612  -0.023576
   0 1   1.010938  -0.011975   0.000000   0.000000   0.000000
        -0.054085   0.000000   0.000000  -0.000000  -0.003174
        -0.003174  -0.003174   0.000000   0.000000   0.000000
 MINI         5   5
   1 0  -0.104883   0.308874   0.000000   0.000000   0.521806
   0 1  -0.104883   0.308874   0.491961   0.000000  -0.173934
   0 1  -0.104883   0.308876  -0.245980  -0.426050  -0.173933
   0 1  -0.104883   0.308876  -0.245980   0.426050  -0.173933
   0 1   0.988209   0.063992   0.000000   0.000000   0.000000
 $END
 
 $DATA
 FMO calculation
 C1 
 H.1-1    1
      N31 6
   
 O.1-1    8
      N31 6
      d 1
      1 0.800 1.0
   
 C.1-1    6
      N31 6
      d 1
      1 0.800 1.0
   
 N.1-1    7
      N31 6
      d 1
      1 0.800 1.0
   
 P.1-1   15
      N31 6
      d 1
      1 0.550 1.0
   
 $END
 $FMOXYZ
    1    H    10.272    7.700    -8.609
    2    O    9.552    8.343    -8.759
    3    C    10.022    9.604    -8.261
    4    H    10.928    9.906    -8.831
    5    H    10.314    9.482    -7.194
    6    C    8.981    10.726    -8.359
    7    H    9.371    11.670    -7.916
    8    O    8.672    11.007    -9.759
    9    C    7.274    11.245    -9.881
    10    H    7.184    12.240    -10.374
    11    N    6.577    10.234    -10.722
    12    C    7.157    9.009    -10.961
    13    H    8.137    8.843    -10.511
    14    C    6.561    8.093    -11.735
    15    H    7.018    7.133    -11.958
    16    C    5.323    10.519    -11.257
    17    O    4.796    11.616    -11.012
    18    N    4.711    9.612    -12.052
    19    C    5.297    8.426    -12.300
    20    N    4.683    7.557    -13.103
    21    H    3.772    7.773    -13.463
    22    H    5.094    6.675    -13.339
    23    C    6.703    11.342    -8.483
    24    H    5.647    11.015    -8.430
    25    O    6.809    12.671    -8.015
    26    H    6.415    12.678    -7.135
    27    C    7.625    10.404    -7.710
    28    H    7.389    9.343    -7.958
    29    O    7.702    10.640    -6.285
    30    P    6.686    9.927    -5.316
    31    O    6.653    8.483    -5.628
    32    O    7.010    10.307    -3.923
    33    O    5.308    10.577    -5.703
    34    C    5.025    11.934    -5.286
    35    H    5.794    12.646    -5.662
    36    H    5.020    12.019    -4.173
    37    C    3.659    12.387    -5.805
    38    H    3.457    13.443    -5.525
    39    O    3.631    12.299    -7.259
    40    C    2.342    11.877    -7.678
    41    H    1.965    12.652    -8.380
    42    N    2.388    10.584    -8.381
    43    C    1.428    10.082    -9.222
    44    N    -1.686    10.310    -10.748
    45    H    -2.047    11.181    -10.420
    46    H    -2.247    9.756    -11.369
    47    N    0.261    10.682    -9.544
    48    C    -0.484    9.926    -10.356
    49    N    -0.057    8.730    -10.866
    50    H    -0.663    8.239    -11.505
    51    C    1.151    8.112    -10.582
    52    O    1.425    7.031    -11.104
    53    C    1.926    8.871    -9.666
    54    N    3.166    8.604    -9.095
    55    C    3.394    9.645    -8.332
    56    H    4.278    9.796    -7.711
    57    C    1.460    11.833    -6.452
    58    H    0.697    11.031    -6.510
    59    O    0.834    13.088    -6.266
    60    H    0.368    13.031    -5.424
    61    C    2.468    11.540    -5.346
    62    H    2.798    10.476    -5.400
    63    O    2.051    11.944    -4.018
    64    P    1.331    10.883    -3.098
    65    O    2.085    9.615    -3.173
    66    O    1.124    11.451    -1.749
    67    O    -0.067    10.658    -3.779
    68    C    -1.098    11.670    -3.783
    69    H    -0.699    12.658    -4.107
    70    H    -1.515    11.795    -2.761
    71    C    -2.247    11.291    -4.731
    72    H    -2.985    12.120    -4.816
    73    O    -1.704    11.053    -6.062
    74    C    -2.371    9.962    -6.663
    75    H    -2.764    10.334    -7.637
    76    N    -1.461    8.833    -6.919
    77    C    -1.658    7.836    -7.834
    78    N    -3.632    6.327    -10.234
    79    H    -3.522    5.668    -10.966
    80    H    -4.414    6.962    -10.250
    81    N    -2.721    7.705    -8.644
    82    C    -2.644    6.630    -9.412
    83    N    -1.557    5.795    -9.425
    84    H    -1.597    4.947    -9.967
    85    C    -0.449    5.895    -8.594
    86    O    0.475    5.080    -8.657
    87    C    -0.537    7.032    -7.754
    88    N    0.348    7.511    -6.803
    89    C    -0.248    8.573    -6.320
    90    H    0.150    9.216    -5.537
    91    C    -3.520    9.592    -5.763
    92    H    -3.751    8.511    -5.798
    93    O    -4.661    10.345    -6.132
    94    H    -5.293    10.292    -5.399
    95    C    -3.000    9.996    -4.390
    96    H    -2.241    9.266    -4.022
    97    O    -4.040    10.260    -3.425
    98    P    -4.525    9.140    -2.432
    99    O    -3.390    8.771    -1.557
    100    O    -5.756    9.618    -1.765
    101    O    -4.874    7.886    -3.319
    102    C    -6.063    7.833    -4.141
    103    H    -6.115    8.698    -4.835
    104    H    -6.980    7.859    -3.509
    105    C    -6.117    6.545    -4.979
    106    H    -7.061    6.492    -5.562
    107    O    -5.021    6.522    -5.943
    108    C    -4.468    5.221    -5.994
    109    H    -4.435    4.943    -7.070
    110    N    -3.090    5.194    -5.462
    111    C    -2.132    4.252    -5.732
    112    N    -1.117    1.326    -7.268
    113    H    -0.281    0.780    -7.282
    114    H    -1.874    1.044    -7.864
    115    N    -2.287    3.170    -6.519
    116    C    -1.174    2.446    -6.582
    117    N    0.001    2.800    -5.984
    118    H    0.777    2.176    -6.091
    119    C    0.198    3.914    -5.185
    120    O    1.305    4.144    -4.690
    121    C    -0.996    4.675    -5.059
    122    N    -1.243    5.849    -4.359
    123    C    -2.495    6.121    -4.630
    124    H    -3.032    7.000    -4.285
    125    C    -5.426    4.303    -5.257
    126    H    -4.926    3.420    -4.815
    127    O    -6.449    3.881    -6.147
    128    H    -6.305    2.956    -6.384
    129    C    -5.968    5.240    -4.185
    130    H    -5.184    5.431    -3.416
    131    O    -7.243    4.853    -3.608
    132    P    -7.224    3.967    -2.303
    133    O    -6.201    4.515    -1.386
    134    O    -8.599    3.851    -1.762
    135    O    -6.735    2.545    -2.776
    136    C    -7.619    1.702    -3.546
    137    H    -7.909    2.196    -4.503
    138    H    -8.551    1.481    -2.975
    139    C    -6.955    0.366    -3.893
    140    H    -7.660    -0.293    -4.449
    141    O    -5.818    0.600    -4.779
    142    C    -4.777    -0.304    -4.442
    143    H    -4.508    -0.843    -5.379
    144    N    -3.585    0.397    -3.931
    145    C    -2.318    -0.116    -3.880
    146    N    -0.119    -2.743    -4.387
    147    H    -0.706    -3.465    -4.746
    148    H    0.854    -2.939    -4.233
    149    N    -1.955    -1.351    -4.264
    150    C    -0.652    -1.568    -4.100
    151    N    0.212    -0.621    -3.619
    152    H    1.186    -0.865    -3.534
    153    C    -0.131    0.665    -3.227
    154    O    0.725    1.456    -2.820
    155    C    -1.526    0.896    -3.371
    156    N    -2.289    2.019    -3.074
    157    C    -3.509    1.670    -3.409
    158    H    -4.400    2.289    -3.296
    159    C    -5.336    -1.287    -3.438
    160    H    -4.565    -1.666    -2.741
    161    O    -5.937    -2.378    -4.103
    162    H    -6.264    -2.957    -3.404
    163    C    -6.381    -0.441    -2.720
    164    H    -5.892    0.289    -2.037
    165    O    -7.438    -1.192    -2.080
    166    P    -7.309    -1.572    -0.561
    167    O    -6.834    -0.393    0.194
    168    O    -8.580    -2.187    -0.116
    169    O    -6.169    -2.664    -0.555
    170    C    -6.434    -3.979    -1.101
    171    H    -6.791    -3.931    -2.157
    172    H    -7.229    -4.497    -0.511
    173    C    -5.182    -4.858    -1.056
    174    H    -5.390    -5.873    -1.458
    175    O    -4.129    -4.272    -1.874
    176    C    -2.879    -4.471    -1.229
    177    H    -2.230    -5.009    -1.956
    178    N    -2.242    -3.190    -0.890
    179    C    -0.915    -3.000    -0.622
    180    N    2.283    -4.269    -0.238
    181    H    2.148    -5.249    -0.367
    182    H    3.203    -3.926    -0.027
    183    N    0.027    -3.958    -0.591
    184    C    1.236    -3.469    -0.320
    185    N    1.473    -2.138    -0.095
    186    H    2.418    -1.852    0.108
    187    C    0.519    -1.128    -0.110
    188    O    0.818    0.050    0.111
    189    C    -0.773    -1.643    -0.396
    190    N    -1.996    -0.994    -0.494
    191    C    -2.841    -1.955    -0.781
    192    H    -3.917    -1.833    -0.915
    193    C    -3.112    -5.352    -0.014
    194    H    -2.428    -5.100    0.826
    195    O    -2.955    -6.716    -0.372
    196    H    -3.301    -7.272    0.347
    197    C    -4.555    -5.010    0.337
    198    H    -4.609    -4.027    0.852
    199    O    -5.236    -6.023    1.098
    200    H    -4.843    -6.086    1.986
    201    H    10.663    0.703    1.125
    202    O    10.026    0.014    0.853
    203    C    10.658    -1.247    1.117
    204    H    10.943    -1.294    2.193
    205    H    11.595    -1.319    0.519
    206    C    9.779    -2.458    0.786
    207    H    10.358    -3.400    0.907
    208    O    8.649    -2.529    1.708
    209    C    7.493    -2.945    0.989
    210    H    7.093    -3.832    1.533
    211    N    6.439    -1.892    0.920
    212    C    6.754    -0.570    1.148
    213    H    7.795    -0.357    1.396
    214    C    5.818    0.387    1.112
    215    H    6.047    1.428    1.334
    216    C    5.130    -2.240    0.600
    217    O    4.856    -3.430    0.380
    218    N    4.175    -1.284    0.546
    219    C    4.483    -0.003    0.816
    220    N    3.512    0.908    0.818
    221    H    2.573    0.635    0.596
    222    H    3.689    1.862    1.066
    223    C    7.956    -3.384    -0.386
    224    H    7.179    -3.239    -1.163
    225    O    8.355    -4.741    -0.353
    226    H    8.651    -4.958    -1.246
    227    C    9.146    -2.460    -0.615
    228    H    8.795    -1.419    -0.813
    229    O    10.108    -2.927    -1.591
    230    P    9.999    -2.438    -3.083
    231    O    9.729    -0.987    -3.093
    232    O    11.197    -2.897    -3.818
    233    O    8.727    -3.179    -3.634
    234    C    8.707    -4.617    -3.784
    235    H    9.063    -5.130    -2.862
    236    H    9.380    -4.921    -4.618
    237    C    7.293    -5.136    -4.097
    238    H    7.284    -6.241    -4.161
    239    O    6.370    -4.763    -3.035
    240    C    5.106    -4.430    -3.600
    241    H    4.371    -5.118    -3.119
    242    N    4.694    -3.021    -3.341
    243    C    5.636    -2.074    -3.010
    244    H    6.663    -2.431    -2.939
    245    C    5.295    -0.805    -2.756
    246    H    6.026    -0.053    -2.458
    247    C    3.360    -2.643    -3.490
    248    O    2.523    -3.492    -3.834
    249    N    2.997    -1.361    -3.247
    250    C    3.919    -0.457    -2.873
    251    N    3.529    0.790    -2.618
    252    H    2.554    1.023    -2.664
    253    H    4.168    1.499    -2.323
    254    C    5.175    -4.742    -5.081
    255    H    4.572    -4.038    -5.689
    256    O    4.755    -6.071    -5.327
    257    H    4.924    -6.252    -6.265
    258    C    6.660    -4.566    -5.370
    259    H    6.927    -3.484    -5.387
    260    O    7.146    -5.285    -6.527
    261    P    6.947    -4.619    -7.939
    262    O    7.342    -3.198    -7.834
    263    O    7.676    -5.420    -8.945
    264    O    5.407    -4.740    -8.236
    265    C    4.800    -3.881    -9.241
    266    H    4.804    -4.395    -10.228
    267    H    5.350    -2.917    -9.367
    268    C    3.335    -3.522    -8.891
    269    H    2.676    -4.396    -9.067
    270    O    3.197    -3.190    -7.474
    271    C    2.413    -2.023    -7.318
    272    H    1.655    -2.265    -6.538
    273    N    3.251    -0.854    -6.877
    274    C    4.633    -0.918    -6.845
    275    H    5.080    -1.856    -7.186
    276    C    2.605    0.276    -6.434
    277    O    1.381    0.356    -6.398
    278    N    3.412    1.304    -6.017
    279    H    2.965    2.150    -5.713
    280    C    4.787    1.302    -5.952
    281    O    5.386    2.290    -5.532
    282    C    5.397    0.088    -6.396
    283    H    6.482    0.020    -6.372
    284    C    1.708    -1.789    -8.650
    285    H    1.502    -0.711    -8.824
    286    O    0.496    -2.526    -8.741
    287    H    0.223    -2.484    -9.668
    288    C    2.753    -2.310    -9.638
    289    H    3.580    -1.570    -9.736
    290    O    2.246    -2.722    -10.933
    291    P    1.722    -1.602    -11.910
    292    O    1.912    -0.281    -11.276
    293    O    2.351    -1.793    -13.235
    294    O    0.165    -1.901    -11.985
    295    C    -0.298    -3.023    -12.781
    296    H    -0.070    -3.977    -12.254
    297    H    0.214    -3.060    -13.769
    298    C    -1.812    -2.982    -13.058
    299    H    -2.123    -3.860    -13.664
    300    O    -2.529    -3.074    -11.796
    301    C    -3.684    -2.255    -11.845
    302    H    -4.551    -2.915    -11.610
    303    N    -3.624    -1.196    -10.842
    304    C    -4.156    0.397    -9.431
    305    N    -2.800    0.173    -9.271
    306    C    -2.527    -0.777    -10.129
    307    H    -1.540    -1.217    -10.292
    308    N    -6.325    1.324    -9.261
    309    C    -6.683    0.467    -10.224
    310    H    -7.730    0.532    -10.543
    311    N    -5.940    -0.452    -10.852
    312    C    -4.677    -0.436    -10.401
    313    C    -5.040    1.317    -8.835
    314    N    -4.670    2.241    -7.937
    315    H    -3.753    2.285    -7.520
    316    H    -5.315    2.969    -7.731
    317    C    -3.819    -1.715    -13.250
    318    H    -4.242    -0.690    -13.273
    319    O    -4.635    -2.583    -14.012
    320    H    -4.573    -2.288    -14.930
    321    C    -2.377    -1.719    -13.743
    322    H    -1.815    -0.859    -13.308
    323    O    -2.257    -1.816    -15.185
    324    P    -1.842    -0.573    -16.052
    325    O    -0.764    0.157    -15.356
    326    O    -1.572    -1.015    -17.440
    327    O    -3.110    0.347    -16.049
    328    C    -4.389    -0.016    -16.599
    329    H    -4.662    -1.066    -16.338
    330    H    -4.352    0.060    -17.709
    331    C    -5.507    0.920    -16.088
    332    H    -6.477    0.664    -16.565
    333    O    -5.673    0.735    -14.653
    334    C    -5.928    1.985    -14.026
    335    H    -6.892    1.851    -13.481
    336    N    -4.854    2.363    -13.074
    337    C    -3.559    1.941    -13.255
    338    H    -3.396    1.325    -14.129
    339    C    -5.196    3.133    -11.993
    340    O    -6.337    3.542    -11.802
    341    N    -4.170    3.419    -11.136
    342    H    -4.468    3.871    -10.290
    343    C    -2.866    2.973    -11.219
    344    O    -2.061    3.277    -10.350
    345    C    -2.577    2.201    -12.385
    346    H    -1.566    1.827    -12.533
    347    C    -6.122    3.009    -15.123
    348    H    -5.766    4.021    -14.833
    349    O    -7.492    3.062    -15.480
    350    H    -7.549    3.537    -16.321
    351    C    -5.269    2.434    -16.249
    352    H    -4.189    2.615    -16.040
    353    O    -5.664    2.864    -17.570
    354    P    -4.936    4.086    -18.243
    355    O    -3.488    3.794    -18.314
    356    O    -5.616    4.384    -19.521
    357    O    -5.152    5.270    -17.222
    358    C    -6.439    5.923    -17.102
    359    H    -7.219    5.220    -16.736
    360    H    -6.786    6.309    -18.086
    361    C    -6.404    7.114    -16.132
    362    H    -7.408    7.597    -16.085
    363    O    -6.085    6.662    -14.782
    364    C    -5.229    7.621    -14.162
    365    H    -5.728    7.905    -13.205
    366    N    -3.871    7.078    -13.856
    367    C    -3.446    5.915    -14.457
    368    H    -4.145    5.450    -15.153
    369    C    -2.247    5.387    -14.187
    370    H    -1.906    4.465    -14.653
    371    C    -3.010    7.759    -12.995
    372    O    -3.378    8.830    -12.491
    373    N    -1.802    7.226    -12.693
    374    C    -1.406    6.081    -13.273
    375    N    -0.225    5.568    -12.947
    376    H    0.389    6.088    -12.348
    377    H    0.136    4.734    -13.369
    378    C    -5.180    8.833    -15.072
    379    H    -4.219    9.382    -15.008
    380    O    -6.248    9.710    -14.768
    381    H    -6.202    10.429    -15.410
    382    C    -5.359    8.191    -16.443
    383    H    -4.431    7.650    -16.739
    384    O    -5.859    9.072    -17.472
    385    P    -4.859    9.729    -18.491
    386    O    -3.865    8.730    -18.927
    387    O    -5.631    10.406    -19.556
    388    O    -4.133    10.803    -17.603
    389    C    -4.872    11.937    -17.090
    390    H    -5.769    11.616    -16.515
    391    H    -5.221    12.585    -17.927
    392    C    -3.996    12.789    -16.163
    393    H    -4.545    13.690    -15.812
    394    O    -3.624    12.018    -14.984
    395    C    -2.289    12.347    -14.617
    396    H    -2.325    12.700    -13.561
    397    N    -1.402    11.179    -14.698
    398    C    -0.186    11.044    -14.083
    399    N    2.331    12.328    -12.081
    400    H    1.989    13.242    -11.861
    401    H    3.210    12.029    -11.699
    402    N    0.417    11.966    -13.311
    403    C    1.593    11.549    -12.848
    404    N    2.108    10.310    -13.123
    405    H    3.013    10.077    -12.744
    406    C    1.524    9.349    -13.941
    407    O    2.076    8.265    -14.157
    408    C    0.272    9.791    -14.444
    409    N    -0.633    9.154    -15.283
    410    C    -1.610    10.019    -15.410
    411    H    -2.510    9.876    -16.012
    412    C    -1.825    13.481    -15.514
    413    H    -0.738    13.412    -15.747
    414    O    -2.110    14.729    -14.904
    415    H    -2.005    15.434    -15.568
    416    C    -2.659    13.239    -16.764
    417    H    -2.236    12.391    -17.348
    418    O    -2.829    14.396    -17.604
    419    H    -1.985    14.617    -18.037
 $END
