!*** FMO 5.3 (Gamess) INPUT generated by Facio 22.1.1.32 ***
 $CONTRL RUNTYP=ENERGY NPRINT=-5 ISPHER=1 MAXIT=200 $END
 $SYSTEM MWORDS=63 MEMDDI=63 $END
 $GDDI NGROUP=1 $END
 $SCF DIRSCF=.TRUE. NPUNCH=0 $END
!*** NumCPU : 2  MemPerNode : 512MB
 $PCM SOLVNT=WATER IEF=-10 ICOMP=2 ICAV=1 IDISP=1 IFMO=-1 $END
 $PCMCAV RADII=SUAHF $END
 $TESCAV NTSALL=60 $END
 $FMOPRP
    NAODIR=200
    NGRFMO(1)=1, 1, 0, 0, 0,   0, 0, 0, 0, 0
    IPIEDA=1
    NPRINT=9
 $END
 $FMO
      SCFTYP(1)=RHF
      MODGRD=10
      MODMUL=0
      MAXCAO=5
      MAXBND=12
      NLAYER=1
      MPLEVL(1)=2
      NFRAG=10
      ICHARG(1)=-1, -1, -1, -1, -1, -1, -1, -1, -1, 0
      FRGNAM(1)=F1, F2, F3, F4, F5, F6, F7, F8, F9, F10
      indat(1)=0
               1   -36   0
               37   -67   0
               68   -98   0
               99   -128   0
               129   -162   0
               163   -196   0
               197   -230   0
               231   -263   0
               264   -297   0
               298   -325   0
 $END

 $FMOBND
   -37   36       6-31G*    MINI
   -68   67       6-31G*    MINI
   -99   98       6-31G*    MINI
   -129   128       6-31G*    MINI
   -163   162       6-31G*    MINI
   -197   196       6-31G*    MINI
   -231   230       6-31G*    MINI
   -264   263       6-31G*    MINI
   -298   297       6-31G*    MINI
 $END
 $FMOHYB
 6-31G*      15   5
   1 0  -0.065034   0.288264   0.000000   0.000000   0.604412
         0.290129   0.000000   0.000000   0.319045  -0.017106
        -0.017106   0.057934   0.000000   0.000000   0.000000
   0 1  -0.065040   0.288293   0.569832   0.000000  -0.201456
         0.290147   0.300783   0.000000  -0.106342   0.049598
        -0.017106  -0.008771   0.000000  -0.027223   0.000000
   0 1  -0.065039   0.288293  -0.284916  -0.493490  -0.201455
         0.290145  -0.150392  -0.260486  -0.106340  -0.000427
         0.032923  -0.008771   0.033353   0.013612   0.023576
   0 1  -0.065039   0.288293  -0.284916   0.493490  -0.201455
         0.290145  -0.150392   0.260486  -0.106340  -0.000427
         0.032923  -0.008771  -0.033353   0.013612  -0.023576
   0 1   1.010938  -0.011975   0.000000   0.000000   0.000000
        -0.054085   0.000000   0.000000  -0.000000  -0.003174
        -0.003174  -0.003174   0.000000   0.000000   0.000000
 MINI         5   5
   1 0  -0.104883   0.308874   0.000000   0.000000   0.521806
   0 1  -0.104883   0.308874   0.491961   0.000000  -0.173934
   0 1  -0.104883   0.308876  -0.245980  -0.426050  -0.173933
   0 1  -0.104883   0.308876  -0.245980   0.426050  -0.173933
   0 1   0.988209   0.063992   0.000000   0.000000   0.000000
 $END
 
 $DATA
 FMO calculation
 C1 
 H.1-1    1
      N31 6
   
 O.1-1    8
      N31 6
      d 1
      1 0.800 1.0
   
 C.1-1    6
      N31 6
      d 1
      1 0.800 1.0
   
 N.1-1    7
      N31 6
      d 1
      1 0.800 1.0
   
 P.1-1   15
      N31 6
      d 1
      1 0.550 1.0
   
 $END
 $FMOXYZ
    1    H    -5.241    -1.625    8.120
    2    O    -6.147    -1.271    8.024
    3    C    -6.200    -0.029    8.745
    4    H    -5.430    0.665    8.335
    5    H    -5.958    -0.217    9.812
    6    C    -7.571    0.653    8.684
    7    H    -7.577    1.587    9.283
    8    O    -7.883    1.016    7.308
    9    C    -9.270    0.812    7.076
    10    H    -9.670    1.781    6.699
    11    N    -9.499    -0.221    6.055
    12    C    -10.658    -0.423    5.359
    13    N    -13.938    0.444    4.688
    14    H    -14.106    1.187    5.333
    15    H    -14.679    0.149    4.078
    16    N    -11.795    0.276    5.507
    17    C    -12.750    -0.126    4.674
    18    N    -12.571    -1.128    3.756
    19    H    -13.343    -1.362    3.152
    20    C    -11.402    -1.854    3.565
    21    O    -11.328    -2.736    2.702
    22    C    -10.391    -1.456    4.481
    23    N    -9.090    -1.918    4.644
    24    C    -8.597    -1.152    5.591
    25    H    -7.584    -1.207    5.996
    26    C    -9.908    0.473    8.404
    27    H    -10.787    -0.197    8.300
    28    O    -10.286    1.661    9.069
    29    H    -10.512    1.398    9.970
    30    C    -8.757    -0.216    9.130
    31    H    -8.589    -1.227    8.702
    32    O    -8.852    -0.223    10.573
    33    P    -9.579    -1.418    11.305
    34    O    -8.982    -2.697    10.859
    35    O    -9.574    -1.153    12.758
    36    O    -11.061    -1.334    10.775
    37    C    -11.937    -0.279    11.257
    38    H    -11.533    0.732    11.024
    39    H    -12.047    -0.338    12.366
    40    C    -13.347    -0.386    10.653
    41    H    -14.007    0.426    11.024
    42    O    -13.295    -0.268    9.204
    43    C    -14.251    -1.154    8.628
    44    H    -14.933    -0.497    8.038
    45    N    -13.642    -2.151    7.706
    46    C    -12.316    -2.484    7.840
    47    H    -11.779    -1.985    8.648
    48    C    -11.727    -3.348    7.004
    49    H    -10.670    -3.598    7.075
    50    C    -14.412    -2.767    6.721
    51    O    -15.619    -2.492    6.632
    52    N    -13.832    -3.640    5.864
    53    C    -12.524    -3.926    5.975
    54    N    -11.972    -4.761    5.099
    55    H    -12.529    -5.148    4.359
    56    H    -10.992    -4.975    5.112
    57    C    -15.045    -1.783    9.761
    58    H    -15.352    -2.830    9.547
    59    O    -16.183    -0.995    10.055
    60    H    -16.603    -1.390    10.836
    61    C    -14.039    -1.728    10.907
    62    H    -13.259    -2.510    10.768
    63    O    -14.602    -1.742    12.244
    64    P    -15.094    -3.133    12.812
    65    O    -14.174    -4.186    12.341
    66    O    -15.291    -3.008    14.272
    67    O    -16.506    -3.336    12.139
    68    C    -17.220    -4.584    12.338
    69    H    -17.713    -4.592    13.339
    70    H    -16.528    -5.460    12.306
    71    C    -18.300    -4.771    11.251
    72    H    -19.098    -4.002    11.357
    73    O    -17.701    -4.670    9.919
    74    C    -17.596    -5.962    9.345
    75    H    -18.405    -5.977    8.574
    76    N    -16.264    -6.208    8.740
    77    C    -15.132    -5.946    9.478
    78    H    -15.287    -5.498    10.464
    79    C    -13.912    -6.173    8.969
    80    H    -13.002    -5.944    9.515
    81    C    -16.151    -6.795    7.481
    82    O    -17.182    -7.123    6.873
    83    N    -14.930    -7.012    6.950
    84    C    -13.826    -6.739    7.664
    85    N    -12.635    -6.990    7.115
    86    H    -12.604    -7.288    6.165
    87    H    -11.777    -6.735    7.562
    88    C    -17.934    -6.975    10.418
    89    H    -17.039    -7.251    11.020
    90    O    -18.522    -8.125    9.853
    91    H    -18.090    -8.238    9.002
    92    C    -18.908    -6.186    11.272
    93    H    -18.831    -6.562    12.319
    94    O    -20.253    -6.197    10.758
    95    P    -21.486    -6.717    11.570
    96    O    -22.199    -5.532    12.093
    97    O    -22.282    -7.603    10.690
    98    O    -20.917    -7.534    12.794
    99    C    -21.351    -8.884    13.046
    100    H    -21.200    -9.533    12.155
    101    H    -22.435    -8.886    13.309
    102    C    -20.556    -9.479    14.210
    103    H    -20.540    -8.800    15.087
    104    O    -21.211    -10.710    14.636
    105    C    -20.232    -11.707    14.912
    106    H    -20.449    -12.089    15.938
    107    N    -20.286    -12.833    13.927
    108    C    -21.066    -12.757    12.790
    109    H    -21.601    -11.818    12.633
    110    C    -19.574    -13.980    14.207
    111    O    -18.894    -14.107    15.220
    112    N    -19.693    -14.984    13.280
    113    H    -19.223    -15.842    13.511
    114    C    -20.498    -14.998    12.162
    115    O    -20.563    -16.003    11.455
    116    C    -21.205    -13.777    11.931
    117    H    -21.849    -13.707    11.058
    118    C    -18.885    -11.006    14.915
    119    H    -18.070    -11.688    14.591
    120    O    -18.597    -10.486    16.205
    121    H    -17.829    -9.883    16.121
    122    C    -19.117    -9.901    13.878
    123    H    -19.149    -10.326    12.852
    124    O    -18.238    -8.762    13.921
    125    P    -16.697    -8.846    14.170
    126    O    -16.011    -7.802    13.386
    127    O    -16.525    -8.837    15.642
    128    O    -16.255    -10.253    13.640
    129    C    -15.132    -10.944    14.239
    130    H    -15.424    -11.394    15.218
    131    H    -14.278    -10.251    14.437
    132    C    -14.628    -12.048    13.299
    133    H    -13.764    -12.592    13.736
    134    O    -15.683    -13.025    13.071
    135    C    -15.644    -13.453    11.716
    136    H    -15.527    -14.561    11.733
    137    N    -16.888    -13.111    11.018
    138    C    -17.450    -13.794    9.976
    139    N    -17.389    -16.403    7.707
    140    H    -17.979    -16.796    7.005
    141    H    -16.541    -16.867    7.955
    142    N    -16.954    -14.902    9.398
    143    C    -17.733    -15.343    8.411
    144    N    -18.927    -14.759    8.072
    145    H    -19.466    -15.180    7.338
    146    C    -19.476    -13.635    8.676
    147    O    -20.567    -13.171    8.330
    148    C    -18.623    -13.121    9.687
    149    N    -18.774    -12.012    10.508
    150    C    -17.718    -12.048    11.281
    151    H    -17.486    -11.334    12.070
    152    C    -14.429    -12.832    11.060
    153    H    -14.603    -12.566    9.993
    154    O    -13.312    -13.702    11.159
    155    H    -12.565    -13.223    10.767
    156    C    -14.240    -11.567    11.891
    157    H    -14.989    -10.797    11.600
    158    O    -12.901    -11.039    11.901
    159    P    -12.396    -10.181    10.680
    160    O    -13.454    -9.206    10.334
    161    O    -11.051    -9.658    11.015
    162    O    -12.244    -11.238    9.509
    163    C    -12.463    -10.804    8.141
    164    H    -11.663    -10.089    7.839
    165    H    -13.434    -10.271    8.035
    166    C    -12.468    -11.988    7.146
    167    H    -11.505    -12.537    7.209
    168    O    -13.525    -12.955    7.464
    169    C    -14.183    -13.365    6.263
    170    H    -14.203    -14.475    6.300
    171    N    -15.575    -12.867    6.127
    172    C    -16.225    -11.886    6.834
    173    N    -16.111    -9.548    9.347
    174    H    -16.727    -9.071    9.968
    175    H    -15.134    -9.613    9.584
    176    N    -15.707    -11.164    7.827
    177    C    -16.539    -10.318    8.362
    178    N    -17.827    -10.156    7.905
    179    H    -18.480    -9.614    8.440
    180    C    -18.403    -10.869    6.861
    181    O    -19.564    -10.652    6.506
    182    C    -17.491    -11.805    6.301
    183    N    -17.651    -12.720    5.272
    184    C    -16.484    -13.317    5.197
    185    H    -16.226    -14.103    4.484
    186    C    -13.331    -12.901    5.112
    187    H    -13.930    -12.673    4.202
    188    O    -12.344    -13.872    4.812
    189    H    -11.731    -13.463    4.183
    190    C    -12.712    -11.619    5.671
    191    H    -13.464    -10.799    5.673
    192    O    -11.472    -11.225    5.051
    193    P    -11.442    -10.552    3.627
    194    O    -12.107    -9.241    3.757
    195    O    -10.036    -10.594    3.152
    196    O    -12.288    -11.507    2.702
    197    C    -12.935    -11.010    1.509
    198    H    -12.168    -10.664    0.778
    199    H    -13.604    -10.152    1.740
    200    C    -13.759    -12.135    0.849
    201    H    -13.162    -13.073    0.852
    202    O    -15.016    -12.375    1.547
    203    C    -16.108    -11.955    0.732
    204    H    -16.556    -12.900    0.348
    205    N    -17.126    -11.173    1.459
    206    C    -16.926    -10.304    2.497
    207    N    -14.749    -8.727    4.643
    208    H    -14.779    -8.092    5.416
    209    H    -13.863    -9.015    4.257
    210    N    -15.747    -10.010    3.058
    211    C    -15.837    -9.142    4.034
    212    N    -17.025    -8.582    4.431
    213    H    -17.026    -7.958    5.222
    214    C    -18.266    -8.849    3.858
    215    O    -19.305    -8.304    4.245
    216    C    -18.170    -9.800    2.809
    217    N    -19.150    -10.331    1.974
    218    C    -18.473    -11.129    1.173
    219    H    -18.903    -11.721    0.361
    220    C    -15.553    -11.169    -0.421
    221    H    -15.432    -10.094    -0.151
    222    O    -16.419    -11.333    -1.535
    223    H    -16.220    -10.722    -2.266
    224    C    -14.178    -11.821    -0.598
    225    H    -13.460    -11.063    -0.983
    226    O    -14.221    -13.004    -1.415
    227    P    -13.138    -13.366    -2.482
    228    O    -11.979    -13.958    -1.775
    229    O    -13.783    -14.185    -3.537
    230    O    -12.674    -11.999    -3.132
    231    C    -13.500    -11.237    -4.037
    232    H    -14.441    -11.770    -4.312
    233    H    -12.921    -11.083    -4.978
    234    C    -13.882    -9.871    -3.446
    235    H    -14.567    -10.007    -2.594
    236    O    -12.720    -9.156    -2.955
    237    C    -12.500    -8.010    -3.752
    238    H    -12.874    -7.146    -3.156
    239    N    -11.081    -7.854    -4.047
    240    C    -9.078    -7.015    -4.371
    241    N    -8.939    -8.397    -4.478
    242    C    -10.158    -8.846    -4.281
    243    H    -10.452    -9.901    -4.279
    244    N    -8.611    -4.691    -4.270
    245    C    -9.915    -4.524    -4.021
    246    H    -10.229    -3.482    -3.890
    247    N    -10.890    -5.433    -3.930
    248    C    -10.395    -6.671    -4.108
    249    C    -8.147    -5.956    -4.446
    250    N    -6.835    -6.132    -4.687
    251    H    -6.429    -7.041    -4.822
    252    H    -6.224    -5.337    -4.700
    253    C    -13.345    -8.160    -4.994
    254    H    -12.827    -8.784    -5.756
    255    O    -13.713    -6.912    -5.538
    256    H    -14.332    -6.500    -4.912
    257    C    -14.550    -8.913    -4.439
    258    H    -14.988    -9.515    -5.275
    259    O    -15.528    -8.062    -3.778
    260    P    -17.049    -8.422    -3.961
    261    O    -17.473    -7.968    -5.307
    262    O    -17.215    -9.862    -3.658
    263    O    -17.777    -7.567    -2.853
    264    C    -19.233    -7.566    -2.824
    265    H    -19.640    -8.603    -2.816
    266    H    -19.643    -7.043    -3.720
    267    C    -19.798    -6.873    -1.573
    268    H    -20.907    -6.908    -1.564
    269    O    -19.344    -7.572    -0.385
    270    C    -19.067    -6.637    0.646
    271    H    -19.657    -6.953    1.535
    272    N    -17.641    -6.651    0.994
    273    C    -17.051    -5.984    2.033
    274    N    -17.269    -3.823    4.738
    275    H    -18.245    -3.610    4.771
    276    H    -16.653    -3.398    5.407
    277    N    -17.677    -5.183    2.916
    278    C    -16.840    -4.663    3.812
    279    N    -15.502    -4.946    3.837
    280    H    -14.940    -4.512    4.553
    281    C    -14.829    -5.776    2.950
    282    O    -13.613    -5.957    3.059
    283    C    -15.710    -6.313    1.970
    284    N    -15.461    -7.169    0.902
    285    C    -16.639    -7.345    0.352
    286    H    -16.857    -7.967    -0.523
    287    C    -19.523    -5.274    0.163
    288    H    -18.891    -4.446    0.549
    289    O    -20.870    -5.048    0.533
    290    H    -21.166    -4.270    0.045
    291    C    -19.361    -5.423    -1.346
    292    H    -18.278    -5.393    -1.604
    293    O    -20.176    -4.525    -2.132
    294    P    -19.493    -3.376    -2.964
    295    O    -18.170    -3.800    -3.464
    296    O    -20.455    -2.864    -3.963
    297    O    -19.257    -2.251    -1.889
    298    C    -20.397    -1.609    -1.273
    299    H    -21.108    -2.355    -0.849
    300    H    -20.950    -1.002    -2.026
    301    C    -19.956    -0.663    -0.151
    302    H    -20.816    -0.081    0.241
    303    O    -19.422    -1.435    0.959
    304    C    -18.310    -0.744    1.516
    305    H    -18.543    -0.611    2.598
    306    N    -17.041    -1.508    1.377
    307    C    -16.933    -2.511    0.438
    308    H    -17.827    -2.717    -0.153
    309    C    -15.803    -3.211    0.289
    310    H    -15.709    -4.020    -0.432
    311    C    -15.944    -1.188    2.170
    312    O    -16.039    -0.264    2.991
    313    N    -14.792    -1.881    2.032
    314    C    -14.701    -2.864    1.120
    315    N    -13.556    -3.527    1.007
    316    H    -12.789    -3.302    1.614
    317    H    -13.452    -4.302    0.381
    318    C    -18.240    0.625    0.852
    319    H    -17.195    0.989    0.759
    320    O    -19.015    1.566    1.581
    321    H    -19.082    2.384    1.058
    322    C    -18.834    0.323    -0.519
    323    H    -18.088    -0.201    -1.158
    324    O    -19.380    1.467    -1.199
    325    H    -18.668    2.080    -1.460
 $END
