!*** FMO 5.3 (Gamess) INPUT generated by Facio 22.1.1.32 ***
 $CONTRL RUNTYP=ENERGY NPRINT=-5 ISPHER=1 MAXIT=200 $END
 $SYSTEM MWORDS=63 MEMDDI=63 $END
 $GDDI NGROUP=1 $END
 $SCF DIRSCF=.TRUE. NPUNCH=0 $END
!*** NumCPU : 2  MemPerNode : 512MB
 $PCM SOLVNT=WATER IEF=-10 ICOMP=2 ICAV=1 IDISP=1 IFMO=-1 $END
 $PCMCAV RADII=SUAHF $END
 $TESCAV NTSALL=60 $END
 $FMOPRP
    NAODIR=200
    NGRFMO(1)=1, 1, 0, 0, 0,   0, 0, 0, 0, 0
    IPIEDA=1
    NPRINT=9
 $END
 $FMO
      SCFTYP(1)=RHF
      MODGRD=10
      MODMUL=0
      MAXCAO=5
      MAXBND=12
      NLAYER=1
      MPLEVL(1)=2
      NFRAG=10
      ICHARG(1)=-1, -1, -1, -1, -1, -1, -1, -1, -1, 0
      FRGNAM(1)=F1, F2, F3, F4, F5, F6, F7, F8, F9, F10
      indat(1)=0
               1   -36   0
               37   -67   0
               68   -98   0
               99   -128   0
               129   -162   0
               163   -196   0
               197   -230   0
               231   -263   0
               264   -297   0
               298   -325   0
 $END

 $FMOBND
   -37   36       6-31G*    MINI
   -68   67       6-31G*    MINI
   -99   98       6-31G*    MINI
   -129   128       6-31G*    MINI
   -163   162       6-31G*    MINI
   -197   196       6-31G*    MINI
   -231   230       6-31G*    MINI
   -264   263       6-31G*    MINI
   -298   297       6-31G*    MINI
 $END
 $FMOHYB
 6-31G*      15   5
   1 0  -0.065034   0.288264   0.000000   0.000000   0.604412
         0.290129   0.000000   0.000000   0.319045  -0.017106
        -0.017106   0.057934   0.000000   0.000000   0.000000
   0 1  -0.065040   0.288293   0.569832   0.000000  -0.201456
         0.290147   0.300783   0.000000  -0.106342   0.049598
        -0.017106  -0.008771   0.000000  -0.027223   0.000000
   0 1  -0.065039   0.288293  -0.284916  -0.493490  -0.201455
         0.290145  -0.150392  -0.260486  -0.106340  -0.000427
         0.032923  -0.008771   0.033353   0.013612   0.023576
   0 1  -0.065039   0.288293  -0.284916   0.493490  -0.201455
         0.290145  -0.150392   0.260486  -0.106340  -0.000427
         0.032923  -0.008771  -0.033353   0.013612  -0.023576
   0 1   1.010938  -0.011975   0.000000   0.000000   0.000000
        -0.054085   0.000000   0.000000  -0.000000  -0.003174
        -0.003174  -0.003174   0.000000   0.000000   0.000000
 MINI         5   5
   1 0  -0.104883   0.308874   0.000000   0.000000   0.521806
   0 1  -0.104883   0.308874   0.491961   0.000000  -0.173934
   0 1  -0.104883   0.308876  -0.245980  -0.426050  -0.173933
   0 1  -0.104883   0.308876  -0.245980   0.426050  -0.173933
   0 1   0.988209   0.063992   0.000000   0.000000   0.000000
 $END
 
 $DATA
 FMO calculation
 C1 
 H.1-1    1
      N31 6
   
 O.1-1    8
      N31 6
      d 1
      1 0.800 1.0
   
 C.1-1    6
      N31 6
      d 1
      1 0.800 1.0
   
 N.1-1    7
      N31 6
      d 1
      1 0.800 1.0
   
 P.1-1   15
      N31 6
      d 1
      1 0.550 1.0
   
 $END
 $FMOXYZ
    1    H    -6.613    -1.271    11.516
    2    O    -7.331    -0.780    11.068
    3    C    -7.476    0.469    11.760
    4    H    -6.522    1.040    11.690
    5    H    -7.672    0.263    12.835
    6    C    -8.610    1.336    11.202
    7    H    -8.702    2.288    11.765
    8    O    -8.334    1.674    9.810
    9    C    -9.546    1.648    9.072
    10    H    -9.648    2.647    8.589
    11    N    -9.517    0.618    8.025
    12    C    -10.343    0.552    6.937
    13    N    -12.966    1.835    5.084
    14    H    -13.263    2.611    5.635
    15    H    -13.448    1.632    4.227
    16    N    -11.344    1.403    6.658
    17    C    -11.954    1.108    5.512
    18    N    -11.582    0.060    4.712
    19    H    -12.087    -0.082    3.852
    20    C    -10.544    -0.828    4.967
    21    O    -10.267    -1.743    4.185
    22    C    -9.908    -0.537    6.204
    23    N    -8.845    -1.168    6.839
    24    C    -8.653    -0.451    7.924
    25    H    -7.892    -0.638    8.685
    26    C    -10.673    1.447    10.058
    27    H    -11.529    0.890    9.624
    28    O    -11.112    2.702    10.532
    29    H    -11.706    2.508    11.267
    30    C    -9.985    0.655    11.165
    31    H    -9.800    -0.391    10.835
    32    O    -10.616    0.735    12.468
    33    P    -11.706    -0.341    12.846
    34    O    -11.171    -1.696    12.587
    35    O    -12.173    -0.072    14.222
    36    O    -12.869    -0.058    11.829
    37    C    -13.702    1.117    11.982
    38    H    -13.108    2.055    11.906
    39    H    -14.195    1.121    12.982
    40    C    -14.806    1.151    10.917
    41    H    -15.445    2.053    11.038
    42    O    -14.219    1.214    9.586
    43    C    -15.016    0.454    8.686
    44    H    -15.338    1.172    7.895
    45    N    -14.261    -0.657    8.040
    46    C    -13.121    -1.146    8.633
    47    H    -12.832    -0.669    9.569
    48    C    -12.399    -2.119    8.063
    49    H    -11.472    -2.490    8.497
    50    C    -14.720    -1.228    6.855
    51    O    -15.779    -0.821    6.355
    52    N    -13.998    -2.204    6.260
    53    C    -12.864    -2.648    6.826
    54    N    -12.164    -3.591    6.207
    55    H    -12.489    -3.955    5.330
    56    H    -11.309    -3.949    6.580
    57    C    -16.241    -0.018    9.445
    58    H    -16.598    -1.012    9.102
    59    O    -17.275    0.944    9.330
    60    H    -17.942    0.711    9.988
    61    C    -15.711    -0.087    10.872
    62    H    -15.045    -0.973    10.991
    63    O    -16.725    0.008    11.897
    64    P    -17.224    -1.291    12.636
    65    O    -16.054    -2.111    13.021
    66    O    -18.157    -0.914    13.719
    67    O    -18.021    -2.072    11.544
    68    C    -19.235    -1.592    10.939
    69    H    -19.105    -0.569    10.529
    70    H    -20.056    -1.564    11.690
    71    C    -19.662    -2.494    9.772
    72    H    -20.625    -2.140    9.336
    73    O    -18.664    -2.412    8.716
    74    C    -18.493    -3.694    8.127
    75    H    -18.724    -3.543    7.047
    76    N    -17.100    -4.204    8.259
    77    C    -16.349    -3.866    9.357
    78    H    -16.831    -3.211    10.076
    79    C    -15.087    -4.283    9.499
    80    H    -14.470    -4.000    10.350
    81    C    -16.563    -5.054    7.294
    82    O    -17.271    -5.385    6.331
    83    N    -15.284    -5.487    7.417
    84    C    -14.548    -5.107    8.473
    85    N    -13.284    -5.507    8.555
    86    H    -12.915    -6.065    7.808
    87    H    -12.727    -5.363    9.370
    88    C    -19.539    -4.625    8.725
    89    H    -19.173    -5.670    8.826
    90    O    -20.719    -4.598    7.939
    91    H    -21.397    -5.101    8.416
    92    C    -19.772    -3.992    10.094
    93    H    -18.925    -4.239    10.774
    94    O    -21.063    -4.267    10.682
    95    P    -21.232    -5.532    11.606
    96    O    -20.090    -5.585    12.543
    97    O    -22.590    -5.435    12.193
    98    O    -21.182    -6.767    10.634
    99    C    -20.841    -8.076    11.162
    100    H    -21.742    -8.550    11.611
    101    H    -20.056    -8.013    11.955
    102    C    -20.292    -9.016    10.075
    103    H    -21.112    -9.346    9.403
    104    O    -19.341    -8.295    9.233
    105    C    -18.250    -9.131    8.915
    106    H    -18.180    -9.125    7.804
    107    N    -16.990    -8.624    9.521
    108    C    -16.992    -7.891    10.685
    109    H    -17.973    -7.723    11.136
    110    C    -15.814    -8.899    8.865
    111    O    -15.779    -9.524    7.821
    112    N    -14.683    -8.406    9.465
    113    H    -13.808    -8.605    9.009
    114    C    -14.608    -7.668    10.624
    115    O    -13.517    -7.283    11.044
    116    C    -15.872    -7.406    11.241
    117    H    -15.886    -6.842    12.170
    118    C    -18.602    -10.534    9.385
    119    H    -17.704    -11.093    9.732
    120    O    -19.267    -11.250    8.351
    121    H    -19.848    -11.889    8.795
    122    C    -19.524    -10.260    10.564
    123    H    -18.913    -9.947    11.446
    124    O    -20.439    -11.343    10.853
    125    P    -20.273    -12.227    12.147
    126    O    -20.089    -11.345    13.319
    127    O    -21.389    -13.195    12.199
    128    O    -18.944    -13.029    11.884
    129    C    -18.299    -13.722    12.987
    130    H    -19.036    -14.226    13.655
    131    H    -17.736    -12.996    13.616
    132    C    -17.311    -14.799    12.500
    133    H    -16.739    -15.222    13.354
    134    O    -18.052    -15.893    11.900
    135    C    -17.364    -16.358    10.746
    136    H    -17.205    -17.452    10.889
    137    N    -18.164    -16.154    9.533
    138    C    -17.955    -16.752    8.317
    139    N    -16.100    -18.811    6.229
    140    H    -16.166    -19.173    5.298
    141    H    -15.397    -19.163    6.847
    142    N    -16.972    -17.625    8.019
    143    C    -17.016    -18.007    6.738
    144    N    -18.009    -17.630    5.873
    145    H    -17.987    -17.996    4.934
    146    C    -19.064    -16.779    6.175
    147    O    -19.933    -16.497    5.344
    148    C    -18.975    -16.288    7.504
    149    N    -19.795    -15.392    8.189
    150    C    -19.275    -15.346    9.393
    151    H    -19.650    -14.747    10.228
    152    C    -16.027    -15.655    10.678
    153    H    -15.695    -15.450    9.634
    154    O    -15.035    -16.403    11.358
    155    H    -14.230    -15.864    11.342
    156    C    -16.331    -14.355    11.404
    157    H    -16.914    -13.683    10.734
    158    O    -15.173    -13.715    11.992
    159    P    -14.343    -12.749    11.067
    160    O    -15.318    -11.973    10.266
    161    O    -13.443    -11.970    11.946
    162    O    -13.486    -13.717    10.165
    163    C    -13.009    -13.250    8.878
    164    H    -12.334    -12.364    8.992
    165    H    -13.859    -12.915    8.245
    166    C    -12.258    -14.370    8.119
    167    H    -11.412    -14.746    8.730
    168    O    -13.128    -15.515    7.860
    169    C    -12.957    -15.956    6.511
    170    H    -12.800    -17.055    6.573
    171    N    -14.136    -15.687    5.640
    172    C    -15.269    -14.942    5.900
    173    N    -17.014    -12.939    8.075
    174    H    -17.806    -12.327    8.114
    175    H    -16.307    -12.812    8.778
    176    N    -15.544    -14.291    7.035
    177    C    -16.676    -13.645    7.019
    178    N    -17.517    -13.631    5.933
    179    H    -18.384    -13.130    5.996
    180    C    -17.274    -14.306    4.732
    181    O    -18.083    -14.250    3.802
    182    C    -16.038    -15.011    4.759
    183    N    -15.419    -15.794    3.791
    184    C    -14.290    -16.166    4.355
    185    H    -13.534    -16.795    3.876
    186    C    -11.706    -15.290    5.977
    187    H    -11.751    -15.097    4.881
    188    O    -10.557    -16.070    6.272
    189    H    -9.780    -15.494    6.174
    190    C    -11.721    -13.975    6.737
    191    H    -12.488    -13.301    6.281
    192    O    -10.423    -13.371    6.871
    193    P    -10.039    -12.128    6.004
    194    O    -11.038    -11.073    6.281
    195    O    -8.627    -11.803    6.305
    196    O    -10.146    -12.627    4.512
    197    C    -10.702    -11.772    3.487
    198    H    -9.932    -11.059    3.120
    199    H    -11.567    -11.174    3.858
    200    C    -11.198    -12.626    2.305
    201    H    -10.406    -13.321    1.959
    202    O    -12.346    -13.434    2.708
    203    C    -13.347    -13.400    1.697
    204    H    -13.602    -14.462    1.494
    205    N    -14.588    -12.691    2.102
    206    C    -14.856    -11.984    3.255
    207    N    -13.838    -10.867    6.350
    208    H    -14.245    -10.379    7.119
    209    H    -12.858    -11.102    6.342
    210    N    -14.018    -11.790    4.283
    211    C    -14.552    -11.127    5.275
    212    N    -15.837    -10.653    5.253
    213    H    -16.157    -10.141    6.057
    214    C    -16.734    -10.813    4.205
    215    O    -17.887    -10.378    4.257
    216    C    -16.156    -11.539    3.128
    217    N    -16.701    -11.941    1.914
    218    C    -15.740    -12.632    1.347
    219    H    -15.822    -13.125    0.374
    220    C    -12.716    -12.772    0.477
    221    H    -13.448    -12.217    -0.135
    222    O    -12.100    -13.761    -0.325
    223    H    -11.517    -13.308    -0.954
    224    C    -11.696    -11.823    1.099
    225    H    -12.210    -10.936    1.533
    226    O    -10.596    -11.484    0.225
    227    P    -10.500    -10.067    -0.456
    228    O    -10.220    -9.064    0.593
    229    O    -9.531    -10.141    -1.571
    230    O    -11.930    -9.768    -1.030
    231    C    -12.497    -10.447    -2.169
    232    H    -12.411    -11.553    -2.071
    233    H    -11.962    -10.148    -3.097
    234    C    -13.986    -10.096    -2.336
    235    H    -14.420    -10.615    -3.217
    236    O    -14.727    -10.545    -1.162
    237    C    -15.671    -9.563    -0.786
    238    H    -16.655    -10.081    -0.706
    239    N    -15.337    -8.978    0.518
    240    C    -15.480    -7.996    2.472
    241    N    -14.169    -8.430    2.363
    242    C    -14.136    -9.000    1.186
    243    H    -13.260    -9.465    0.748
    244    N    -17.472    -7.028    3.296
    245    C    -18.030    -7.383    2.138
    246    H    -19.086    -7.119    2.033
    247    N    -17.495    -8.046    1.106
    248    C    -16.206    -8.323    1.343
    249    C    -16.166    -7.324    3.498
    250    N    -15.575    -6.971    4.651
    251    H    -14.617    -7.179    4.854
    252    H    -16.112    -6.470    5.341
    253    C    -15.724    -8.540    -1.894
    254    H    -15.980    -7.528    -1.522
    255    O    -16.673    -8.937    -2.867
    256    H    -16.523    -8.395    -3.655
    257    C    -14.304    -8.595    -2.445
    258    H    -13.599    -8.067    -1.760
    259    O    -14.181    -8.160    -3.818
    260    P    -13.835    -6.647    -4.114
    261    O    -12.511    -6.368    -3.521
    262    O    -13.990    -6.394    -5.561
    263    O    -14.913    -5.813    -3.321
    264    C    -16.236    -5.637    -3.885
    265    H    -16.753    -6.614    -4.016
    266    H    -16.181    -5.151    -4.885
    267    C    -17.107    -4.756    -2.985
    268    H    -18.119    -4.624    -3.425
    269    O    -17.307    -5.403    -1.695
    270    C    -17.242    -4.426    -0.666
    271    H    -18.161    -4.546    -0.048
    272    N    -16.060    -4.622    0.188
    273    C    -15.853    -4.086    1.433
    274    N    -16.848    -2.030    4.034
    275    H    -17.727    -1.680    3.720
    276    H    -16.468    -1.698    4.901
    277    N    -16.690    -3.264    2.094
    278    C    -16.190    -2.873    3.264
    279    N    -14.989    -3.313    3.752
    280    H    -14.694    -2.980    4.657
    281    C    -14.126    -4.193    3.119
    282    O    -13.065    -4.536    3.650
    283    C    -14.619    -4.565    1.837
    284    N    -14.052    -5.362    0.851
    285    C    -14.940    -5.365    -0.107
    286    H    -14.837    -5.899    -1.050
    287    C    -17.244    -3.066    -1.335
    288    H    -16.691    -2.301    -0.750
    289    O    -18.573    -2.632    -1.544
    290    H    -18.536    -1.849    -2.111
    291    C    -16.539    -3.374    -2.647
    292    H    -15.449    -3.521    -2.462
    293    O    -16.828    -2.445    -3.719
    294    P    -15.709    -1.441    -4.188
    295    O    -14.401    -2.130    -4.177
    296    O    -16.114    -0.816    -5.467
    297    O    -15.734    -0.351    -3.055
    298    C    -16.913    0.480    -2.904
    299    H    -17.839    -0.132    -2.790
    300    H    -17.041    1.127    -3.804
    301    C    -16.802    1.404    -1.683
    302    H    -17.656    2.110    -1.637
    303    O    -16.849    0.614    -0.461
    304    C    -15.931    1.162    0.479
    305    H    -16.527    1.369    1.398
    306    N    -14.824    0.218    0.811
    307    C    -14.518    -0.821    -0.039
    308    H    -15.138    -0.904    -0.930
    309    C    -13.534    -1.686    0.236
    310    H    -13.295    -2.526    -0.415
    311    C    -14.072    0.402    1.966
    312    O    -14.335    1.358    2.711
    313    N    -13.069    -0.456    2.259
    314    C    -12.789    -1.479    1.432
    315    N    -11.805    -2.315    1.755
    316    H    -11.300    -2.178    2.611
    317    H    -11.583    -3.113    1.198
    318    C    -15.423    2.483    -0.085
    319    H    -14.375    2.693    0.219
    320    O    -16.268    3.554    0.308
    321    H    -16.005    4.356    -0.180
    322    C    -15.503    2.211    -1.580
    323    H    -14.663    1.554    -1.882
    324    O    -15.568    3.386    -2.408
    325    H    -14.717    3.860    -2.376
 $END
