!*** FMO 5.3 (Gamess) INPUT generated by Facio 22.1.1.32 ***
 $CONTRL RUNTYP=ENERGY NPRINT=-5 ISPHER=1 MAXIT=200 $END
 $SYSTEM MWORDS=63 MEMDDI=63 $END
 $GDDI NGROUP=1 $END
 $SCF DIRSCF=.TRUE. NPUNCH=0 $END
!*** NumCPU : 2  MemPerNode : 512MB
 $PCM SOLVNT=WATER IEF=-10 ICOMP=2 ICAV=1 IDISP=1 IFMO=-1 $END
 $PCMCAV RADII=SUAHF $END
 $TESCAV NTSALL=60 $END
 $FMOPRP
    NAODIR=200
    NGRFMO(1)=1, 1, 0, 0, 0,   0, 0, 0, 0, 0
    IPIEDA=1
    NPRINT=9
 $END
 $FMO
      SCFTYP(1)=RHF
      MODGRD=10
      MODMUL=0
      MAXCAO=5
      MAXBND=12
      NLAYER=1
      MPLEVL(1)=2
      NFRAG=10
      ICHARG(1)=-1, -1, -1, -1, -1, -1, -1, -1, -1, 0
      FRGNAM(1)=F1, F2, F3, F4, F5, F6, F7, F8, F9, F10
      indat(1)=0
               1   -36   0
               37   -67   0
               68   -98   0
               99   -128   0
               129   -162   0
               163   -196   0
               197   -230   0
               231   -263   0
               264   -297   0
               298   -325   0
 $END

 $FMOBND
   -37   36       6-31G*    MINI
   -68   67       6-31G*    MINI
   -99   98       6-31G*    MINI
   -129   128       6-31G*    MINI
   -163   162       6-31G*    MINI
   -197   196       6-31G*    MINI
   -231   230       6-31G*    MINI
   -264   263       6-31G*    MINI
   -298   297       6-31G*    MINI
 $END
 $FMOHYB
 6-31G*      15   5
   1 0  -0.065034   0.288264   0.000000   0.000000   0.604412
         0.290129   0.000000   0.000000   0.319045  -0.017106
        -0.017106   0.057934   0.000000   0.000000   0.000000
   0 1  -0.065040   0.288293   0.569832   0.000000  -0.201456
         0.290147   0.300783   0.000000  -0.106342   0.049598
        -0.017106  -0.008771   0.000000  -0.027223   0.000000
   0 1  -0.065039   0.288293  -0.284916  -0.493490  -0.201455
         0.290145  -0.150392  -0.260486  -0.106340  -0.000427
         0.032923  -0.008771   0.033353   0.013612   0.023576
   0 1  -0.065039   0.288293  -0.284916   0.493490  -0.201455
         0.290145  -0.150392   0.260486  -0.106340  -0.000427
         0.032923  -0.008771  -0.033353   0.013612  -0.023576
   0 1   1.010938  -0.011975   0.000000   0.000000   0.000000
        -0.054085   0.000000   0.000000  -0.000000  -0.003174
        -0.003174  -0.003174   0.000000   0.000000   0.000000
 MINI         5   5
   1 0  -0.104883   0.308874   0.000000   0.000000   0.521806
   0 1  -0.104883   0.308874   0.491961   0.000000  -0.173934
   0 1  -0.104883   0.308876  -0.245980  -0.426050  -0.173933
   0 1  -0.104883   0.308876  -0.245980   0.426050  -0.173933
   0 1   0.988209   0.063992   0.000000   0.000000   0.000000
 $END
 
 $DATA
 FMO calculation
 C1 
 H.1-1    1
      N31 6
   
 O.1-1    8
      N31 6
      d 1
      1 0.800 1.0
   
 C.1-1    6
      N31 6
      d 1
      1 0.800 1.0
   
 N.1-1    7
      N31 6
      d 1
      1 0.800 1.0
   
 P.1-1   15
      N31 6
      d 1
      1 0.550 1.0
   
 $END
 $FMOXYZ
    1    H    -8.554    3.647    13.170
    2    O    -9.450    3.587    12.785
    3    C    -10.272    4.511    13.514
    4    H    -9.830    5.533    13.453
    5    H    -10.287    4.219    14.588
    6    C    -11.713    4.560    13.003
    7    H    -12.326    5.271    13.597
    8    O    -11.731    5.017    11.618
    9    C    -12.729    4.302    10.907
    10    H    -13.412    5.057    10.457
    11    N    -12.146    3.488    9.831
    12    C    -12.821    2.962    8.761
    13    N    -15.764    2.509    6.997
    14    H    -16.437    2.969    7.572
    15    H    -16.068    2.058    6.153
    16    N    -14.138    3.081    8.524
    17    C    -14.503    2.496    7.386
    18    N    -13.619    1.866    6.550
    19    H    -13.980    1.449    5.706
    20    C    -12.253    1.732    6.763
    21    O    -11.526    1.146    5.951
    22    C    -11.862    2.329    7.992
    23    N    -10.610    2.422    8.588
    24    C    -10.825    3.124    9.678
    25    H    -10.066    3.414    10.409
    26    C    -13.496    3.474    11.915
    27    H    -13.894    2.536    11.481
    28    O    -14.554    4.245    12.447
    29    H    -14.971    3.698    13.123
    30    C    -12.432    3.202    12.974
    31    H    -11.696    2.451    12.603
    32    O    -12.938    2.887    14.294
    33    P    -13.213    1.383    14.679
    34    O    -12.030    0.552    14.369
    35    O    -13.710    1.301    16.071
    36    O    -14.378    0.957    13.713
    37    C    -15.724    1.449    13.924
    38    H    -15.760    2.558    13.914
    39    H    -16.113    1.112    14.911
    40    C    -16.686    0.949    12.836
    41    H    -17.707    1.363    12.980
    42    O    -16.221    1.388    11.529
    43    C    -16.492    0.375    10.569
    44    H    -17.150    0.859    9.808
    45    N    -15.269    -0.124    9.888
    46    C    -14.036    0.052    10.466
    47    H    -14.031    0.545    11.438
    48    C    -12.914    -0.351    9.858
    49    H    -11.928    -0.191    10.288
    50    C    -15.370    -0.781    8.665
    51    O    -16.489    -0.965    8.164
    52    N    -14.248    -1.203    8.039
    53    C    -13.042    -0.995    8.596
    54    N    -11.956    -1.398    7.944
    55    H    -12.054    -1.851    7.054
    56    H    -11.035    -1.217    8.289
    57    C    -17.272    -0.717    11.268
    58    H    -17.057    -1.731    10.873
    59    O    -18.656    -0.445    11.167
    60    H    -19.097    -1.082    11.743
    61    C    -16.787    -0.576    12.706
    62    H    -15.747    -0.963    12.809
    63    O    -17.694    -1.105    13.701
    64    P    -17.506    -2.584    14.210
    65    O    -16.062    -2.839    14.401
    66    O    -18.386    -2.808    15.377
    67    O    -18.000    -3.491    13.029
    68    C    -19.367    -3.485    12.559
    69    H    -19.717    -2.458    12.322
    70    H    -20.051    -3.883    13.344
    71    C    -19.517    -4.362    11.307
    72    H    -20.581    -4.424    10.988
    73    O    -18.783    -3.763    10.205
    74    C    -18.202    -4.794    9.415
    75    H    -18.627    -4.656    8.394
    76    N    -16.722    -4.680    9.346
    77    C    -16.028    -4.161    10.411
    78    H    -16.635    -3.863    11.265
    79    C    -14.698    -4.007    10.373
    80    H    -14.136    -3.584    11.204
    81    C    -16.034    -5.110    8.216
    82    O    -16.671    -5.596    7.271
    83    N    -14.689    -4.960    8.156
    84    C    -14.022    -4.428    9.193
    85    N    -12.697    -4.319    9.119
    86    H    -12.215    -4.618    8.291
    87    H    -12.158    -3.930    9.864
    88    C    -18.676    -6.135    9.959
    89    H    -17.901    -6.930    9.875
    90    O    -19.862    -6.538    9.294
    91    H    -20.187    -7.334    9.744
    92    C    -18.952    -5.792    11.419
    93    H    -17.986    -5.732    11.984
    94    O    -19.930    -6.639    12.056
    95    P    -19.482    -7.884    12.900
    96    O    -18.251    -7.527    13.639
    97    O    -20.649    -8.326    13.698
    98    O    -19.151    -8.997    11.833
    99    C    -18.797    -10.330    12.312
    100    H    -19.695    -10.829    12.731
    101    H    -18.027    -10.279    13.118
    102    C    -18.221    -11.212    11.183
    103    H    -18.964    -11.325    10.369
    104    O    -17.072    -10.529    10.620
    105    C    -16.059    -11.465    10.316
    106    H    -15.782    -11.307    9.268
    107    N    -14.835    -11.248    11.103
    108    C    -14.853    -10.466    12.231
    109    H    -15.831    -10.072    12.517
    110    C    -13.655    -11.732    10.586
    111    O    -13.599    -12.376    9.547
    112    N    -12.540    -11.417    11.316
    113    H    -11.673    -11.766    10.950
    114    C    -12.476    -10.635    12.450
    115    O    -11.392    -10.401    12.981
    116    C    -13.742    -10.145    12.904
    117    H    -13.773    -9.498    13.776
    118    C    -16.649    -12.843    10.433
    119    H    -15.899    -13.619    10.701
    120    O    -17.264    -13.159    9.194
    121    H    -16.609    -13.101    8.483
    122    C    -17.684    -12.627    11.540
    123    H    -17.171    -12.544    12.527
    124    O    -18.764    -13.597    11.597
    125    P    -18.412    -15.134    11.723
    126    O    -17.337    -15.264    12.728
    127    O    -19.672    -15.856    12.014
    128    O    -17.887    -15.605    10.322
    129    C    -17.260    -16.867    10.045
    130    H    -17.554    -17.649    10.783
    131    H    -16.156    -16.747    10.094
    132    C    -17.626    -17.365    8.636
    133    H    -17.109    -18.323    8.405
    134    O    -19.062    -17.614    8.579
    135    C    -19.569    -17.199    7.319
    136    H    -20.092    -18.084    6.889
    137    N    -20.533    -16.092    7.456
    138    C    -21.393    -15.641    6.486
    139    N    -22.660    -15.827    3.266
    140    H    -23.358    -15.376    2.712
    141    H    -22.123    -16.569    2.871
    142    N    -21.496    -16.122    5.233
    143    C    -22.430    -15.488    4.522
    144    N    -23.211    -14.480    5.030
    145    H    -23.889    -14.047    4.426
    146    C    -23.128    -13.969    6.320
    147    O    -23.868    -13.057    6.705
    148    C    -22.124    -14.630    7.080
    149    N    -21.713    -14.426    8.393
    150    C    -20.755    -15.310    8.569
    151    H    -20.183    -15.451    9.488
    152    C    -18.391    -16.833    6.446
    153    H    -18.630    -16.007    5.742
    154    O    -17.942    -17.963    5.714
    155    H    -17.086    -17.728    5.324
    156    C    -17.368    -16.375    7.483
    157    H    -17.627    -15.359    7.856
    158    O    -15.994    -16.450    7.068
    159    P    -15.402    -15.500    5.955
    160    O    -14.188    -14.866    6.508
    161    O    -15.227    -16.327    4.744
    162    O    -16.500    -14.407    5.653
    163    C    -16.148    -13.196    4.943
    164    H    -16.489    -13.268    3.887
    165    H    -15.044    -13.010    4.912
    166    C    -16.813    -11.980    5.595
    167    H    -17.895    -12.156    5.777
    168    O    -16.187    -11.725    6.874
    169    C    -16.029    -10.328    7.057
    170    H    -16.543    -10.046    8.003
    171    N    -14.598    -9.974    7.158
    172    C    -14.014    -9.151    8.091
    173    N    -14.270    -7.176    10.921
    174    H    -13.666    -6.691    11.561
    175    H    -15.245    -7.238    11.104
    176    N    -14.648    -8.495    9.079
    177    C    -13.816    -7.844    9.876
    178    N    -12.459    -7.815    9.690
    179    H    -11.894    -7.294    10.345
    180    C    -11.773    -8.475    8.677
    181    O    -10.543    -8.404    8.589
    182    C    -12.658    -9.185    7.820
    183    N    -12.390    -10.005    6.730
    184    C    -13.571    -10.459    6.377
    185    H    -13.756    -11.168    5.567
    186    C    -16.763    -9.642    5.945
    187    H    -16.293    -8.692    5.676
    188    O    -18.109    -9.406    6.321
    189    H    -18.570    -9.023    5.562
    190    C    -16.648    -10.665    4.821
    191    H    -15.616    -10.667    4.406
    192    O    -17.644    -10.562    3.781
    193    P    -17.532    -9.371    2.754
    194    O    -18.713    -9.433    1.867
    195    O    -17.308    -8.093    3.467
    196    O    -16.255    -9.752    1.913
    197    C    -15.214    -8.785    1.654
    198    H    -15.128    -8.034    2.469
    199    H    -15.445    -8.236    0.719
    200    C    -13.848    -9.459    1.469
    201    H    -13.821    -9.942    0.487
    202    O    -12.797    -8.465    1.416
    203    C    -11.632    -8.953    2.065
    204    H    -10.827    -8.876    1.296
    205    N    -11.246    -8.128    3.210
    206    C    -12.068    -7.521    4.122
    207    N    -15.254    -6.690    5.113
    208    H    -15.715    -6.266    5.895
    209    H    -15.795    -7.238    4.467
    210    N    -13.404    -7.574    4.137
    211    C    -13.947    -6.830    5.066
    212    N    -13.213    -6.155    5.999
    213    H    -13.716    -5.670    6.724
    214    C    -11.822    -6.108    6.046
    215    O    -11.245    -5.462    6.925
    216    C    -11.234    -6.856    4.990
    217    N    -9.900    -7.034    4.631
    218    C    -9.960    -7.808    3.570
    219    H    -9.095    -8.176    3.010
    220    C    -11.845    -10.400    2.449
    221    H    -11.400    -10.669    3.432
    222    O    -11.264    -11.190    1.432
    223    H    -11.989    -11.397    0.817
    224    C    -13.389    -10.470    2.528
    225    H    -13.705    -10.021    3.492
    226    O    -14.064    -11.728    2.377
    227    P    -13.769    -12.953    1.470
    228    O    -12.592    -13.655    2.025
    229    O    -14.982    -13.773    1.285
    230    O    -13.330    -12.343    0.073
    231    C    -14.284    -11.903    -0.912
    232    H    -15.093    -11.295    -0.444
    233    H    -14.754    -12.783    -1.404
    234    C    -13.579    -11.022    -1.960
    235    H    -12.985    -10.219    -1.470
    236    O    -12.713    -11.830    -2.803
    237    C    -13.348    -12.066    -4.056
    238    H    -12.774    -11.471    -4.799
    239    N    -13.307    -13.492    -4.418
    240    C    -13.361    -15.413    -5.496
    241    N    -12.999    -15.717    -4.186
    242    C    -12.982    -14.544    -3.595
    243    H    -12.733    -14.373    -2.545
    244    N    -13.922    -15.603    -7.795
    245    C    -14.078    -14.274    -7.783
    246    H    -14.374    -13.828    -8.738
    247    N    -13.894    -13.409    -6.783
    248    C    -13.551    -14.048    -5.651
    249    C    -13.553    -16.218    -6.641
    250    N    -13.390    -17.555    -6.649
    251    H    -13.090    -18.059    -5.836
    252    H    -13.481    -18.059    -7.512
    253    C    -14.760    -11.510    -3.964
    254    H    -15.464    -12.276    -3.569
    255    O    -15.222    -11.010    -5.202
    256    H    -14.647    -10.269    -5.450
    257    C    -14.578    -10.390    -2.943
    258    H    -15.542    -10.241    -2.394
    259    O    -14.067    -9.158    -3.506
    260    P    -14.896    -7.817    -3.472
    261    O    -14.475    -7.012    -4.639
    262    O    -16.339    -8.130    -3.381
    263    O    -14.410    -7.079    -2.167
    264    C    -14.617    -5.643    -2.030
    265    H    -14.803    -5.125    -3.000
    266    H    -13.689    -5.194    -1.613
    267    C    -15.761    -5.300    -1.065
    268    H    -16.721    -5.726    -1.424
    269    O    -15.479    -5.871    0.234
    270    C    -15.929    -5.004    1.254
    271    H    -16.620    -5.594    1.896
    272    N    -14.805    -4.527    2.076
    273    C    -14.895    -3.848    3.259
    274    N    -16.813    -2.499    5.803
    275    H    -17.746    -2.679    5.496
    276    H    -16.658    -2.001    6.659
    277    N    -16.030    -3.484    3.878
    278    C    -15.806    -2.884    5.044
    279    N    -14.551    -2.652    5.534
    280    H    -14.465    -2.187    6.425
    281    C    -13.362    -3.005    4.911
    282    O    -12.267    -2.753    5.423
    283    C    -13.591    -3.636    3.664
    284    N    -12.689    -4.153    2.745
    285    C    -13.458    -4.687    1.822
    286    H    -13.111    -5.224    0.935
    287    C    -16.678    -3.873    0.581
    288    H    -16.587    -2.915    1.132
    289    O    -18.047    -4.204    0.438
    290    H    -18.448    -3.512    -0.102
    291    C    -15.975    -3.809    -0.771
    292    H    -14.954    -3.377    -0.651
    293    O    -16.757    -3.195    -1.826
    294    P    -16.399    -1.726    -2.270
    295    O    -14.934    -1.541    -2.250
    296    O    -17.094    -1.426    -3.540
    297    O    -17.037    -0.852    -1.125
    298    C    -18.472    -0.852    -0.929
    299    H    -18.870    -1.885    -0.800
    300    H    -18.982    -0.403    -1.811
    301    C    -18.868    -0.030    0.305
    302    H    -19.971    0.050    0.394
    303    O    -18.391    -0.699    1.507
    304    C    -17.932    0.277    2.435
    305    H    -18.512    0.096    3.373
    306    N    -16.480    0.143    2.730
    307    C    -15.653    -0.511    1.848
    308    H    -16.131    -0.932    0.965
    309    C    -14.345    -0.652    2.088
    310    H    -13.686    -1.186    1.410
    311    C    -15.943    0.726    3.873
    312    O    -16.687    1.363    4.634
    313    N    -14.624    0.594    4.135
    314    C    -13.829    -0.072    3.280
    315    N    -12.537    -0.190    3.566
    316    H    -12.171    0.223    4.403
    317    H    -11.904    -0.678    2.961
    318    C    -18.290    1.646    1.885
    319    H    -17.537    2.418    2.158
    320    O    -19.572    2.037    2.351
    321    H    -19.848    2.838    1.872
    322    C    -18.271    1.383    0.382
    323    H    -17.222    1.341    0.014
    324    O    -19.052    2.312    -0.394
    325    H    -18.650    3.201    -0.348
 $END
